8
Lattice="5.703609999999999 0.0 0.0 0.0 5.703609999999999 0.0 0.0 0.0 5.703609999999999" Properties=species:S:1:pos:R:3:forces:R:3 calculation_type=solid calculation_label=AlP/scale_1.045 d4_functional=HSE06 d4_method=hse06 d4_energy_eV=-2.132518516414331 source_geometry=/mnt/ceph/users/cwoodson/dft_calc/latbulk/eos_jobs/AlP/scale_1.045/geometry.in energy=-2.132518516414331 free_energy=-2.132518516414331 stress="0.012003955574916153 4.639934695008088e-19 7.859810470422584e-19 4.639934695008088e-19 0.012003955574916297 -3.6728653260469335e-18 7.859810470422584e-19 -3.6728653260469335e-18 0.012003955574916443" pbc="T T T"
Al       0.00000000       0.00000000       0.00000000       0.00000000      -0.00000000      -0.00000000
P        1.42590250       1.42590250       1.42590250       0.00000000       0.00000000      -0.00000000
Al       0.00000000       2.85180500       2.85180500       0.00000000       0.00000000       0.00000000
P        1.42590250       4.27770750       4.27770750       0.00000000      -0.00000000       0.00000000
Al       2.85180500       0.00000000       2.85180500      -0.00000000      -0.00000000       0.00000000
P        4.27770750       1.42590250       4.27770750      -0.00000000       0.00000000       0.00000000
Al       2.85180500       2.85180500       0.00000000      -0.00000000       0.00000000      -0.00000000
P        4.27770750       4.27770750       1.42590250      -0.00000000      -0.00000000      -0.00000000
