8
Lattice="5.785480000000001 0.0 0.0 0.0 5.785480000000001 0.0 0.0 0.0 5.785480000000001" Properties=species:S:1:pos:R:3:forces:R:3 calculation_type=solid calculation_label=AlP/scale_1.060 d4_functional=HSE06 d4_method=hse06 d4_energy_eV=-2.0387501680335665 source_geometry=/mnt/ceph/users/cwoodson/dft_calc/latbulk/eos_jobs/AlP/scale_1.060/geometry.in energy=-2.0387501680335665 free_energy=-2.0387501680335665 stress="0.01115097167110756 -1.992434649806628e-19 -8.59721318929505e-20 -1.992434649806628e-19 0.011150971671107708 -1.1795657804429855e-18 -8.59721318929505e-20 -1.1795657804429855e-18 0.011150971671107781" pbc="T T T"
Al       0.00000000       0.00000000       0.00000000       0.00000000       0.00000000       0.00000000
P        1.44637000       1.44637000       1.44637000      -0.00000000       0.00000000       0.00000000
Al       0.00000000       2.89274000       2.89274000       0.00000000      -0.00000000      -0.00000000
P        1.44637000       4.33911000       4.33911000      -0.00000000       0.00000000       0.00000000
Al       2.89274000       0.00000000       2.89274000      -0.00000000       0.00000000      -0.00000000
P        4.33911000       1.44637000       4.33911000       0.00000000       0.00000000       0.00000000
Al       2.89274000       2.89274000       0.00000000      -0.00000000      -0.00000000       0.00000000
P        4.33911000       4.33911000       1.44637000       0.00000000      -0.00000000       0.00000000
