8
Lattice="3.39058 0.0 0.0 0.0 3.39058 0.0 0.0 0.0 3.39058" Properties=species:S:1:pos:R:3:forces:R:3 calculation_type=solid calculation_label=BN/scale_0.940 d4_functional=HSE06 d4_method=hse06 d4_energy_eV=-1.924457423904116 source_geometry=/mnt/ceph/users/cwoodson/dft_calc/latbulk/eos_jobs/BN/scale_0.940/geometry.in energy=-1.924457423904116 free_energy=-1.924457423904116 stress="0.03945702541051952 -7.549215996360573e-19 1.1510897425542531e-18 -7.549215996360573e-19 0.0394570245851036 1.636126885367648e-14 1.1510897425542531e-18 1.636126885367648e-14 0.03945702375967249" pbc="T T T"
B        0.00000000       0.00000000       0.00000000       0.00000000      -0.00000000       0.00000000
N        0.84764500       0.84764500       0.84764500      -0.00000000      -0.00000000       0.00000000
B        0.00000000       1.69529000       1.69529000      -0.00000000       0.00000000      -0.00000000
N        0.84764500       2.54293500       2.54293500       0.00000000       0.00000000      -0.00000000
B        1.69529000       0.00000000       1.69529000       0.00000000      -0.00000000      -0.00000000
N        2.54293500       0.84764500       2.54293500       0.00000000      -0.00000000      -0.00000000
B        1.69529000       1.69529000       0.00000000       0.00000000       0.00000000       0.00000000
N        2.54293500       2.54293500       0.84764500       0.00000000       0.00000000       0.00000000
