8
Lattice="4.67414 0.0 0.0 0.0 4.67414 0.0 0.0 0.0 4.67414" Properties=species:S:1:pos:R:3:forces:R:3 calculation_type=solid calculation_label=BP/scale_1.030 d4_functional=HSE06 d4_method=hse06 d4_energy_eV=-2.3522916723978806 source_geometry=/mnt/ceph/users/cwoodson/dft_calc/latbulk/eos_jobs/BP/scale_1.030/geometry.in energy=-2.3522916723978806 free_energy=-2.3522916723978806 stress="0.02211713876425762 3.198811290494173e-19 2.566831471156677e-19 3.198811290494173e-19 0.022117138763999296 -1.3709494168255611e-18 2.566831471156677e-19 -1.3709494168255611e-18 0.02211713876374101" pbc="T T T"
B        0.00000000       0.00000000       0.00000000       0.00000000      -0.00000000      -0.00000000
P        1.16853500       1.16853500       1.16853500       0.00000000      -0.00000000       0.00000000
B        0.00000000       2.33707000       2.33707000       0.00000000       0.00000000       0.00000000
P        1.16853500       3.50560500       3.50560500      -0.00000000       0.00000000      -0.00000000
B        2.33707000       0.00000000       2.33707000      -0.00000000      -0.00000000       0.00000000
P        3.50560500       1.16853500       3.50560500      -0.00000000      -0.00000000      -0.00000000
B        2.33707000       2.33707000       0.00000000      -0.00000000       0.00000000      -0.00000000
P        3.50560500       3.50560500       1.16853500       0.00000000       0.00000000       0.00000000
