8
Lattice="4.538 0.0 0.0 0.0 4.538 0.0 0.0 0.0 4.538" Properties=species:S:1:pos:R:3:forces:R:3 calculation_type=solid calculation_label=BP/scale_1.000 d4_functional=HSE06 d4_method=hse06 d4_energy_eV=-2.5646630459461286 source_geometry=/mnt/ceph/users/cwoodson/dft_calc/latbulk/eos_jobs/BP/scale_1.000/geometry.in energy=-2.5646630459461286 free_energy=-2.5646630459461286 stress="0.02703117426715475 6.373349082732652e-19 6.415150795678311e-20 6.373349082732652e-19 0.027031174265827133 -8.385383827845951e-19 6.415150795678311e-20 -8.385383827845951e-19 0.027031174264499434" pbc="T T T"
B        0.00000000       0.00000000       0.00000000       0.00000000      -0.00000000      -0.00000000
P        1.13450000       1.13450000       1.13450000      -0.00000000       0.00000000      -0.00000000
B        0.00000000       2.26900000       2.26900000       0.00000000      -0.00000000       0.00000000
P        1.13450000       3.40350000       3.40350000      -0.00000000      -0.00000000       0.00000000
B        2.26900000       0.00000000       2.26900000      -0.00000000      -0.00000000       0.00000000
P        3.40350000       1.13450000       3.40350000       0.00000000       0.00000000       0.00000000
B        2.26900000       2.26900000       0.00000000       0.00000000      -0.00000000      -0.00000000
P        3.40350000       3.40350000       1.13450000       0.00000000      -0.00000000      -0.00000000
