8
Lattice="4.8102800000000006 0.0 0.0 0.0 4.8102800000000006 0.0 0.0 0.0 4.8102800000000006" Properties=species:S:1:pos:R:3:forces:R:3 calculation_type=solid calculation_label=BP/scale_1.060 d4_functional=HSE06 d4_method=hse06 d4_energy_eV=-2.1706098384956083 source_geometry=/mnt/ceph/users/cwoodson/dft_calc/latbulk/eos_jobs/BP/scale_1.060/geometry.in energy=-2.1706098384956083 free_energy=-2.1706098384956083 stress="0.017381493580099373 -2.0721247855030514e-19 -5.650481752073558e-19 -2.0721247855030514e-19 0.01738149358004788 1.875606483869566e-18 -5.650481752073558e-19 1.875606483869566e-18 0.017381493579996493" pbc="T T T"
B        0.00000000       0.00000000       0.00000000      -0.00000000      -0.00000000       0.00000000
P        1.20257000       1.20257000       1.20257000       0.00000000       0.00000000      -0.00000000
B        0.00000000       2.40514000       2.40514000      -0.00000000       0.00000000      -0.00000000
P        1.20257000       3.60771000       3.60771000       0.00000000      -0.00000000       0.00000000
B        2.40514000       0.00000000       2.40514000       0.00000000      -0.00000000      -0.00000000
P        3.60771000       1.20257000       3.60771000      -0.00000000       0.00000000       0.00000000
B        2.40514000       2.40514000       0.00000000       0.00000000       0.00000000       0.00000000
P        3.60771000       3.60771000       1.20257000      -0.00000000      -0.00000000      -0.00000000
