8
Lattice="4.74221 0.0 0.0 0.0 4.74221 0.0 0.0 0.0 4.74221" Properties=species:S:1:pos:R:3:forces:R:3 calculation_type=solid calculation_label=BP/scale_1.045 d4_functional=HSE06 d4_method=hse06 d4_energy_eV=-2.2573412156148027 source_geometry=/mnt/ceph/users/cwoodson/dft_calc/latbulk/eos_jobs/BP/scale_1.045/geometry.in energy=-2.2573412156148027 free_energy=-2.2573412156148027 stress="0.019820775582740348 -7.9450682590425655e-19 -9.790790795053104e-19 -7.9450682590425655e-19 0.019820775582625856 1.9299876320099172e-18 -9.790790795053104e-19 1.9299876320099172e-18 0.019820775582511274" pbc="T T T"
B        0.00000000       0.00000000       0.00000000       0.00000000       0.00000000      -0.00000000
P        1.18555250       1.18555250       1.18555250      -0.00000000      -0.00000000       0.00000000
B        0.00000000       2.37110500       2.37110500      -0.00000000      -0.00000000       0.00000000
P        1.18555250       3.55665750       3.55665750      -0.00000000       0.00000000      -0.00000000
B        2.37110500       0.00000000       2.37110500       0.00000000       0.00000000       0.00000000
P        3.55665750       1.18555250       3.55665750       0.00000000      -0.00000000      -0.00000000
B        2.37110500       2.37110500       0.00000000       0.00000000      -0.00000000      -0.00000000
P        3.55665750       3.55665750       1.18555250       0.00000000       0.00000000       0.00000000
