8
Lattice="3.35298 0.0 0.0 0.0 3.35298 0.0 0.0 0.0 3.35298" Properties=species:S:1:pos:R:3:forces:R:3 calculation_type=solid calculation_label=C/scale_0.940 d4_functional=HSE06 d4_method=hse06 d4_energy_eV=-1.7746033810392539 source_geometry=/mnt/ceph/users/cwoodson/dft_calc/latbulk/eos_jobs/C/scale_0.940/geometry.in energy=-1.7746033810392539 free_energy=-1.7746033810392539 stress="0.04105385552428011 2.7561954461871083e-18 3.0444023492985604e-18 2.7561954461871083e-18 0.041053855524280265 7.208349514739626e-18 3.0444023492985604e-18 7.208349514739626e-18 0.041053855524280536" pbc="T T T"
C        0.00000000       0.00000000       0.00000000      -0.00000000      -0.00000000      -0.00000000
C        0.83824500       0.83824500       0.83824500      -0.00000000       0.00000000      -0.00000000
C        0.00000000       1.67649000       1.67649000      -0.00000000       0.00000000       0.00000000
C        0.83824500       2.51473500       2.51473500      -0.00000000       0.00000000       0.00000000
C        1.67649000       0.00000000       1.67649000      -0.00000000      -0.00000000       0.00000000
C        2.51473500       0.83824500       2.51473500      -0.00000000      -0.00000000       0.00000000
C        1.67649000       1.67649000       0.00000000       0.00000000       0.00000000      -0.00000000
C        2.51473500       2.51473500       0.83824500      -0.00000000       0.00000000      -0.00000000
