8
Lattice="3.5134950000000003 0.0 0.0 0.0 3.5134950000000003 0.0 0.0 0.0 3.5134950000000003" Properties=species:S:1:pos:R:3:forces:R:3 calculation_type=solid calculation_label=C/scale_0.985 d4_functional=HSE06 d4_method=hse06 d4_energy_eV=-1.5689821860836917 source_geometry=/mnt/ceph/users/cwoodson/dft_calc/latbulk/eos_jobs/C/scale_0.985/geometry.in energy=-1.5689821860836917 free_energy=-1.5689821860836917 stress="0.03196714419493416 6.00100616269786e-20 -3.948804057269118e-19 6.00100616269786e-20 0.031967144194933336 1.9866511553377128e-18 -3.948804057269118e-19 1.9866511553377128e-18 0.03196714419493317" pbc="T T T"
C        0.00000000       0.00000000       0.00000000       0.00000000      -0.00000000       0.00000000
C        0.87837375       0.87837375       0.87837375       0.00000000       0.00000000       0.00000000
C        0.00000000       1.75674750       1.75674750       0.00000000      -0.00000000      -0.00000000
C        0.87837375       2.63512125       2.63512125      -0.00000000       0.00000000      -0.00000000
C        1.75674750       0.00000000       1.75674750       0.00000000       0.00000000       0.00000000
C        2.63512125       0.87837375       2.63512125       0.00000000       0.00000000      -0.00000000
C        1.75674750       1.75674750       0.00000000       0.00000000      -0.00000000      -0.00000000
C        2.63512125       2.63512125       0.87837375       0.00000000      -0.00000000       0.00000000
