8
Lattice="4.95282 0.0 0.0 0.0 4.95282 0.0 0.0 0.0 4.95282" Properties=species:S:1:pos:R:3:forces:R:3 calculation_type=solid calculation_label=LiCl/scale_0.970 d4_functional=HSE06 d4_method=hse06 d4_energy_eV=-0.9851246516131313 source_geometry=/mnt/ceph/users/cwoodson/dft_calc/latbulk/eos_jobs/LiCl/scale_0.970/geometry.in energy=-0.9851246516131313 free_energy=-0.9851246516131313 stress="0.007715678985373918 -7.943813016988301e-20 -4.535258001863301e-22 -7.943813016988301e-20 0.00771567898537388 2.5815493257929255e-20 -4.535258001863301e-22 2.5815493257929255e-20 0.007715678985373882" pbc="T T T"
Li       0.00000000       0.00000000       0.00000000       0.00000000      -0.00000000       0.00000000
Cl       2.47641000       0.00000000       0.00000000       0.00000000       0.00000000      -0.00000000
Li       0.00000000       2.47641000       2.47641000       0.00000000       0.00000000       0.00000000
Cl       2.47641000       2.47641000       2.47641000       0.00000000       0.00000000       0.00000000
Li       2.47641000       0.00000000       2.47641000       0.00000000       0.00000000      -0.00000000
Cl       0.00000000       0.00000000       2.47641000      -0.00000000       0.00000000      -0.00000000
Li       2.47641000       2.47641000       0.00000000      -0.00000000      -0.00000000       0.00000000
Cl       0.00000000       2.47641000       0.00000000      -0.00000000      -0.00000000       0.00000000
