8
Lattice="5.335769999999999 0.0 0.0 0.0 5.335769999999999 0.0 0.0 0.0 5.335769999999999" Properties=species:S:1:pos:R:3:forces:R:3 calculation_type=solid calculation_label=LiCl/scale_1.045 d4_functional=HSE06 d4_method=hse06 d4_energy_eV=-0.7908274019870879 source_geometry=/mnt/ceph/users/cwoodson/dft_calc/latbulk/eos_jobs/LiCl/scale_1.045/geometry.in energy=-0.7908274019870879 free_energy=-0.7908274019870879 stress="0.0053141971382804805 4.612893534482132e-20 8.577531040350518e-21 4.612893534482132e-20 0.0053141971382803955 -2.0159899313002317e-20 8.577531040350518e-21 -2.0159899313002317e-20 0.005314197138280394" pbc="T T T"
Li       0.00000000       0.00000000       0.00000000      -0.00000000      -0.00000000       0.00000000
Cl       2.66788500       0.00000000       0.00000000      -0.00000000       0.00000000      -0.00000000
Li       0.00000000       2.66788500       2.66788500      -0.00000000       0.00000000       0.00000000
Cl       2.66788500       2.66788500       2.66788500       0.00000000      -0.00000000       0.00000000
Li       2.66788500       0.00000000       2.66788500       0.00000000      -0.00000000      -0.00000000
Cl       0.00000000       0.00000000       2.66788500       0.00000000      -0.00000000       0.00000000
Li       2.66788500       2.66788500       0.00000000       0.00000000       0.00000000      -0.00000000
Cl       0.00000000       2.66788500       0.00000000      -0.00000000      -0.00000000      -0.00000000
