8
Lattice="3.8896999999999995 0.0 0.0 0.0 3.8896999999999995 0.0 0.0 0.0 3.8896999999999995" Properties=species:S:1:pos:R:3:forces:R:3 calculation_type=solid calculation_label=LiF/scale_0.970 d4_functional=HSE06 d4_method=hse06 d4_energy_eV=-0.4942368003213886 source_geometry=/mnt/ceph/users/cwoodson/dft_calc/latbulk/eos_jobs/LiF/scale_0.970/geometry.in energy=-0.4942368003213886 free_energy=-0.4942368003213886 stress="0.008453566074001731 2.607412042912996e-21 -3.040253509248255e-20 2.607412042912996e-21 0.00845356607400179 -8.220105299261145e-20 -3.040253509248255e-20 -8.220105299261145e-20 0.008453566074001788" pbc="T T T"
Li       0.00000000       0.00000000       0.00000000      -0.00000000       0.00000000      -0.00000000
F        1.94485000       0.00000000       0.00000000      -0.00000000       0.00000000       0.00000000
Li       0.00000000       1.94485000       1.94485000      -0.00000000       0.00000000       0.00000000
F        1.94485000       1.94485000       1.94485000       0.00000000      -0.00000000      -0.00000000
Li       1.94485000       0.00000000       1.94485000      -0.00000000      -0.00000000       0.00000000
F        0.00000000       0.00000000       1.94485000       0.00000000       0.00000000      -0.00000000
Li       1.94485000       1.94485000       0.00000000      -0.00000000       0.00000000      -0.00000000
F        0.00000000       1.94485000       0.00000000       0.00000000       0.00000000       0.00000000
