8
Lattice="3.7693999999999996 0.0 0.0 0.0 3.7693999999999996 0.0 0.0 0.0 3.7693999999999996" Properties=species:S:1:pos:R:3:forces:R:3 calculation_type=solid calculation_label=LiF/scale_0.940 d4_functional=HSE06 d4_method=hse06 d4_energy_eV=-0.5434927477971848 source_geometry=/mnt/ceph/users/cwoodson/dft_calc/latbulk/eos_jobs/LiF/scale_0.940/geometry.in energy=-0.5434927477971848 free_energy=-0.5434927477971848 stress="0.010228503353690415 4.259054113509542e-21 1.4627618038679813e-21 4.259054113509542e-21 0.01022850335369079 2.0136721067381892e-20 1.4627618038679813e-21 2.0136721067381892e-20 0.01022850335369076" pbc="T T T"
Li       0.00000000       0.00000000       0.00000000      -0.00000000      -0.00000000      -0.00000000
F        1.88470000       0.00000000       0.00000000       0.00000000       0.00000000       0.00000000
Li       0.00000000       1.88470000       1.88470000      -0.00000000      -0.00000000       0.00000000
F        1.88470000       1.88470000       1.88470000       0.00000000       0.00000000      -0.00000000
Li       1.88470000       0.00000000       1.88470000       0.00000000       0.00000000      -0.00000000
F        0.00000000       0.00000000       1.88470000      -0.00000000       0.00000000      -0.00000000
Li       1.88470000       1.88470000       0.00000000      -0.00000000      -0.00000000       0.00000000
F        0.00000000       1.88470000       0.00000000      -0.00000000       0.00000000      -0.00000000
