8
Lattice="4.45942 0.0 0.0 0.0 4.45942 0.0 0.0 0.0 4.45942" Properties=species:S:1:pos:R:3:forces:R:3 calculation_type=solid calculation_label=MgO/scale_1.060 d4_functional=HSE06 d4_method=hse06 d4_energy_eV=-0.9931509911641986 source_geometry=/mnt/ceph/users/cwoodson/dft_calc/latbulk/eos_jobs/MgO/scale_1.060/geometry.in energy=-0.9931509911641986 free_energy=-0.9931509911641986 stress="0.01175823302385292 4.824569462988556e-20 -2.953183384522656e-20 4.824569462988556e-20 0.011758233023852845 -3.936957169610035e-20 -2.953183384522656e-20 -3.936957169610035e-20 0.011758233023852845" pbc="T T T"
Mg       0.00000000       0.00000000       0.00000000      -0.00000000       0.00000000      -0.00000000
O        2.22971000       0.00000000       0.00000000       0.00000000       0.00000000      -0.00000000
Mg       0.00000000       2.22971000       2.22971000      -0.00000000      -0.00000000       0.00000000
O        2.22971000       2.22971000       2.22971000       0.00000000      -0.00000000       0.00000000
Mg       2.22971000       0.00000000       2.22971000       0.00000000       0.00000000      -0.00000000
O        0.00000000       0.00000000       2.22971000       0.00000000       0.00000000      -0.00000000
Mg       2.22971000       2.22971000       0.00000000       0.00000000      -0.00000000      -0.00000000
O        0.00000000       2.22971000       0.00000000      -0.00000000      -0.00000000       0.00000000
