8
Lattice="4.47073 0.0 0.0 0.0 4.47073 0.0 0.0 0.0 4.47073" Properties=species:S:1:pos:R:3:forces:R:3 calculation_type=solid calculation_label=NaF/scale_0.970 d4_functional=HSE06 d4_method=hse06 d4_energy_eV=-0.4212505202874064 source_geometry=/mnt/ceph/users/cwoodson/dft_calc/latbulk/eos_jobs/NaF/scale_0.970/geometry.in energy=-0.4212505202874064 free_energy=-0.4212505202874064 stress="0.004971950602961383 -4.8204488100142115e-21 6.960497095574033e-21 -4.8204488100142115e-21 0.004971950602961344 6.2254797870861636e-21 6.960497095574033e-21 6.2254797870861636e-21 0.004971950602961344" pbc="T T T"
Na       0.00000000       0.00000000       0.00000000       0.00000000       0.00000000       0.00000000
F        2.23536500       0.00000000       0.00000000      -0.00000000       0.00000000       0.00000000
Na       0.00000000       2.23536500       2.23536500       0.00000000      -0.00000000      -0.00000000
F        2.23536500       2.23536500       2.23536500      -0.00000000      -0.00000000      -0.00000000
Na       2.23536500       0.00000000       2.23536500      -0.00000000       0.00000000      -0.00000000
F        0.00000000       0.00000000       2.23536500       0.00000000      -0.00000000       0.00000000
Na       2.23536500       2.23536500       0.00000000      -0.00000000      -0.00000000      -0.00000000
F        0.00000000       2.23536500       0.00000000       0.00000000       0.00000000      -0.00000000
