8
Lattice="4.4015949999999995 0.0 0.0 0.0 4.4015949999999995 0.0 0.0 0.0 4.4015949999999995" Properties=species:S:1:pos:R:3:forces:R:3 calculation_type=solid calculation_label=NaF/scale_0.955 d4_functional=HSE06 d4_method=hse06 d4_energy_eV=-0.4425490060218562 source_geometry=/mnt/ceph/users/cwoodson/dft_calc/latbulk/eos_jobs/NaF/scale_0.955/geometry.in energy=-0.4425490060218562 free_energy=-0.4425490060218562 stress="0.005469198962175978 -5.143163245654539e-20 9.170289732918297e-22 -5.143163245654539e-20 0.005469198962175916 -2.045544365684992e-21 9.170289732918297e-22 -2.045544365684992e-21 0.005469198962175914" pbc="T T T"
Na       0.00000000       0.00000000       0.00000000       0.00000000       0.00000000       0.00000000
F        2.20079750       0.00000000       0.00000000      -0.00000000      -0.00000000      -0.00000000
Na       0.00000000       2.20079750       2.20079750       0.00000000      -0.00000000      -0.00000000
F        2.20079750       2.20079750       2.20079750      -0.00000000       0.00000000       0.00000000
Na       2.20079750       0.00000000       2.20079750      -0.00000000       0.00000000      -0.00000000
F        0.00000000       0.00000000       2.20079750       0.00000000       0.00000000       0.00000000
Na       2.20079750       2.20079750       0.00000000      -0.00000000      -0.00000000       0.00000000
F        0.00000000       2.20079750       0.00000000      -0.00000000       0.00000000      -0.00000000
