8
Lattice="4.74727 0.0 0.0 0.0 4.74727 0.0 0.0 0.0 4.74727" Properties=species:S:1:pos:R:3:forces:R:3 calculation_type=solid calculation_label=NaF/scale_1.030 d4_functional=HSE06 d4_method=hse06 d4_energy_eV=-0.3484127551225524 source_geometry=/mnt/ceph/users/cwoodson/dft_calc/latbulk/eos_jobs/NaF/scale_1.030/geometry.in energy=-0.3484127551225524 free_energy=-0.3484127551225524 stress="0.0034136304868224165 2.753180307485963e-20 -1.1753721657436703e-20 2.753180307485963e-20 0.0034136304868224703 -2.251277965414286e-20 -1.1753721657436703e-20 -2.251277965414286e-20 0.0034136304868225423" pbc="T T T"
Na       0.00000000       0.00000000       0.00000000       0.00000000      -0.00000000       0.00000000
F        2.37363500       0.00000000       0.00000000      -0.00000000       0.00000000       0.00000000
Na       0.00000000       2.37363500       2.37363500       0.00000000      -0.00000000       0.00000000
F        2.37363500       2.37363500       2.37363500      -0.00000000      -0.00000000      -0.00000000
Na       2.37363500       0.00000000       2.37363500      -0.00000000      -0.00000000       0.00000000
F        0.00000000       0.00000000       2.37363500       0.00000000       0.00000000       0.00000000
Na       2.37363500       2.37363500       0.00000000      -0.00000000       0.00000000      -0.00000000
F        0.00000000       2.37363500       0.00000000      -0.00000000      -0.00000000      -0.00000000
