8
Lattice="4.61948 0.0 0.0 0.0 4.61948 0.0 0.0 0.0 4.61948" Properties=species:S:1:pos:R:3:forces:R:3 calculation_type=solid calculation_label=SiC/scale_1.060 d4_functional=HSE06 d4_method=hse06 d4_energy_eV=-2.103839713178152 source_geometry=/mnt/ceph/users/cwoodson/dft_calc/latbulk/eos_jobs/SiC/scale_1.060/geometry.in energy=-2.103839713178152 free_energy=-2.103839713178152 stress="0.013134139645121801 -1.777394031324401e-21 2.371811101609569e-19 -1.777394031324401e-21 0.01313413964512196 4.2937674097190645e-19 2.371811101609569e-19 4.2937674097190645e-19 0.01313413964512225" pbc="T T T"
Si       0.00000000       0.00000000       0.00000000      -0.00000000       0.00000000      -0.00000000
C        1.15487000       1.15487000       1.15487000       0.00000000       0.00000000      -0.00000000
Si       0.00000000       2.30974000       2.30974000      -0.00000000      -0.00000000       0.00000000
C        1.15487000       3.46461000       3.46461000       0.00000000       0.00000000       0.00000000
Si       2.30974000       0.00000000       2.30974000       0.00000000       0.00000000       0.00000000
C        3.46461000       1.15487000       3.46461000      -0.00000000      -0.00000000       0.00000000
Si       2.30974000       2.30974000       0.00000000       0.00000000      -0.00000000      -0.00000000
C        3.46461000       3.46461000       1.15487000      -0.00000000       0.00000000      -0.00000000
