8
Lattice="4.48874 0.0 0.0 0.0 4.48874 0.0 0.0 0.0 4.48874" Properties=species:S:1:pos:R:3:forces:R:3 calculation_type=solid calculation_label=SiC/scale_1.030 d4_functional=HSE06 d4_method=hse06 d4_energy_eV=-2.2365565086664585 source_geometry=/mnt/ceph/users/cwoodson/dft_calc/latbulk/eos_jobs/SiC/scale_1.030/geometry.in energy=-2.2365565086664585 free_energy=-2.2365565086664585 stress="0.019122274173230536 -7.317175036492548e-18 -6.671905768895105e-18 -7.317175036492548e-18 0.01912227417323064 -4.0266055460340515e-18 -6.671905768895105e-18 -4.0266055460340515e-18 0.019122274173230657" pbc="T T T"
Si       0.00000000       0.00000000       0.00000000      -0.00000000      -0.00000000       0.00000000
C        1.12218500       1.12218500       1.12218500      -0.00000000      -0.00000000      -0.00000000
Si       0.00000000       2.24437000       2.24437000      -0.00000000       0.00000000      -0.00000000
C        1.12218500       3.36655500       3.36655500       0.00000000       0.00000000       0.00000000
Si       2.24437000       0.00000000       2.24437000       0.00000000      -0.00000000      -0.00000000
C        3.36655500       1.12218500       3.36655500       0.00000000      -0.00000000       0.00000000
Si       2.24437000       2.24437000       0.00000000       0.00000000       0.00000000       0.00000000
C        3.36655500       3.36655500       1.12218500       0.00000000       0.00000000      -0.00000000
