8
Lattice="4.358 0.0 0.0 0.0 4.358 0.0 0.0 0.0 4.358" Properties=species:S:1:pos:R:3:forces:R:3 calculation_type=solid calculation_label=SiC/scale_1.000 d4_functional=HSE06 d4_method=hse06 d4_energy_eV=-2.402351599989144 source_geometry=/mnt/ceph/users/cwoodson/dft_calc/latbulk/eos_jobs/SiC/scale_1.000/geometry.in energy=-2.402351599989144 free_energy=-2.402351599989144 stress="0.024097447894325927 6.5362063133034025e-18 6.115180948751996e-18 6.5362063133034025e-18 0.02409744789432603 7.800245185520535e-18 6.115180948751996e-18 7.800245185520535e-18 0.024097447894326024" pbc="T T T"
Si       0.00000000       0.00000000       0.00000000       0.00000000      -0.00000000       0.00000000
C        1.08950000       1.08950000       1.08950000      -0.00000000      -0.00000000      -0.00000000
Si       0.00000000       2.17900000       2.17900000       0.00000000       0.00000000      -0.00000000
C        1.08950000       3.26850000       3.26850000      -0.00000000       0.00000000       0.00000000
Si       2.17900000       0.00000000       2.17900000      -0.00000000      -0.00000000      -0.00000000
C        3.26850000       1.08950000       3.26850000      -0.00000000      -0.00000000       0.00000000
Si       2.17900000       2.17900000       0.00000000      -0.00000000       0.00000000       0.00000000
C        3.26850000       3.26850000       1.08950000      -0.00000000       0.00000000      -0.00000000
