8
Properties=species:S:1:pos:R:3:forces:R:3 calculation_type=dimer_refinement calculation_label=AlH3PH3/refinement_41/point_006_distance_2.410000 d4_functional=HSE06 d4_method=hse06 d4_energy_eV=-0.10485494965871892 source_geometry=/mnt/ceph/users/cwoodson/dft_calc/diatomics/dimer_jobs/AlH3PH3/refinement_41/point_006_distance_2.410000/geometry.in energy=-0.10485494965871892 free_energy=-0.10485494965871892 pbc="F F F"
Al      -0.00000094       0.00000330       1.20500000       0.00000000       0.00000002      -0.00732071
P        0.00000094      -0.00000330      -1.20500000       0.00000000      -0.00000025       0.00890333
H        0.00000306       1.57524830       1.38299000      -0.00000001      -0.00233758      -0.00331063
H       -1.36418894      -0.78760270       1.38317600       0.00202446       0.00116885      -0.00331097
H        1.36418206      -0.78761070       1.38318100      -0.00202446       0.00116886      -0.00331097
H        0.00000494      -1.22538030      -1.88730200      -0.00000001       0.00079929       0.00278337
H       -1.06124406       0.61274870      -1.88718100       0.00069216      -0.00039958       0.00278329
H        1.06123494       0.61276070      -1.88718700      -0.00069216      -0.00039959       0.00278329
