8
Properties=species:S:1:pos:R:3:forces:R:3 calculation_type=dimer_refinement calculation_label=AlH3PH3/refinement_41/point_025_distance_2.600000 d4_functional=HSE06 d4_method=hse06 d4_energy_eV=-0.10134259579965584 source_geometry=/mnt/ceph/users/cwoodson/dft_calc/diatomics/dimer_jobs/AlH3PH3/refinement_41/point_025_distance_2.600000/geometry.in energy=-0.10134259579965584 free_energy=-0.10134259579965584 pbc="F F F"
Al      -0.00000102       0.00000356       1.30000000       0.00000000       0.00000004      -0.00898505
P        0.00000102      -0.00000356      -1.30000000      -0.00000000      -0.00000021       0.01111742
H        0.00000298       1.57524856       1.47799000      -0.00000001      -0.00241213      -0.00358126
H       -1.36418902      -0.78760244       1.47817600       0.00208899       0.00120610      -0.00358152
H        1.36418198      -0.78761044       1.47818100      -0.00208897       0.00120611      -0.00358152
H        0.00000502      -1.22538056      -1.98230200      -0.00000001       0.00078726       0.00287064
H       -1.06124398       0.61274844      -1.98218100       0.00068177      -0.00039358       0.00287065
H        1.06123502       0.61276044      -1.98218700      -0.00068177      -0.00039358       0.00287065
