8
Properties=species:S:1:pos:R:3:forces:R:3 calculation_type=dimer_refinement calculation_label=AlH3PH3/refinement_41/point_026_distance_2.610000 d4_functional=HSE06 d4_method=hse06 d4_energy_eV=-0.10114465152582548 source_geometry=/mnt/ceph/users/cwoodson/dft_calc/diatomics/dimer_jobs/AlH3PH3/refinement_41/point_026_distance_2.610000/geometry.in energy=-0.10114465152582548 free_energy=-0.10114465152582548 pbc="F F F"
Al      -0.00000102       0.00000357       1.30500000       0.00000000       0.00000004      -0.00907951
P        0.00000102      -0.00000357      -1.30500000      -0.00000000      -0.00000020       0.01124612
H        0.00000298       1.57524857       1.48299000      -0.00000001      -0.00241508      -0.00359313
H       -1.36418902      -0.78760243       1.48317600       0.00209153       0.00120757      -0.00359338
H        1.36418198      -0.78761043       1.48318100      -0.00209152       0.00120758      -0.00359339
H        0.00000502      -1.22538057      -1.98730200      -0.00000001       0.00078484       0.00287109
H       -1.06124398       0.61274843      -1.98718100       0.00067967      -0.00039237       0.00287110
H        1.06123502       0.61276043      -1.98718700      -0.00067967      -0.00039237       0.00287110
