8
Properties=species:S:1:pos:R:3:forces:R:3 calculation_type=dimer_refinement calculation_label=AlH3PH3/refinement_41/point_003_distance_2.380000 d4_functional=HSE06 d4_method=hse06 d4_energy_eV=-0.10536682973088754 source_geometry=/mnt/ceph/users/cwoodson/dft_calc/diatomics/dimer_jobs/AlH3PH3/refinement_41/point_003_distance_2.380000/geometry.in energy=-0.10536682973088754 free_energy=-0.10536682973088754 pbc="F F F"
Al      -0.00000093       0.00000326       1.19000000       0.00000000       0.00000002      -0.00708835
P        0.00000093      -0.00000326      -1.19000000       0.00000000      -0.00000026       0.00860100
H        0.00000307       1.57524826       1.36799000      -0.00000001      -0.00232305      -0.00326123
H       -1.36418893      -0.78760274       1.36817600       0.00201189       0.00116159      -0.00326158
H        1.36418207      -0.78761074       1.36818100      -0.00201188       0.00116160      -0.00326159
H        0.00000493      -1.22538026      -1.87230200      -0.00000001       0.00079620       0.00275731
H       -1.06124407       0.61274874      -1.87218100       0.00068948      -0.00039804       0.00275722
H        1.06123493       0.61276074      -1.87218700      -0.00068948      -0.00039805       0.00275723
