8
Properties=species:S:1:pos:R:3:forces:R:3 calculation_type=dimer_refinement calculation_label=AlH3PH3/refinement_41/point_035_distance_2.700000 d4_functional=HSE06 d4_method=hse06 d4_energy_eV=-0.09930569328287389 source_geometry=/mnt/ceph/users/cwoodson/dft_calc/diatomics/dimer_jobs/AlH3PH3/refinement_41/point_035_distance_2.700000/geometry.in energy=-0.09930569328287389 free_energy=-0.09930569328287389 pbc="F F F"
Al      -0.00000106       0.00000369       1.35000000       0.00000000       0.00000005      -0.00993003
P        0.00000106      -0.00000369      -1.35000000      -0.00000000      -0.00000017       0.01242755
H        0.00000294       1.57524869       1.52799000      -0.00000001      -0.00243636      -0.00368721
H       -1.36418906      -0.78760231       1.52817600       0.00210994       0.00121819      -0.00368742
H        1.36418194      -0.78761031       1.52818100      -0.00210993       0.00121820      -0.00368742
H        0.00000506      -1.22538069      -2.03230200      -0.00000001       0.00075400       0.00285481
H       -1.06124394       0.61274831      -2.03218100       0.00065297      -0.00037695       0.00285486
H        1.06123506       0.61276031      -2.03218700      -0.00065297      -0.00037696       0.00285486
