2
Properties=species:S:1:pos:R:3:forces:R:3 calculation_type=dimer_refinement calculation_label=AlP/refinement_41/point_003_distance_1.860000 d4_functional=HSE06 d4_method=hse06 d4_energy_eV=-0.044553494684304494 source_geometry=/mnt/ceph/users/cwoodson/dft_calc/diatomics/dimer_jobs/AlP/refinement_41/point_003_distance_1.860000/geometry.in energy=-0.044553494684304494 free_energy=-0.044553494684304494 pbc="F F F"
Al       0.00000000       0.00000000      -0.93000000      -0.00000000      -0.00000000       0.00052816
P        0.00000000       0.00000000       0.93000000      -0.00000000      -0.00000000      -0.00052816
