2
Properties=species:S:1:pos:R:3:forces:R:3 calculation_type=dimer_refinement calculation_label=AlP/refinement_41/point_037_distance_2.200000 d4_functional=HSE06 d4_method=hse06 d4_energy_eV=-0.044295078078685365 source_geometry=/mnt/ceph/users/cwoodson/dft_calc/diatomics/dimer_jobs/AlP/refinement_41/point_037_distance_2.200000/geometry.in energy=-0.044295078078685365 free_energy=-0.044295078078685365 pbc="F F F"
Al       0.00000000       0.00000000      -1.10000000      -0.00000000      -0.00000000       0.00104331
P        0.00000000       0.00000000       1.10000000      -0.00000000      -0.00000000      -0.00104331
