2
Properties=species:S:1:pos:R:3:forces:R:3 calculation_type=dimer_refinement calculation_label=AlP/refinement_100/point_075_distance_2.28 d4_functional=HSE06 d4_method=hse06 d4_energy_eV=-0.044205569028420856 source_geometry=/mnt/ceph/users/cwoodson/dft_calc/diatomics/dimer_jobs/AlP/refinement_100/point_075_distance_2.28/geometry.in energy=-0.044205569028420856 free_energy=-0.044205569028420856 pbc="F F F"
Al       0.00000000       0.00000000      -1.14000000      -0.00000000      -0.00000000       0.00119421
P        0.00000000       0.00000000       1.14000000      -0.00000000      -0.00000000      -0.00119421
