2
Properties=species:S:1:pos:R:3:forces:R:3 calculation_type=dimer_refinement calculation_label=AlP/refinement_100/point_093_distance_2.46 d4_functional=HSE06 d4_method=hse06 d4_energy_eV=-0.04396186722771197 source_geometry=/mnt/ceph/users/cwoodson/dft_calc/diatomics/dimer_jobs/AlP/refinement_100/point_093_distance_2.46/geometry.in energy=-0.04396186722771197 free_energy=-0.04396186722771197 pbc="F F F"
Al       0.00000000       0.00000000      -1.23000000      -0.00000000      -0.00000000       0.00150395
P        0.00000000       0.00000000       1.23000000      -0.00000000      -0.00000000      -0.00150395
