2
Properties=species:S:1:pos:R:3:forces:R:3 calculation_type=dimer_refinement calculation_label=AlP/refinement_100/point_016_distance_1.69 d4_functional=HSE06 d4_method=hse06 d4_energy_eV=-0.04463075620541018 source_geometry=/mnt/ceph/users/cwoodson/dft_calc/diatomics/dimer_jobs/AlP/refinement_100/point_016_distance_1.69/geometry.in energy=-0.04463075620541018 free_energy=-0.04463075620541018 pbc="F F F"
Al       0.00000000       0.00000000      -0.84500000      -0.00000000      -0.00000000       0.00039373
P        0.00000000       0.00000000       0.84500000      -0.00000000      -0.00000000      -0.00039373
