2
Properties=species:S:1:pos:R:3:forces:R:3 calculation_type=dimer_refinement calculation_label=AlP/refinement_41/point_020_distance_2.030000 d4_functional=HSE06 d4_method=hse06 d4_energy_eV=-0.04444638657789584 source_geometry=/mnt/ceph/users/cwoodson/dft_calc/diatomics/dimer_jobs/AlP/refinement_41/point_020_distance_2.030000/geometry.in energy=-0.04444638657789584 free_energy=-0.04444638657789584 pbc="F F F"
Al       0.00000000       0.00000000      -1.01500000      -0.00000000      -0.00000000       0.00074666
P        0.00000000       0.00000000       1.01500000      -0.00000000      -0.00000000      -0.00074666
