2
Properties=species:S:1:pos:R:3:forces:R:3 calculation_type=dimer_refinement calculation_label=AlP/refinement_100/point_028_distance_1.81 d4_functional=HSE06 d4_method=hse06 d4_energy_eV=-0.04457867989712025 source_geometry=/mnt/ceph/users/cwoodson/dft_calc/diatomics/dimer_jobs/AlP/refinement_100/point_028_distance_1.81/geometry.in energy=-0.04457867989712025 free_energy=-0.04457867989712025 pbc="F F F"
Al       0.00000000       0.00000000      -0.90500000      -0.00000000      -0.00000000       0.00048045
P        0.00000000       0.00000000       0.90500000      -0.00000000      -0.00000000      -0.00048045
