2
Properties=species:S:1:pos:R:3:forces:R:3 calculation_type=dimer_refinement calculation_label=AlP/refinement_100/point_087_distance_2.40 d4_functional=HSE06 d4_method=hse06 d4_energy_eV=-0.04404923541930216 source_geometry=/mnt/ceph/users/cwoodson/dft_calc/diatomics/dimer_jobs/AlP/refinement_100/point_087_distance_2.40/geometry.in energy=-0.04404923541930216 free_energy=-0.04404923541930216 pbc="F F F"
Al       0.00000000       0.00000000      -1.20000000      -0.00000000      -0.00000000       0.00140722
P        0.00000000       0.00000000       1.20000000      -0.00000000      -0.00000000      -0.00140722
