8
Properties=species:S:1:pos:R:3:forces:R:3 calculation_type=dimer_refinement calculation_label=BH3NH3/refinement_41/point_006_distance_1.500000 d4_functional=HSE06 d4_method=hse06 d4_energy_eV=-0.05368700757106729 source_geometry=/mnt/ceph/users/cwoodson/dft_calc/diatomics/dimer_jobs/BH3NH3/refinement_41/point_006_distance_1.500000/geometry.in energy=-0.05368700757106729 free_energy=-0.05368700757106729 pbc="F F F"
B        0.00000000      -0.00000136       0.75000000      -0.00000000       0.00000006      -0.00349929
N        0.00000000       0.00000136      -0.75000000      -0.00000000       0.00000002       0.00093213
H        0.00000100       1.16489164       1.06181100       0.00000000       0.00309838       0.00059321
H       -1.00882800      -0.58244836       1.06181100      -0.00268332      -0.00154922       0.00059322
H        1.00882700      -0.58245036       1.06181100       0.00268333      -0.00154923       0.00059322
H        0.00000100      -0.94642464      -1.10988200       0.00000000      -0.00044782       0.00026250
H       -0.81962900       0.47320836      -1.10988400      -0.00038782       0.00022390       0.00026250
H        0.81962800       0.47321036      -1.10988400       0.00038782       0.00022390       0.00026250
