8
Properties=species:S:1:pos:R:3:forces:R:3 calculation_type=dimer_refinement calculation_label=BH3NH3/refinement_41/point_038_distance_1.820000 d4_functional=HSE06 d4_method=hse06 d4_energy_eV=-0.053245487845929154 source_geometry=/mnt/ceph/users/cwoodson/dft_calc/diatomics/dimer_jobs/BH3NH3/refinement_41/point_038_distance_1.820000/geometry.in energy=-0.053245487845929154 free_energy=-0.053245487845929154 pbc="F F F"
B       -0.00000000      -0.00000165       0.91000000      -0.00000000       0.00000002      -0.00131917
N        0.00000000       0.00000165      -0.91000000      -0.00000000       0.00000001       0.00097652
H        0.00000100       1.16489135       1.22181100       0.00000000       0.00029168      -0.00058908
H       -1.00882800      -0.58244865       1.22181100      -0.00025262      -0.00014585      -0.00058908
H        1.00882700      -0.58245065       1.22181100       0.00025262      -0.00014585      -0.00058908
H        0.00000100      -0.94642435      -1.26988200       0.00000000      -0.00006323       0.00070329
H       -0.81962900       0.47320865      -1.26988400      -0.00005475       0.00003161       0.00070329
H        0.81962800       0.47321065      -1.26988400       0.00005475       0.00003161       0.00070329
