8
Properties=species:S:1:pos:R:3:forces:R:3 calculation_type=dimer_refinement calculation_label=BH3NH3/refinement_41/point_021_distance_1.650000 d4_functional=HSE06 d4_method=hse06 d4_energy_eV=-0.05346741782334003 source_geometry=/mnt/ceph/users/cwoodson/dft_calc/diatomics/dimer_jobs/BH3NH3/refinement_41/point_021_distance_1.650000/geometry.in energy=-0.05346741782334003 free_energy=-0.05346741782334003 pbc="F F F"
B        0.00000000      -0.00000150       0.82500000      -0.00000000       0.00000006      -0.00188631
N        0.00000000       0.00000150      -0.82500000      -0.00000000       0.00000002      -0.00036531
H        0.00000100       1.16489150       1.13681100       0.00000000       0.00279359       0.00032012
H       -1.00882800      -0.58244850       1.13681100      -0.00241936      -0.00139682       0.00032013
H        1.00882700      -0.58245050       1.13681100       0.00241936      -0.00139683       0.00032013
H        0.00000100      -0.94642450      -1.18488200       0.00000000      -0.00031126       0.00043041
H       -0.81962900       0.47320850      -1.18488400      -0.00026955       0.00015562       0.00043041
H        0.81962800       0.47321050      -1.18488400       0.00026955       0.00015562       0.00043041
