8
Properties=species:S:1:pos:R:3:forces:R:3 calculation_type=dimer_refinement calculation_label=BH3NH3/refinement_41/point_005_distance_1.490000 d4_functional=HSE06 d4_method=hse06 d4_energy_eV=-0.05370417604161845 source_geometry=/mnt/ceph/users/cwoodson/dft_calc/diatomics/dimer_jobs/BH3NH3/refinement_41/point_005_distance_1.490000/geometry.in energy=-0.05370417604161845 free_energy=-0.05370417604161845 pbc="F F F"
B        0.00000000      -0.00000135       0.74500000      -0.00000000       0.00000006      -0.00353431
N        0.00000000       0.00000135      -0.74500000      -0.00000000       0.00000002       0.00095403
H        0.00000100       1.16489165       1.05681100       0.00000000       0.00310558       0.00060707
H       -1.00882800      -0.58244835       1.05681100      -0.00268956      -0.00155282       0.00060707
H        1.00882700      -0.58245035       1.05681100       0.00268956      -0.00155283       0.00060708
H        0.00000100      -0.94642465      -1.10488200       0.00000000      -0.00045564       0.00025302
H       -0.81962900       0.47320835      -1.10488400      -0.00039459       0.00022781       0.00025302
H        0.81962800       0.47321035      -1.10488400       0.00039459       0.00022781       0.00025302
