8
Properties=species:S:1:pos:R:3:forces:R:3 calculation_type=dimer_refinement calculation_label=BH3NH3/refinement_41/point_014_distance_1.580000 d4_functional=HSE06 d4_method=hse06 d4_energy_eV=-0.05355429227270808 source_geometry=/mnt/ceph/users/cwoodson/dft_calc/diatomics/dimer_jobs/BH3NH3/refinement_41/point_014_distance_1.580000/geometry.in energy=-0.05355429227270808 free_energy=-0.05355429227270808 pbc="F F F"
B        0.00000000      -0.00000144       0.79000000      -0.00000000       0.00000006      -0.00293524
N        0.00000000       0.00000144      -0.79000000      -0.00000000       0.00000002       0.00047754
H        0.00000100       1.16489156       1.10181100       0.00000000       0.00302438       0.00047405
H       -1.00882800      -0.58244844       1.10181100      -0.00261924      -0.00151222       0.00047406
H        1.00882700      -0.58245044       1.10181100       0.00261924      -0.00151223       0.00047406
H        0.00000100      -0.94642456      -1.14988200       0.00000000      -0.00038076       0.00034518
H       -0.81962900       0.47320844      -1.14988400      -0.00032974       0.00019037       0.00034518
H        0.81962800       0.47321044      -1.14988400       0.00032974       0.00019037       0.00034518
