8
Properties=species:S:1:pos:R:3:forces:R:3 calculation_type=dimer_refinement calculation_label=BH3NH3/refinement_41/point_024_distance_1.680000 d4_functional=HSE06 d4_method=hse06 d4_energy_eV=-0.05344345260724306 source_geometry=/mnt/ceph/users/cwoodson/dft_calc/diatomics/dimer_jobs/BH3NH3/refinement_41/point_024_distance_1.680000/geometry.in energy=-0.05344345260724306 free_energy=-0.05344345260724306 pbc="F F F"
B       -0.00000000      -0.00000153       0.84000000      -0.00000000       0.00000005      -0.00133000
N        0.00000000       0.00000153      -0.84000000      -0.00000000       0.00000002      -0.00072431
H        0.00000100       1.16489147       1.15181100       0.00000000       0.00254667       0.00021323
H       -1.00882800      -0.58244853       1.15181100      -0.00220552      -0.00127336       0.00021324
H        1.00882700      -0.58245053       1.15181100       0.00220552      -0.00127336       0.00021324
H        0.00000100      -0.94642447      -1.19988200       0.00000000      -0.00027679       0.00047153
H       -0.81962900       0.47320853      -1.19988400      -0.00023970       0.00013838       0.00047154
H        0.81962800       0.47321053      -1.19988400       0.00023970       0.00013838       0.00047154
