8
Properties=species:S:1:pos:R:3:forces:R:3 calculation_type=dimer_refinement calculation_label=BH3PH3/refinement_41/point_022_distance_1.940000 d4_functional=HSE06 d4_method=hse06 d4_energy_eV=-0.08404713126956997 source_geometry=/mnt/ceph/users/cwoodson/dft_calc/diatomics/dimer_jobs/BH3PH3/refinement_41/point_022_distance_1.940000/geometry.in energy=-0.08404713126956997 free_energy=-0.08404713126956997 pbc="F F F"
B        0.00000000      -0.00000050       0.97000000      -0.00000001       0.00000006      -0.00522622
P        0.00000000       0.00000050      -0.97000000       0.00000000      -0.00000001       0.00423528
H        0.00000000       1.16874650       1.25209100      -0.00000000       0.00103197      -0.00125674
H       -1.01216600      -0.58437650       1.25208700      -0.00089375      -0.00051601      -0.00125674
H        1.01216600      -0.58437750       1.25208800       0.00089376      -0.00051602      -0.00125673
H        0.00000000      -1.23673750      -1.62710300      -0.00000000       0.00068311       0.00158705
H       -1.07104200       0.61836650      -1.62710700       0.00059159      -0.00034156       0.00158705
H        1.07104100       0.61836750      -1.62710800      -0.00059159      -0.00034156       0.00158705
