8
Properties=species:S:1:pos:R:3:forces:R:3 calculation_type=dimer_refinement calculation_label=BH3PH3/refinement_41/point_037_distance_2.090000 d4_functional=HSE06 d4_method=hse06 d4_energy_eV=-0.08262617407909618 source_geometry=/mnt/ceph/users/cwoodson/dft_calc/diatomics/dimer_jobs/BH3PH3/refinement_41/point_037_distance_2.090000/geometry.in energy=-0.08262617407909618 free_energy=-0.08262617407909618 pbc="F F F"
B        0.00000000      -0.00000054       1.04500000      -0.00000002       0.00000008      -0.00569621
P        0.00000000       0.00000054      -1.04500000       0.00000000      -0.00000001       0.00428508
H        0.00000000       1.16874646       1.32709100      -0.00000000       0.00170547      -0.00132223
H       -1.01216600      -0.58437654       1.32708700      -0.00147703      -0.00085277      -0.00132222
H        1.01216600      -0.58437754       1.32708800       0.00147705      -0.00085278      -0.00132221
H        0.00000000      -1.23673746      -1.70210300      -0.00000000       0.00071857       0.00179260
H       -1.07104200       0.61836654      -1.70210700       0.00062229      -0.00035928       0.00179260
H        1.07104100       0.61836754      -1.70210800      -0.00062229      -0.00035928       0.00179260
