8
Properties=species:S:1:pos:R:3:forces:R:3 calculation_type=dimer_refinement calculation_label=BH3PH3/refinement_41/point_035_distance_2.070000 d4_functional=HSE06 d4_method=hse06 d4_energy_eV=-0.08281999673015406 source_geometry=/mnt/ceph/users/cwoodson/dft_calc/diatomics/dimer_jobs/BH3PH3/refinement_41/point_035_distance_2.070000/geometry.in energy=-0.08281999673015406 free_energy=-0.08281999673015406 pbc="F F F"
B        0.00000000      -0.00000054       1.03500000      -0.00000002       0.00000007      -0.00570618
P        0.00000000       0.00000054      -1.03500000       0.00000000      -0.00000001       0.00440215
H        0.00000000       1.16874646       1.31709100      -0.00000000       0.00153257      -0.00133356
H       -1.01216600      -0.58437654       1.31708700      -0.00132729      -0.00076631      -0.00133355
H        1.01216600      -0.58437754       1.31708800       0.00132731      -0.00076633      -0.00133355
H        0.00000000      -1.23673746      -1.69210300      -0.00000000       0.00071582       0.00176823
H       -1.07104200       0.61836654      -1.69210700       0.00061991      -0.00035791       0.00176823
H        1.07104100       0.61836754      -1.69210800      -0.00061991      -0.00035791       0.00176823
