8
Properties=species:S:1:pos:R:3:forces:R:3 calculation_type=dimer_refinement calculation_label=BH3PH3/refinement_41/point_023_distance_1.950000 d4_functional=HSE06 d4_method=hse06 d4_energy_eV=-0.08395675616447827 source_geometry=/mnt/ceph/users/cwoodson/dft_calc/diatomics/dimer_jobs/BH3PH3/refinement_41/point_023_distance_1.950000/geometry.in energy=-0.08395675616447827 free_energy=-0.08395675616447827 pbc="F F F"
B        0.00000000      -0.00000051       0.97500000      -0.00000001       0.00000006      -0.00527413
P        0.00000000       0.00000051      -0.97500000       0.00000000      -0.00000001       0.00427168
H        0.00000000       1.16874649       1.25709100      -0.00000000       0.00104689      -0.00126807
H       -1.01216600      -0.58437651       1.25708700      -0.00090666      -0.00052346      -0.00126806
H        1.01216600      -0.58437751       1.25708800       0.00090667      -0.00052347      -0.00126806
H        0.00000000      -1.23673749      -1.63210300      -0.00000000       0.00068641       0.00160221
H       -1.07104200       0.61836651      -1.63210700       0.00059444      -0.00034320       0.00160221
H        1.07104100       0.61836751      -1.63210800      -0.00059444      -0.00034321       0.00160221
