8
Properties=species:S:1:pos:R:3:forces:R:3 calculation_type=dimer_refinement calculation_label=BH3PH3/refinement_41/point_031_distance_2.030000 d4_functional=HSE06 d4_method=hse06 d4_energy_eV=-0.08320709220687032 source_geometry=/mnt/ceph/users/cwoodson/dft_calc/diatomics/dimer_jobs/BH3PH3/refinement_41/point_031_distance_2.030000/geometry.in energy=-0.08320709220687032 free_energy=-0.08320709220687032 pbc="F F F"
B        0.00000000      -0.00000053       1.01500000      -0.00000002       0.00000006      -0.00561956
P        0.00000000       0.00000053      -1.01500000       0.00000000      -0.00000001       0.00446635
H        0.00000000       1.16874647       1.29709100      -0.00000000       0.00128555      -0.00133209
H       -1.01216600      -0.58437653       1.29708700      -0.00111336      -0.00064280      -0.00133208
H        1.01216600      -0.58437753       1.29708800       0.00111337      -0.00064281      -0.00133208
H        0.00000000      -1.23673747      -1.67210300      -0.00000000       0.00070834       0.00171649
H       -1.07104200       0.61836653      -1.67210700       0.00061343      -0.00035417       0.00171649
H        1.07104100       0.61836753      -1.67210800      -0.00061343      -0.00035417       0.00171649
