8
Properties=species:S:1:pos:R:3:forces:R:3 calculation_type=dimer_refinement calculation_label=BH3PH3/refinement_41/point_002_distance_1.740000 d4_functional=HSE06 d4_method=hse06 d4_energy_eV=-0.08568335499372284 source_geometry=/mnt/ceph/users/cwoodson/dft_calc/diatomics/dimer_jobs/BH3PH3/refinement_41/point_002_distance_1.740000/geometry.in energy=-0.08568335499372284 free_energy=-0.08568335499372284 pbc="F F F"
B        0.00000000      -0.00000045       0.87000000      -0.00000001       0.00000005      -0.00431685
P        0.00000000       0.00000045      -0.87000000       0.00000000      -0.00000001       0.00368711
H        0.00000000       1.16874655       1.15209100      -0.00000000       0.00095044      -0.00105048
H       -1.01216600      -0.58437645       1.15208700      -0.00082313      -0.00047524      -0.00105048
H        1.01216600      -0.58437745       1.15208800       0.00082315      -0.00047525      -0.00105047
H        0.00000000      -1.23673755      -1.52710300      -0.00000000       0.00060348       0.00126039
H       -1.07104200       0.61836645      -1.52710700       0.00052263      -0.00030174       0.00126039
H        1.07104100       0.61836745      -1.52710800      -0.00052263      -0.00030174       0.00126039
