8
Properties=species:S:1:pos:R:3:forces:R:3 calculation_type=dimer_refinement calculation_label=BH3PH3/refinement_41/point_009_distance_1.810000 d4_functional=HSE06 d4_method=hse06 d4_energy_eV=-0.08514568466807285 source_geometry=/mnt/ceph/users/cwoodson/dft_calc/diatomics/dimer_jobs/BH3PH3/refinement_41/point_009_distance_1.810000/geometry.in energy=-0.08514568466807285 free_energy=-0.08514568466807285 pbc="F F F"
B        0.00000000      -0.00000047       0.90500000      -0.00000001       0.00000005      -0.00462040
P        0.00000000       0.00000047      -0.90500000       0.00000000      -0.00000001       0.00378796
H        0.00000000       1.16874653       1.18709100      -0.00000000       0.00096543      -0.00110027
H       -1.01216600      -0.58437647       1.18708700      -0.00083612      -0.00048274      -0.00110026
H        1.01216600      -0.58437747       1.18708800       0.00083613      -0.00048274      -0.00110026
H        0.00000000      -1.23673753      -1.56210300      -0.00000000       0.00063276       0.00137774
H       -1.07104200       0.61836647      -1.56210700       0.00054799      -0.00031638       0.00137774
H        1.07104100       0.61836747      -1.56210800      -0.00054799      -0.00031638       0.00137774
