8
Properties=species:S:1:pos:R:3:forces:R:3 calculation_type=dimer_refinement calculation_label=BH3PH3/refinement_41/point_036_distance_2.080000 d4_functional=HSE06 d4_method=hse06 d4_energy_eV=-0.08272297662510157 source_geometry=/mnt/ceph/users/cwoodson/dft_calc/diatomics/dimer_jobs/BH3PH3/refinement_41/point_036_distance_2.080000/geometry.in energy=-0.08272297662510157 free_energy=-0.08272297662510157 pbc="F F F"
B        0.00000000      -0.00000054       1.04000000      -0.00000002       0.00000007      -0.00570714
P        0.00000000       0.00000054      -1.04000000       0.00000000      -0.00000001       0.00435265
H        0.00000000       1.16874646       1.32209100      -0.00000000       0.00161430      -0.00132905
H       -1.01216600      -0.58437654       1.32208700      -0.00139807      -0.00080718      -0.00132904
H        1.01216600      -0.58437754       1.32208800       0.00139808      -0.00080719      -0.00132904
H        0.00000000      -1.23673746      -1.69710300      -0.00000000       0.00071728       0.00178054
H       -1.07104200       0.61836654      -1.69710700       0.00062118      -0.00035864       0.00178054
H        1.07104100       0.61836754      -1.69710800      -0.00062118      -0.00035864       0.00178054
