8
Properties=species:S:1:pos:R:3:forces:R:3 calculation_type=dimer_refinement calculation_label=BH3PH3/refinement_41/point_020_distance_1.920000 d4_functional=HSE06 d4_method=hse06 d4_energy_eV=-0.08422539132408263 source_geometry=/mnt/ceph/users/cwoodson/dft_calc/diatomics/dimer_jobs/BH3PH3/refinement_41/point_020_distance_1.920000/geometry.in energy=-0.08422539132408263 free_energy=-0.08422539132408263 pbc="F F F"
B        0.00000000      -0.00000050       0.96000000      -0.00000001       0.00000005      -0.00513017
P        0.00000000       0.00000050      -0.96000000       0.00000000      -0.00000001       0.00416022
H        0.00000000       1.16874650       1.24209100      -0.00000000       0.00100855      -0.00123292
H       -1.01216600      -0.58437650       1.24208700      -0.00087346      -0.00050430      -0.00123291
H        1.01216600      -0.58437750       1.24208800       0.00087348      -0.00050431      -0.00123291
H        0.00000000      -1.23673750      -1.61710300      -0.00000000       0.00067621       0.00155623
H       -1.07104200       0.61836650      -1.61710700       0.00058561      -0.00033810       0.00155623
H        1.07104100       0.61836750      -1.61710800      -0.00058561      -0.00033810       0.00155623
