2
Properties=species:S:1:pos:R:3:forces:R:3 calculation_type=dimer_refinement calculation_label=BN/refinement_41/point_023_distance_1.320000 d4_functional=HSE06 d4_method=hse06 d4_energy_eV=-0.01171831020061899 source_geometry=/mnt/ceph/users/cwoodson/dft_calc/diatomics/dimer_jobs/BN/refinement_41/point_023_distance_1.320000/geometry.in energy=-0.01171831020061899 free_energy=-0.01171831020061899 pbc="F F F"
B        0.00000000       0.00000000      -0.66000000      -0.00000000      -0.00000000       0.00011317
N        0.00000000       0.00000000       0.66000000      -0.00000000      -0.00000000      -0.00011317
