2
Properties=species:S:1:pos:R:3:forces:R:3 calculation_type=dimer_refinement calculation_label=BN/refinement_100/point_036_distance_1.15 d4_functional=HSE06 d4_method=hse06 d4_energy_eV=-0.011736078387507634 source_geometry=/mnt/ceph/users/cwoodson/dft_calc/diatomics/dimer_jobs/BN/refinement_100/point_036_distance_1.15/geometry.in energy=-0.011736078387507634 free_energy=-0.011736078387507634 pbc="F F F"
B        0.00000000       0.00000000      -0.57500000      -0.00000000      -0.00000000       0.00009525
N        0.00000000       0.00000000       0.57500000      -0.00000000      -0.00000000      -0.00009525
