2
Properties=species:S:1:pos:R:3:forces:R:3 calculation_type=dimer_refinement calculation_label=BN/refinement_100/point_061_distance_1.40 d4_functional=HSE06 d4_method=hse06 d4_energy_eV=-0.01170924667903133 source_geometry=/mnt/ceph/users/cwoodson/dft_calc/diatomics/dimer_jobs/BN/refinement_100/point_061_distance_1.40/geometry.in energy=-0.01170924667903133 free_energy=-0.01170924667903133 pbc="F F F"
B        0.00000000       0.00000000      -0.70000000      -0.00000000      -0.00000000       0.00010988
N        0.00000000       0.00000000       0.70000000      -0.00000000      -0.00000000      -0.00010988
