2
Properties=species:S:1:pos:R:3:forces:R:3 calculation_type=dimer_refinement calculation_label=BN/refinement_100/point_014_distance_0.93 d4_functional=HSE06 d4_method=hse06 d4_energy_eV=-0.011755062410714683 source_geometry=/mnt/ceph/users/cwoodson/dft_calc/diatomics/dimer_jobs/BN/refinement_100/point_014_distance_0.93/geometry.in energy=-0.011755062410714683 free_energy=-0.011755062410714683 pbc="F F F"
B        0.00000000       0.00000000      -0.46500000      -0.00000000      -0.00000000       0.00007903
N        0.00000000       0.00000000       0.46500000      -0.00000000      -0.00000000      -0.00007903
