2
Properties=species:S:1:pos:R:3:forces:R:3 calculation_type=dimer_refinement calculation_label=BP/refinement_41/point_026_distance_1.670000 d4_functional=HSE06 d4_method=hse06 d4_energy_eV=-0.02602176100000463 source_geometry=/mnt/ceph/users/cwoodson/dft_calc/diatomics/dimer_jobs/BP/refinement_41/point_026_distance_1.670000/geometry.in energy=-0.02602176100000463 free_energy=-0.02602176100000463 pbc="F F F"
B        0.00000000       0.00000000      -0.83500000      -0.00000000      -0.00000000       0.00007554
P        0.00000000       0.00000000       0.83500000      -0.00000000      -0.00000000      -0.00007554
