2
Properties=species:S:1:pos:R:3:forces:R:3 calculation_type=dimer_refinement calculation_label=BP/refinement_100/point_092_distance_2.03 d4_functional=HSE06 d4_method=hse06 d4_energy_eV=-0.025915069197984208 source_geometry=/mnt/ceph/users/cwoodson/dft_calc/diatomics/dimer_jobs/BP/refinement_100/point_092_distance_2.03/geometry.in energy=-0.025915069197984208 free_energy=-0.025915069197984208 pbc="F F F"
B        0.00000000       0.00000000      -1.01500000      -0.00000000      -0.00000000       0.00059930
P        0.00000000       0.00000000       1.01500000      -0.00000000      -0.00000000      -0.00059930
