2
Properties=species:S:1:pos:R:3:forces:R:3 calculation_type=dimer_refinement calculation_label=BP/refinement_100/point_019_distance_1.30 d4_functional=HSE06 d4_method=hse06 d4_energy_eV=-0.026005540273171642 source_geometry=/mnt/ceph/users/cwoodson/dft_calc/diatomics/dimer_jobs/BP/refinement_100/point_019_distance_1.30/geometry.in energy=-0.026005540273171642 free_energy=-0.026005540273171642 pbc="F F F"
B        0.00000000       0.00000000      -0.65000000      -0.00000000      -0.00000000      -0.00012831
P        0.00000000       0.00000000       0.65000000      -0.00000000      -0.00000000       0.00012831
