2
Properties=species:S:1:pos:R:3:forces:R:3 calculation_type=dimer_refinement calculation_label=BP/refinement_100/point_007_distance_1.18 d4_functional=HSE06 d4_method=hse06 d4_energy_eV=-0.025988270321774466 source_geometry=/mnt/ceph/users/cwoodson/dft_calc/diatomics/dimer_jobs/BP/refinement_100/point_007_distance_1.18/geometry.in energy=-0.025988270321774466 free_energy=-0.025988270321774466 pbc="F F F"
B        0.00000000       0.00000000      -0.59000000      -0.00000000      -0.00000000      -0.00015724
P        0.00000000       0.00000000       0.59000000      -0.00000000      -0.00000000       0.00015724
