8
Properties=species:S:1:pos:R:3:forces:R:3 calculation_type=dimer_refinement calculation_label=C2H6/refinement_100/point_006_distance_1.09 d4_functional=HSE06 d4_method=hse06 d4_energy_eV=-0.05502813809869928 source_geometry=/mnt/ceph/users/cwoodson/dft_calc/diatomics/dimer_jobs/C2H6/refinement_100/point_006_distance_1.09/geometry.in energy=-0.05502813809869928 free_energy=-0.05502813809869928 pbc="F F F"
C        0.00000000       0.00000000       0.54500000       0.00000000       0.00000000      -0.00164039
C        0.00000000       0.00000000      -0.54500000       0.00000000      -0.00000000       0.00164039
H        0.00000000       1.01895700       0.94002000      -0.00000000       0.00069182       0.00035670
H       -0.88244300      -0.50947900       0.94002000      -0.00059913      -0.00034591       0.00035669
H        0.88244300      -0.50947900       0.94002000       0.00059913      -0.00034591       0.00035669
H        0.00000000      -1.01895700      -0.94002000      -0.00000000      -0.00069182      -0.00035670
H       -0.88244300       0.50947900      -0.94002000      -0.00059913       0.00034591      -0.00035669
H        0.88244300       0.50947900      -0.94002000       0.00059913       0.00034591      -0.00035669
