8
Properties=species:S:1:pos:R:3:forces:R:3 calculation_type=dimer_refinement calculation_label=C2H6/refinement_100/point_035_distance_1.38 d4_functional=HSE06 d4_method=hse06 d4_energy_eV=-0.05457263810248924 source_geometry=/mnt/ceph/users/cwoodson/dft_calc/diatomics/dimer_jobs/C2H6/refinement_100/point_035_distance_1.38/geometry.in energy=-0.05457263810248924 free_energy=-0.05457263810248924 pbc="F F F"
C        0.00000000       0.00000000       0.69000000      -0.00000000       0.00000000      -0.00236760
C        0.00000000       0.00000000      -0.69000000      -0.00000000      -0.00000000       0.00236760
H        0.00000000       1.01895700       1.08502000       0.00000000       0.00041757      -0.00004304
H       -0.88244300      -0.50947900       1.08502000      -0.00036163      -0.00020879      -0.00004304
H        0.88244300      -0.50947900       1.08502000       0.00036163      -0.00020879      -0.00004304
H        0.00000000      -1.01895700      -1.08502000       0.00000000      -0.00041757       0.00004304
H       -0.88244300       0.50947900      -1.08502000      -0.00036163       0.00020879       0.00004304
H        0.88244300       0.50947900      -1.08502000       0.00036163       0.00020879       0.00004304
