8
Properties=species:S:1:pos:R:3:forces:R:3 calculation_type=dimer_refinement calculation_label=C2H6/refinement_100/point_055_distance_1.58 d4_functional=HSE06 d4_method=hse06 d4_energy_eV=-0.05394266169639387 source_geometry=/mnt/ceph/users/cwoodson/dft_calc/diatomics/dimer_jobs/C2H6/refinement_100/point_055_distance_1.58/geometry.in energy=-0.05394266169639387 free_energy=-0.05394266169639387 pbc="F F F"
C        0.00000000       0.00000000       0.79000000      -0.00000000       0.00000000      -0.00273413
C        0.00000000       0.00000000      -0.79000000      -0.00000000      -0.00000000       0.00273413
H        0.00000000       1.01895700       1.18502000       0.00000000       0.00027726      -0.00034920
H       -0.88244300      -0.50947900       1.18502000      -0.00024011      -0.00013863      -0.00034920
H        0.88244300      -0.50947900       1.18502000       0.00024011      -0.00013863      -0.00034920
H        0.00000000      -1.01895700      -1.18502000       0.00000000      -0.00027726       0.00034920
H       -0.88244300       0.50947900      -1.18502000      -0.00024011       0.00013863       0.00034920
H        0.88244300       0.50947900      -1.18502000       0.00024011       0.00013863       0.00034920
