8
Properties=species:S:1:pos:R:3:forces:R:3 calculation_type=dimer_refinement calculation_label=C2H6/refinement_100/point_070_distance_1.73 d4_functional=HSE06 d4_method=hse06 d4_energy_eV=-0.05335310594763441 source_geometry=/mnt/ceph/users/cwoodson/dft_calc/diatomics/dimer_jobs/C2H6/refinement_100/point_070_distance_1.73/geometry.in energy=-0.05335310594763441 free_energy=-0.05335310594763441 pbc="F F F"
C        0.00000000       0.00000000       0.86500000      -0.00000000       0.00000000      -0.00181192
C        0.00000000       0.00000000      -0.86500000      -0.00000000      -0.00000000       0.00181192
H        0.00000000       1.01895700       1.26002000      -0.00000000       0.00026419      -0.00056357
H       -0.88244300      -0.50947900       1.26002000      -0.00022879      -0.00013209      -0.00056357
H        0.88244300      -0.50947900       1.26002000       0.00022879      -0.00013209      -0.00056357
H        0.00000000      -1.01895700      -1.26002000       0.00000000      -0.00026419       0.00056357
H       -0.88244300       0.50947900      -1.26002000      -0.00022879       0.00013209       0.00056357
H        0.88244300       0.50947900      -1.26002000       0.00022879       0.00013209       0.00056357
