8
Properties=species:S:1:pos:R:3:forces:R:3 calculation_type=dimer_refinement calculation_label=C2H6/refinement_100/point_054_distance_1.57 d4_functional=HSE06 d4_method=hse06 d4_energy_eV=-0.05398019690513255 source_geometry=/mnt/ceph/users/cwoodson/dft_calc/diatomics/dimer_jobs/C2H6/refinement_100/point_054_distance_1.57/geometry.in energy=-0.05398019690513255 free_energy=-0.05398019690513255 pbc="F F F"
C        0.00000000       0.00000000       0.78500000      -0.00000000       0.00000000      -0.00272416
C        0.00000000       0.00000000      -0.78500000      -0.00000000      -0.00000000       0.00272416
H        0.00000000       1.01895700       1.18002000       0.00000000       0.00028267      -0.00033358
H       -0.88244300      -0.50947900       1.18002000      -0.00024480      -0.00014134      -0.00033358
H        0.88244300      -0.50947900       1.18002000       0.00024480      -0.00014134      -0.00033358
H        0.00000000      -1.01895700      -1.18002000       0.00000000      -0.00028267       0.00033358
H       -0.88244300       0.50947900      -1.18002000      -0.00024480       0.00014134       0.00033358
H        0.88244300       0.50947900      -1.18002000       0.00024480       0.00014134       0.00033358
