8
Properties=species:S:1:pos:R:3:forces:R:3 calculation_type=dimer_refinement calculation_label=C2H6/refinement_41/point_013_distance_1.440000 d4_functional=HSE06 d4_method=hse06 d4_energy_eV=-0.05440081607379294 source_geometry=/mnt/ceph/users/cwoodson/dft_calc/diatomics/dimer_jobs/C2H6/refinement_41/point_013_distance_1.440000/geometry.in energy=-0.05440081607379294 free_energy=-0.05440081607379294 pbc="F F F"
C        0.00000000       0.00000000       0.72000000       0.00000000      -0.00000000      -0.00249341
C        0.00000000       0.00000000      -0.72000000       0.00000000       0.00000000       0.00249341
H        0.00000000       1.01450700       1.11562800       0.00000000       0.00036417      -0.00012703
H       -0.87858900      -0.50725200       1.11562300      -0.00031539      -0.00018209      -0.00012703
H        0.87858900      -0.50725200       1.11562300       0.00031539      -0.00018209      -0.00012703
H       -0.00000000      -1.01450700      -1.11562800      -0.00000000      -0.00036417       0.00012703
H       -0.87858900       0.50725200      -1.11562300      -0.00031539       0.00018209       0.00012703
H        0.87858900       0.50725200      -1.11562400       0.00031539       0.00018209       0.00012703
