8
Properties=species:S:1:pos:R:3:forces:R:3 calculation_type=dimer_refinement calculation_label=C2H6/refinement_100/point_069_distance_1.72 d4_functional=HSE06 d4_method=hse06 d4_energy_eV=-0.05338907630065748 source_geometry=/mnt/ceph/users/cwoodson/dft_calc/diatomics/dimer_jobs/C2H6/refinement_100/point_069_distance_1.72/geometry.in energy=-0.05338907630065748 free_energy=-0.05338907630065748 pbc="F F F"
C        0.00000000       0.00000000       0.86000000       0.00000000       0.00000000      -0.00202765
C        0.00000000       0.00000000      -0.86000000      -0.00000000      -0.00000000       0.00202765
H        0.00000000       1.01895700       1.25502000      -0.00000000       0.00025773      -0.00055188
H       -0.88244300      -0.50947900       1.25502000      -0.00022321      -0.00012887      -0.00055188
H        0.88244300      -0.50947900       1.25502000       0.00022321      -0.00012887      -0.00055188
H        0.00000000      -1.01895700      -1.25502000      -0.00000000      -0.00025773       0.00055188
H       -0.88244300       0.50947900      -1.25502000      -0.00022321       0.00012887       0.00055188
H        0.88244300       0.50947900      -1.25502000       0.00022321       0.00012887       0.00055188
