8
Properties=species:S:1:pos:R:3:forces:R:3 calculation_type=dimer_refinement calculation_label=C2H6/refinement_100/point_005_distance_1.08 d4_functional=HSE06 d4_method=hse06 d4_energy_eV=-0.05503340989945818 source_geometry=/mnt/ceph/users/cwoodson/dft_calc/diatomics/dimer_jobs/C2H6/refinement_100/point_005_distance_1.08/geometry.in energy=-0.05503340989945818 free_energy=-0.05503340989945818 pbc="F F F"
C        0.00000000       0.00000000       0.54000000       0.00000000       0.00000000      -0.00160015
C        0.00000000       0.00000000      -0.54000000       0.00000000      -0.00000000       0.00160015
H        0.00000000       1.01895700       0.93502000      -0.00000000       0.00070404       0.00037220
H       -0.88244300      -0.50947900       0.93502000      -0.00060971      -0.00035202       0.00037220
H        0.88244300      -0.50947900       0.93502000       0.00060971      -0.00035202       0.00037220
H        0.00000000      -1.01895700      -0.93502000      -0.00000000      -0.00070404      -0.00037220
H       -0.88244300       0.50947900      -0.93502000      -0.00060971       0.00035202      -0.00037220
H        0.88244300       0.50947900      -0.93502000       0.00060971       0.00035202      -0.00037220
