8
Properties=species:S:1:pos:R:3:forces:R:3 calculation_type=dimer_refinement calculation_label=C2H6/refinement_100/point_002_distance_1.05 d4_functional=HSE06 d4_method=hse06 d4_energy_eV=-0.05504382109036559 source_geometry=/mnt/ceph/users/cwoodson/dft_calc/diatomics/dimer_jobs/C2H6/refinement_100/point_002_distance_1.05/geometry.in energy=-0.05504382109036559 free_energy=-0.05504382109036559 pbc="F F F"
C        0.00000000       0.00000000       0.52500000      -0.00000000       0.00000000      -0.00146762
C        0.00000000       0.00000000      -0.52500000       0.00000000      -0.00000000       0.00146762
H        0.00000000       1.01895700       0.92002000       0.00000000       0.00074198       0.00042028
H       -0.88244300      -0.50947900       0.92002000      -0.00064257      -0.00037099       0.00042028
H        0.88244300      -0.50947900       0.92002000       0.00064257      -0.00037099       0.00042028
H        0.00000000      -1.01895700      -0.92002000       0.00000000      -0.00074198      -0.00042028
H       -0.88244300       0.50947900      -0.92002000      -0.00064257       0.00037099      -0.00042028
H        0.88244300       0.50947900      -0.92002000       0.00064257       0.00037099      -0.00042028
