8
Properties=species:S:1:pos:R:3:forces:R:3 calculation_type=dimer_refinement calculation_label=C2H6/refinement_100/point_004_distance_1.07 d4_functional=HSE06 d4_method=hse06 d4_energy_eV=-0.05503779936240602 source_geometry=/mnt/ceph/users/cwoodson/dft_calc/diatomics/dimer_jobs/C2H6/refinement_100/point_004_distance_1.07/geometry.in energy=-0.05503779936240602 free_energy=-0.05503779936240602 pbc="F F F"
C        0.00000000       0.00000000       0.53500000       0.00000000       0.00000000      -0.00155787
C        0.00000000       0.00000000      -0.53500000       0.00000000      -0.00000000       0.00155787
H        0.00000000       1.01895700       0.93002000       0.00000000       0.00071650       0.00038800
H       -0.88244300      -0.50947900       0.93002000      -0.00062051      -0.00035825       0.00038800
H        0.88244300      -0.50947900       0.93002000       0.00062051      -0.00035825       0.00038800
H        0.00000000      -1.01895700      -0.93002000      -0.00000000      -0.00071650      -0.00038800
H       -0.88244300       0.50947900      -0.93002000      -0.00062051       0.00035825      -0.00038800
H        0.88244300       0.50947900      -0.93002000       0.00062051       0.00035825      -0.00038800
