8
Properties=species:S:1:pos:R:3:forces:R:3 calculation_type=dimer_refinement calculation_label=C2H6/refinement_100/point_064_distance_1.67 d4_functional=HSE06 d4_method=hse06 d4_energy_eV=-0.05358546454252135 source_geometry=/mnt/ceph/users/cwoodson/dft_calc/diatomics/dimer_jobs/C2H6/refinement_100/point_064_distance_1.67/geometry.in energy=-0.05358546454252135 free_energy=-0.05358546454252135 pbc="F F F"
C        0.00000000       0.00000000       0.83500000      -0.00000000       0.00000000      -0.00259954
C        0.00000000       0.00000000      -0.83500000       0.00000000      -0.00000000       0.00259954
H        0.00000000       1.01895700       1.23002000       0.00000000       0.00024716      -0.00048536
H       -0.88244300      -0.50947900       1.23002000      -0.00021405      -0.00012358      -0.00048536
H        0.88244300      -0.50947900       1.23002000       0.00021405      -0.00012358      -0.00048536
H        0.00000000      -1.01895700      -1.23002000       0.00000000      -0.00024716       0.00048536
H       -0.88244300       0.50947900      -1.23002000      -0.00021405       0.00012358       0.00048536
H        0.88244300       0.50947900      -1.23002000       0.00021405       0.00012358       0.00048536
