8
Properties=species:S:1:pos:R:3:forces:R:3 calculation_type=dimer_refinement calculation_label=C2H6/refinement_100/point_084_distance_1.87 d4_functional=HSE06 d4_method=hse06 d4_energy_eV=-0.05359754958603986 source_geometry=/mnt/ceph/users/cwoodson/dft_calc/diatomics/dimer_jobs/C2H6/refinement_100/point_084_distance_1.87/geometry.in energy=-0.05359754958603986 free_energy=-0.05359754958603986 pbc="F F F"
C        0.00000000       0.00000000       0.93500000      -0.00000000       0.00000001       0.01530873
C        0.00000000       0.00000000      -0.93500000       0.00000000      -0.00000001      -0.01530873
H        0.00000000       1.01895700       1.33002000       0.00000000       0.00077888      -0.00056731
H       -0.88244300      -0.50947900       1.33002000      -0.00067454      -0.00038944      -0.00056731
H        0.88244300      -0.50947900       1.33002000       0.00067454      -0.00038944      -0.00056731
H        0.00000000      -1.01895700      -1.33002000      -0.00000000      -0.00077888       0.00056731
H       -0.88244300       0.50947900      -1.33002000      -0.00067454       0.00038944       0.00056731
H        0.88244300       0.50947900      -1.33002000       0.00067454       0.00038944       0.00056731
