8
Properties=species:S:1:pos:R:3:forces:R:3 calculation_type=dimer_refinement calculation_label=C2H6/refinement_100/point_073_distance_1.76 d4_functional=HSE06 d4_method=hse06 d4_energy_eV=-0.05326012155751029 source_geometry=/mnt/ceph/users/cwoodson/dft_calc/diatomics/dimer_jobs/C2H6/refinement_100/point_073_distance_1.76/geometry.in energy=-0.05326012155751029 free_energy=-0.05326012155751029 pbc="F F F"
C        0.00000000       0.00000000       0.88000000      -0.00000000       0.00000000      -0.00080667
C        0.00000000       0.00000000      -0.88000000      -0.00000000      -0.00000000       0.00080667
H        0.00000000       1.01895700       1.27502000      -0.00000000       0.00029688      -0.00059358
H       -0.88244300      -0.50947900       1.27502000      -0.00025710      -0.00014844      -0.00059358
H        0.88244300      -0.50947900       1.27502000       0.00025710      -0.00014844      -0.00059358
H        0.00000000      -1.01895700      -1.27502000       0.00000000      -0.00029688       0.00059358
H       -0.88244300       0.50947900      -1.27502000      -0.00025710       0.00014844       0.00059358
H        0.88244300       0.50947900      -1.27502000       0.00025710       0.00014844       0.00059358
