8
Properties=species:S:1:pos:R:3:forces:R:3 calculation_type=dimer_refinement calculation_label=C2H6/refinement_100/point_085_distance_1.88 d4_functional=HSE06 d4_method=hse06 d4_energy_eV=-0.05374913829975488 source_geometry=/mnt/ceph/users/cwoodson/dft_calc/diatomics/dimer_jobs/C2H6/refinement_100/point_085_distance_1.88/geometry.in energy=-0.05374913829975488 free_energy=-0.05374913829975488 pbc="F F F"
C        0.00000000       0.00000000       0.94000000      -0.00000000       0.00000001       0.01840320
C        0.00000000       0.00000000      -0.94000000      -0.00000000      -0.00000001      -0.01840320
H        0.00000000       1.01895700       1.33502000      -0.00000000       0.00086126      -0.00055089
H       -0.88244300      -0.50947900       1.33502000      -0.00074588      -0.00043064      -0.00055088
H        0.88244300      -0.50947900       1.33502000       0.00074588      -0.00043064      -0.00055088
H        0.00000000      -1.01895700      -1.33502000      -0.00000000      -0.00086126       0.00055089
H       -0.88244300       0.50947900      -1.33502000      -0.00074588       0.00043064       0.00055088
H        0.88244300       0.50947900      -1.33502000       0.00074588       0.00043064       0.00055088
