8
Properties=species:S:1:pos:R:3:forces:R:3 calculation_type=dimer_refinement calculation_label=C2H6/refinement_100/point_014_distance_1.17 d4_functional=HSE06 d4_method=hse06 d4_energy_eV=-0.0549575809759866 source_geometry=/mnt/ceph/users/cwoodson/dft_calc/diatomics/dimer_jobs/C2H6/refinement_100/point_014_distance_1.17/geometry.in energy=-0.0549575809759866 free_energy=-0.0549575809759866 pbc="F F F"
C        0.00000000       0.00000000       0.58500000      -0.00000000       0.00000000      -0.00189789
C        0.00000000       0.00000000      -0.58500000       0.00000000      -0.00000000       0.00189789
H        0.00000000       1.01895700       0.98002000       0.00000000       0.00060380       0.00024307
H       -0.88244300      -0.50947900       0.98002000      -0.00052291      -0.00030190       0.00024307
H        0.88244300      -0.50947900       0.98002000       0.00052291      -0.00030190       0.00024307
H        0.00000000      -1.01895700      -0.98002000       0.00000000      -0.00060380      -0.00024307
H       -0.88244300       0.50947900      -0.98002000      -0.00052291       0.00030190      -0.00024307
H        0.88244300       0.50947900      -0.98002000       0.00052291       0.00030190      -0.00024307
