8
Properties=species:S:1:pos:R:3:forces:R:3 calculation_type=dimer_refinement calculation_label=C2H6/refinement_100/point_043_distance_1.46 d4_functional=HSE06 d4_method=hse06 d4_energy_eV=-0.05435198802849047 source_geometry=/mnt/ceph/users/cwoodson/dft_calc/diatomics/dimer_jobs/C2H6/refinement_100/point_043_distance_1.46/geometry.in energy=-0.05435198802849047 free_energy=-0.05435198802849047 pbc="F F F"
C        0.00000000       0.00000000       0.73000000      -0.00000000       0.00000000      -0.00253376
C        0.00000000       0.00000000      -0.73000000      -0.00000000      -0.00000000       0.00253376
H        0.00000000       1.01895700       1.12502000       0.00000000       0.00035553      -0.00016256
H       -0.88244300      -0.50947900       1.12502000      -0.00030790      -0.00017777      -0.00016256
H        0.88244300      -0.50947900       1.12502000       0.00030790      -0.00017777      -0.00016256
H        0.00000000      -1.01895700      -1.12502000       0.00000000      -0.00035553       0.00016256
H       -0.88244300       0.50947900      -1.12502000      -0.00030790       0.00017777       0.00016256
H        0.88244300       0.50947900      -1.12502000       0.00030790       0.00017777       0.00016256
