8
Properties=species:S:1:pos:R:3:forces:R:3 calculation_type=dimer_refinement calculation_label=C2H6/refinement_100/point_051_distance_1.54 d4_functional=HSE06 d4_method=hse06 d4_energy_eV=-0.05408924938469257 source_geometry=/mnt/ceph/users/cwoodson/dft_calc/diatomics/dimer_jobs/C2H6/refinement_100/point_051_distance_1.54/geometry.in energy=-0.05408924938469257 free_energy=-0.05408924938469257 pbc="F F F"
C        0.00000000       0.00000000       0.77000000       0.00000000       0.00000000      -0.00268300
C        0.00000000       0.00000000      -0.77000000      -0.00000000      -0.00000000       0.00268300
H        0.00000000       1.01895700       1.16502000       0.00000000       0.00030043      -0.00028663
H       -0.88244300      -0.50947900       1.16502000      -0.00026018      -0.00015021      -0.00028663
H        0.88244300      -0.50947900       1.16502000       0.00026018      -0.00015021      -0.00028663
H        0.00000000      -1.01895700      -1.16502000       0.00000000      -0.00030043       0.00028663
H       -0.88244300       0.50947900      -1.16502000      -0.00026018       0.00015021       0.00028663
H        0.88244300       0.50947900      -1.16502000       0.00026018       0.00015021       0.00028663
