8
Properties=species:S:1:pos:R:3:forces:R:3 calculation_type=dimer_refinement calculation_label=C2H6/refinement_100/point_007_distance_1.10 d4_functional=HSE06 d4_method=hse06 d4_energy_eV=-0.05502201374373185 source_geometry=/mnt/ceph/users/cwoodson/dft_calc/diatomics/dimer_jobs/C2H6/refinement_100/point_007_distance_1.10/geometry.in energy=-0.05502201374373185 free_energy=-0.05502201374373185 pbc="F F F"
C        0.00000000       0.00000000       0.55000000       0.00000000       0.00000000      -0.00167860
C        0.00000000       0.00000000      -0.55000000      -0.00000000      -0.00000000       0.00167860
H        0.00000000       1.01895700       0.94502000       0.00000000       0.00067987       0.00034151
H       -0.88244300      -0.50947900       0.94502000      -0.00058879      -0.00033994       0.00034151
H        0.88244300      -0.50947900       0.94502000       0.00058879      -0.00033994       0.00034151
H        0.00000000      -1.01895700      -0.94502000       0.00000000      -0.00067987      -0.00034151
H       -0.88244300       0.50947900      -0.94502000      -0.00058879       0.00033994      -0.00034151
H        0.88244300       0.50947900      -0.94502000       0.00058879       0.00033994      -0.00034151
