8
Properties=species:S:1:pos:R:3:forces:R:3 calculation_type=dimer_refinement calculation_label=C2H6/refinement_100/point_083_distance_1.86 d4_functional=HSE06 d4_method=hse06 d4_energy_eV=-0.05347607446764449 source_geometry=/mnt/ceph/users/cwoodson/dft_calc/diatomics/dimer_jobs/C2H6/refinement_100/point_083_distance_1.86/geometry.in energy=-0.05347607446764449 free_energy=-0.05347607446764449 pbc="F F F"
C        0.00000000       0.00000000       0.93000000      -0.00000000       0.00000001       0.01248613
C        0.00000000       0.00000000      -0.93000000      -0.00000000      -0.00000001      -0.01248613
H        0.00000000       1.01895700       1.32502000      -0.00000000       0.00070127      -0.00058215
H       -0.88244300      -0.50947900       1.32502000      -0.00060732      -0.00035064      -0.00058215
H        0.88244300      -0.50947900       1.32502000       0.00060732      -0.00035064      -0.00058215
H        0.00000000      -1.01895700      -1.32502000       0.00000000      -0.00070127       0.00058215
H       -0.88244300       0.50947900      -1.32502000      -0.00060732       0.00035064       0.00058215
H        0.88244300       0.50947900      -1.32502000       0.00060732       0.00035064       0.00058215
