8
Properties=species:S:1:pos:R:3:forces:R:3 calculation_type=dimer_refinement calculation_label=C2H6/refinement_100/point_082_distance_1.85 d4_functional=HSE06 d4_method=hse06 d4_energy_eV=-0.053381668756877027 source_geometry=/mnt/ceph/users/cwoodson/dft_calc/diatomics/dimer_jobs/C2H6/refinement_100/point_082_distance_1.85/geometry.in energy=-0.053381668756877027 free_energy=-0.053381668756877027 pbc="F F F"
C        0.00000000       0.00000000       0.92500000       0.00000000       0.00000001       0.00998127
C        0.00000000       0.00000000      -0.92500000      -0.00000000      -0.00000001      -0.00998127
H        0.00000000       1.01895700       1.32002000      -0.00000000       0.00063035      -0.00059461
H       -0.88244300      -0.50947900       1.32002000      -0.00054590      -0.00031518      -0.00059460
H        0.88244300      -0.50947900       1.32002000       0.00054590      -0.00031518      -0.00059460
H        0.00000000      -1.01895700      -1.32002000       0.00000000      -0.00063035       0.00059461
H       -0.88244300       0.50947900      -1.32002000      -0.00054590       0.00031518       0.00059460
H        0.88244300       0.50947900      -1.32002000       0.00054590       0.00031518       0.00059460
