8
Properties=species:S:1:pos:R:3:forces:R:3 calculation_type=dimer_refinement calculation_label=C2H6/refinement_100/point_048_distance_1.51 d4_functional=HSE06 d4_method=hse06 d4_energy_eV=-0.05419266788142537 source_geometry=/mnt/ceph/users/cwoodson/dft_calc/diatomics/dimer_jobs/C2H6/refinement_100/point_048_distance_1.51/geometry.in energy=-0.05419266788142537 free_energy=-0.05419266788142537 pbc="F F F"
C        0.00000000       0.00000000       0.75500000       0.00000000       0.00000000      -0.00263124
C        0.00000000       0.00000000      -0.75500000      -0.00000000      -0.00000000       0.00263124
H        0.00000000       1.01895700       1.15002000      -0.00000000       0.00032000      -0.00023977
H       -0.88244300      -0.50947900       1.15002000      -0.00027713      -0.00016000      -0.00023977
H        0.88244300      -0.50947900       1.15002000       0.00027713      -0.00016000      -0.00023977
H        0.00000000      -1.01895700      -1.15002000       0.00000000      -0.00032000       0.00023977
H       -0.88244300       0.50947900      -1.15002000      -0.00027713       0.00016000       0.00023977
H        0.88244300       0.50947900      -1.15002000       0.00027713       0.00016000       0.00023977
