8
Properties=species:S:1:pos:R:3:forces:R:3 calculation_type=dimer_refinement calculation_label=C2H6/refinement_41/point_001_distance_1.320000 d4_functional=HSE06 d4_method=hse06 d4_energy_eV=-0.05469866259871519 source_geometry=/mnt/ceph/users/cwoodson/dft_calc/diatomics/dimer_jobs/C2H6/refinement_41/point_001_distance_1.320000/geometry.in energy=-0.05469866259871519 free_energy=-0.05469866259871519 pbc="F F F"
C        0.00000000       0.00000000       0.66000000       0.00000000      -0.00000000      -0.00224019
C        0.00000000       0.00000000      -0.66000000       0.00000000       0.00000000       0.00224019
H        0.00000000       1.01450700       1.05562800      -0.00000000       0.00046106       0.00004810
H       -0.87858900      -0.50725200       1.05562300      -0.00039930      -0.00023053       0.00004811
H        0.87858900      -0.50725200       1.05562300       0.00039930      -0.00023053       0.00004811
H       -0.00000000      -1.01450700      -1.05562800      -0.00000000      -0.00046106      -0.00004810
H       -0.87858900       0.50725200      -1.05562300      -0.00039930       0.00023053      -0.00004811
H        0.87858900       0.50725200      -1.05562400       0.00039930       0.00023053      -0.00004811
