8
Properties=species:S:1:pos:R:3:forces:R:3 calculation_type=dimer_refinement calculation_label=C2H6/refinement_100/point_040_distance_1.43 d4_functional=HSE06 d4_method=hse06 d4_energy_eV=-0.05443965870630815 source_geometry=/mnt/ceph/users/cwoodson/dft_calc/diatomics/dimer_jobs/C2H6/refinement_100/point_040_distance_1.43/geometry.in energy=-0.05443965870630815 free_energy=-0.05443965870630815 pbc="F F F"
C        0.00000000       0.00000000       0.71500000      -0.00000000       0.00000000      -0.00247219
C        0.00000000       0.00000000      -0.71500000      -0.00000000      -0.00000000       0.00247219
H        0.00000000       1.01895700       1.11002000       0.00000000       0.00037817      -0.00011707
H       -0.88244300      -0.50947900       1.11002000      -0.00032750      -0.00018908      -0.00011707
H        0.88244300      -0.50947900       1.11002000       0.00032750      -0.00018908      -0.00011707
H        0.00000000      -1.01895700      -1.11002000       0.00000000      -0.00037817       0.00011707
H       -0.88244300       0.50947900      -1.11002000      -0.00032750       0.00018908       0.00011707
H        0.88244300       0.50947900      -1.11002000       0.00032750       0.00018908       0.00011707
