8
Properties=species:S:1:pos:R:3:forces:R:3 calculation_type=dimer_refinement calculation_label=C2H6/refinement_100/point_020_distance_1.23 d4_functional=HSE06 d4_method=hse06 d4_energy_eV=-0.05487580952444064 source_geometry=/mnt/ceph/users/cwoodson/dft_calc/diatomics/dimer_jobs/C2H6/refinement_100/point_020_distance_1.23/geometry.in energy=-0.05487580952444064 free_energy=-0.05487580952444064 pbc="F F F"
C        0.00000000       0.00000000       0.61500000      -0.00000000       0.00000000      -0.00204439
C        0.00000000       0.00000000      -0.61500000      -0.00000000      -0.00000000       0.00204439
H        0.00000000       1.01895700       1.01002000      -0.00000000       0.00054633       0.00016390
H       -0.88244300      -0.50947900       1.01002000      -0.00047314      -0.00027317       0.00016390
H        0.88244300      -0.50947900       1.01002000       0.00047314      -0.00027317       0.00016390
H        0.00000000      -1.01895700      -1.01002000       0.00000000      -0.00054633      -0.00016390
H       -0.88244300       0.50947900      -1.01002000      -0.00047314       0.00027317      -0.00016390
H        0.88244300       0.50947900      -1.01002000       0.00047314       0.00027317      -0.00016390
