8
Properties=species:S:1:pos:R:3:forces:R:3 calculation_type=dimer_refinement calculation_label=CH3SiH3/refinement_100/point_057_distance_1.95 d4_functional=HSE06 d4_method=hse06 d4_energy_eV=-0.07710659496737188 source_geometry=/mnt/ceph/users/cwoodson/dft_calc/diatomics/dimer_jobs/CH3SiH3/refinement_100/point_057_distance_1.95/geometry.in energy=-0.07710659496737188 free_energy=-0.07710659496737188 pbc="F F F"
C        0.00000000       0.00000000      -0.97500000      -0.00000000      -0.00000000       0.00480381
Si       0.00000000       0.00000000       0.97500000       0.00000000       0.00000000      -0.00399194
H        0.00000000      -1.01976200      -1.36689700      -0.00000000      -0.00047701       0.00113056
H       -0.88314000       0.50988100      -1.36689700      -0.00041310       0.00023850       0.00113056
H        0.88314000       0.50988100      -1.36689700       0.00041310       0.00023850       0.00113056
H        0.00000000       1.39123400       1.49797900      -0.00000000       0.00003885      -0.00140118
H       -1.20484400      -0.69561700       1.49797900      -0.00003364      -0.00001942      -0.00140118
H        1.20484400      -0.69561700       1.49797900       0.00003364      -0.00001942      -0.00140118
