8
Properties=species:S:1:pos:R:3:forces:R:3 calculation_type=dimer_refinement calculation_label=CH3SiH3/refinement_41/point_019_distance_1.850000 d4_functional=HSE06 d4_method=hse06 d4_energy_eV=-0.07794998697624943 source_geometry=/mnt/ceph/users/cwoodson/dft_calc/diatomics/dimer_jobs/CH3SiH3/refinement_41/point_019_distance_1.850000/geometry.in energy=-0.07794998697624943 free_energy=-0.07794998697624943 pbc="F F F"
C        0.00000000       0.00000297      -0.92500000       0.00000000      -0.00000001       0.00523650
Si       0.00000000      -0.00000297       0.92500000       0.00000000      -0.00000001      -0.00421594
H       -0.00000100      -1.01749203      -1.31273400      -0.00000000      -0.00045991       0.00097668
H       -0.88117700       0.50875197      -1.31272400      -0.00039830       0.00022996       0.00097667
H        0.88117800       0.50874997      -1.31272400       0.00039830       0.00022996       0.00097667
H       -0.00000100       1.38371103       1.44640200       0.00000000      -0.00011307      -0.00131685
H       -1.19833100      -0.69185297       1.44641500       0.00009793       0.00005654      -0.00131687
H        1.19833200      -0.69185097       1.44641500      -0.00009793       0.00005654      -0.00131687
