8
Properties=species:S:1:pos:R:3:forces:R:3 calculation_type=dimer_refinement calculation_label=CH3SiH3/refinement_41/point_001_distance_1.670000 d4_functional=HSE06 d4_method=hse06 d4_energy_eV=-0.07931478239460431 source_geometry=/mnt/ceph/users/cwoodson/dft_calc/diatomics/dimer_jobs/CH3SiH3/refinement_41/point_001_distance_1.670000/geometry.in energy=-0.07931478239460431 free_energy=-0.07931478239460431 pbc="F F F"
C        0.00000000       0.00000268      -0.83500000       0.00000000      -0.00000002       0.00506295
Si       0.00000000      -0.00000268       0.83500000       0.00000000      -0.00000001      -0.00366255
H       -0.00000100      -1.01749232      -1.22273400      -0.00000000      -0.00058748       0.00056869
H       -0.88117700       0.50875168      -1.22272400      -0.00050878       0.00029375       0.00056867
H        0.88117800       0.50874968      -1.22272400       0.00050878       0.00029374       0.00056867
H       -0.00000100       1.38371132       1.35640200       0.00000000      -0.00007232      -0.00103546
H       -1.19833100      -0.69185268       1.35641500       0.00006264       0.00003617      -0.00103548
H        1.19833200      -0.69185068       1.35641500      -0.00006264       0.00003617      -0.00103548
