8
Properties=species:S:1:pos:R:3:forces:R:3 calculation_type=dimer_refinement calculation_label=CH3SiH3/refinement_41/point_033_distance_1.990000 d4_functional=HSE06 d4_method=hse06 d4_energy_eV=-0.07680239574218527 source_geometry=/mnt/ceph/users/cwoodson/dft_calc/diatomics/dimer_jobs/CH3SiH3/refinement_41/point_033_distance_1.990000/geometry.in energy=-0.07680239574218527 free_energy=-0.07680239574218527 pbc="F F F"
C        0.00000000       0.00000320      -0.99500000       0.00000000      -0.00000001       0.00431723
Si      -0.00000000      -0.00000320       0.99500000       0.00000000      -0.00000001      -0.00344696
H       -0.00000100      -1.01749180      -1.38273400      -0.00000000      -0.00047366       0.00118627
H       -0.88117700       0.50875220      -1.38272400      -0.00041019       0.00023683       0.00118627
H        0.88117800       0.50875020      -1.38272400       0.00041019       0.00023683       0.00118627
H       -0.00000100       1.38371080       1.51640200       0.00000000      -0.00003519      -0.00147635
H       -1.19833100      -0.69185320       1.51641500       0.00003048       0.00001761      -0.00147636
H        1.19833200      -0.69185120       1.51641500      -0.00003049       0.00001761      -0.00147636
