8
Properties=species:S:1:pos:R:3:forces:R:3 calculation_type=dimer_refinement calculation_label=CH3SiH3/refinement_100/point_002_distance_1.40 d4_functional=HSE06 d4_method=hse06 d4_energy_eV=-0.08053196658663572 source_geometry=/mnt/ceph/users/cwoodson/dft_calc/diatomics/dimer_jobs/CH3SiH3/refinement_100/point_002_distance_1.40/geometry.in energy=-0.08053196658663572 free_energy=-0.08053196658663572 pbc="F F F"
C        0.00000000       0.00000000      -0.70000000       0.00000000      -0.00000000       0.00448090
Si       0.00000000       0.00000000       0.70000000      -0.00000000       0.00000000       0.00014370
H        0.00000000      -1.01976200      -1.09189700      -0.00000000      -0.00129858      -0.00086230
H       -0.88314000       0.50988100      -1.09189700      -0.00112460       0.00064929      -0.00086230
H        0.88314000       0.50988100      -1.09189700       0.00112460       0.00064929      -0.00086230
H        0.00000000       1.39123400       1.22297900       0.00000000      -0.00017020      -0.00067923
H       -1.20484400      -0.69561700       1.22297900       0.00014739       0.00008510      -0.00067923
H        1.20484400      -0.69561700       1.22297900      -0.00014739       0.00008510      -0.00067923
