8
Properties=species:S:1:pos:R:3:forces:R:3 calculation_type=dimer_refinement calculation_label=CH3SiH3/refinement_41/point_006_distance_1.720000 d4_functional=HSE06 d4_method=hse06 d4_energy_eV=-0.07896257264765058 source_geometry=/mnt/ceph/users/cwoodson/dft_calc/diatomics/dimer_jobs/CH3SiH3/refinement_41/point_006_distance_1.720000/geometry.in energy=-0.07896257264765058 free_energy=-0.07896257264765058 pbc="F F F"
C        0.00000000       0.00000276      -0.86000000       0.00000000      -0.00000002       0.00516071
Si       0.00000000      -0.00000276       0.86000000       0.00000000      -0.00000001      -0.00395300
H       -0.00000100      -1.01749224      -1.24773400      -0.00000000      -0.00053337       0.00071235
H       -0.88117700       0.50875176      -1.24772400      -0.00046191       0.00026669       0.00071234
H        0.88117800       0.50874976      -1.24772400       0.00046191       0.00026668       0.00071234
H       -0.00000100       1.38371124       1.38140200       0.00000000      -0.00008313      -0.00111490
H       -1.19833100      -0.69185276       1.38141500       0.00007200       0.00004157      -0.00111492
H        1.19833200      -0.69185076       1.38141500      -0.00007200       0.00004157      -0.00111492
