8
Properties=species:S:1:pos:R:3:forces:R:3 calculation_type=dimer_refinement calculation_label=CH3SiH3/refinement_100/point_016_distance_1.54 d4_functional=HSE06 d4_method=hse06 d4_energy_eV=-0.08007020632940372 source_geometry=/mnt/ceph/users/cwoodson/dft_calc/diatomics/dimer_jobs/CH3SiH3/refinement_100/point_016_distance_1.54/geometry.in energy=-0.08007020632940372 free_energy=-0.08007020632940372 pbc="F F F"
C        0.00000000       0.00000000      -0.77000000      -0.00000000      -0.00000000       0.00480544
Si       0.00000000       0.00000000       0.77000000       0.00000000       0.00000000      -0.00224056
H        0.00000000      -1.01976200      -1.16189700       0.00000000      -0.00086991      -0.00002386
H       -0.88314000       0.50988100      -1.16189700      -0.00075336       0.00043495      -0.00002386
H        0.88314000       0.50988100      -1.16189700       0.00075336       0.00043495      -0.00002386
H        0.00000000       1.39123400       1.29297900      -0.00000000      -0.00002923      -0.00083109
H       -1.20484400      -0.69561700       1.29297900       0.00002532       0.00001462      -0.00083109
H        1.20484400      -0.69561700       1.29297900      -0.00002532       0.00001462      -0.00083109
