8
Properties=species:S:1:pos:R:3:forces:R:3 calculation_type=dimer_refinement calculation_label=CH3SiH3/refinement_41/point_015_distance_1.810000 d4_functional=HSE06 d4_method=hse06 d4_energy_eV=-0.07827301183506559 source_geometry=/mnt/ceph/users/cwoodson/dft_calc/diatomics/dimer_jobs/CH3SiH3/refinement_41/point_015_distance_1.810000/geometry.in energy=-0.07827301183506559 free_energy=-0.07827301183506559 pbc="F F F"
C        0.00000000       0.00000291      -0.90500000       0.00000000      -0.00000002       0.00525704
Si       0.00000000      -0.00000291       0.90500000       0.00000000      -0.00000001      -0.00420056
H       -0.00000100      -1.01749209      -1.29273400      -0.00000000      -0.00047498       0.00090518
H       -0.88117700       0.50875191      -1.29272400      -0.00041134       0.00023749       0.00090517
H        0.88117800       0.50874991      -1.29272400       0.00041134       0.00023749       0.00090517
H       -0.00000100       1.38371109       1.42640200       0.00000000      -0.00010771      -0.00125732
H       -1.19833100      -0.69185291       1.42641500       0.00009329       0.00005387      -0.00125734
H        1.19833200      -0.69185091       1.42641500      -0.00009329       0.00005387      -0.00125734
