8
Properties=species:S:1:pos:R:3:forces:R:3 calculation_type=dimer_refinement calculation_label=CH3SiH3/refinement_100/point_052_distance_1.90 d4_functional=HSE06 d4_method=hse06 d4_energy_eV=-0.07752024078282053 source_geometry=/mnt/ceph/users/cwoodson/dft_calc/diatomics/dimer_jobs/CH3SiH3/refinement_100/point_052_distance_1.90/geometry.in energy=-0.07752024078282053 free_energy=-0.07752024078282053 pbc="F F F"
C        0.00000000       0.00000000      -0.95000000       0.00000000      -0.00000000       0.00513205
Si       0.00000000       0.00000000       0.95000000      -0.00000000       0.00000000      -0.00426122
H        0.00000000      -1.01976200      -1.34189700      -0.00000000      -0.00047003       0.00105743
H       -0.88314000       0.50988100      -1.34189700      -0.00040706       0.00023502       0.00105743
H        0.88314000       0.50988100      -1.34189700       0.00040706       0.00023502       0.00105743
H        0.00000000       1.39123400       1.47297900      -0.00000000       0.00000408      -0.00134771
H       -1.20484400      -0.69561700       1.47297900      -0.00000353      -0.00000204      -0.00134771
H        1.20484400      -0.69561700       1.47297900       0.00000353      -0.00000204      -0.00134771
