8
Properties=species:S:1:pos:R:3:forces:R:3 calculation_type=dimer_refinement calculation_label=CH3SiH3/refinement_100/point_082_distance_2.20 d4_functional=HSE06 d4_method=hse06 d4_energy_eV=-0.07622741338054596 source_geometry=/mnt/ceph/users/cwoodson/dft_calc/diatomics/dimer_jobs/CH3SiH3/refinement_100/point_082_distance_2.20/geometry.in energy=-0.07622741338054596 free_energy=-0.07622741338054596 pbc="F F F"
C        0.00000000       0.00000000      -1.10000000      -0.00000000      -0.00000000      -0.01337342
Si       0.00000000       0.00000000       1.10000000      -0.00000000       0.00000000       0.01265202
H        0.00000000      -1.01976200      -1.49189700       0.00000000      -0.00125627       0.00119695
H       -0.88314000       0.50988100      -1.49189700      -0.00108797       0.00062814       0.00119695
H        0.88314000       0.50988100      -1.49189700       0.00108797       0.00062814       0.00119695
H        0.00000000       1.39123400       1.62297900       0.00000000       0.00200824      -0.00095649
H       -1.20484400      -0.69561700       1.62297900      -0.00173919      -0.00100412      -0.00095649
H        1.20484400      -0.69561700       1.62297900       0.00173919      -0.00100412      -0.00095649
