8
Properties=species:S:1:pos:R:3:forces:R:3 calculation_type=dimer_refinement calculation_label=CH3SiH3/refinement_41/point_040_distance_2.060000 d4_functional=HSE06 d4_method=hse06 d4_energy_eV=-0.07629660786192784 source_geometry=/mnt/ceph/users/cwoodson/dft_calc/diatomics/dimer_jobs/CH3SiH3/refinement_41/point_040_distance_2.060000/geometry.in energy=-0.07629660786192784 free_energy=-0.07629660786192784 pbc="F F F"
C        0.00000000       0.00000331      -1.03000000       0.00000000       0.00000001       0.00251227
Si      -0.00000000      -0.00000331       1.03000000       0.00000000      -0.00000002      -0.00179519
H       -0.00000100      -1.01749169      -1.41773400      -0.00000000      -0.00056142       0.00125603
H       -0.88117700       0.50875231      -1.41772400      -0.00048620       0.00028071       0.00125603
H        0.88117800       0.50875031      -1.41772400       0.00048620       0.00028070       0.00125603
H       -0.00000100       1.38371069       1.55140200      -0.00000000       0.00014291      -0.00149505
H       -1.19833100      -0.69185331       1.55141500      -0.00012376      -0.00007144      -0.00149506
H        1.19833200      -0.69185131       1.55141500       0.00012376      -0.00007144      -0.00149506
