8
Properties=species:S:1:pos:R:3:forces:R:3 calculation_type=dimer_refinement calculation_label=CH3SiH3/refinement_100/point_004_distance_1.42 d4_functional=HSE06 d4_method=hse06 d4_energy_eV=-0.08049015680199534 source_geometry=/mnt/ceph/users/cwoodson/dft_calc/diatomics/dimer_jobs/CH3SiH3/refinement_100/point_004_distance_1.42/geometry.in energy=-0.08049015680199534 free_energy=-0.08049015680199534 pbc="F F F"
C        0.00000000       0.00000000      -0.71000000       0.00000000      -0.00000000       0.00452504
Si       0.00000000       0.00000000       0.71000000      -0.00000000       0.00000000      -0.00017193
H        0.00000000      -1.01976200      -1.10189700       0.00000000      -0.00123603      -0.00074612
H       -0.88314000       0.50988100      -1.10189700      -0.00107043       0.00061801      -0.00074612
H        0.88314000       0.50988100      -1.10189700       0.00107043       0.00061801      -0.00074612
H        0.00000000       1.39123400       1.23297900       0.00000000      -0.00016275      -0.00070492
H       -1.20484400      -0.69561700       1.23297900       0.00014094       0.00008137      -0.00070492
H        1.20484400      -0.69561700       1.23297900      -0.00014094       0.00008137      -0.00070492
