8
Properties=species:S:1:pos:R:3:forces:R:3 calculation_type=dimer_refinement calculation_label=CH3SiH3/refinement_41/point_028_distance_1.940000 d4_functional=HSE06 d4_method=hse06 d4_energy_eV=-0.07720698458193606 source_geometry=/mnt/ceph/users/cwoodson/dft_calc/diatomics/dimer_jobs/CH3SiH3/refinement_41/point_028_distance_1.940000/geometry.in energy=-0.07720698458193606 free_energy=-0.07720698458193606 pbc="F F F"
C        0.00000000       0.00000312      -0.97000000       0.00000000      -0.00000001       0.00487968
Si      -0.00000000      -0.00000312       0.97000000       0.00000000      -0.00000001      -0.00394193
H       -0.00000100      -1.01749188      -1.35773400      -0.00000000      -0.00045261       0.00111918
H       -0.88117700       0.50875212      -1.35772400      -0.00039197       0.00022630       0.00111918
H        0.88117800       0.50875012      -1.35772400       0.00039197       0.00022630       0.00111918
H       -0.00000100       1.38371088       1.49140200       0.00000000      -0.00008911      -0.00143175
H       -1.19833100      -0.69185312       1.49141500       0.00007718       0.00004456      -0.00143177
H        1.19833200      -0.69185112       1.49141500      -0.00007718       0.00004456      -0.00143177
