8
Properties=species:S:1:pos:R:3:forces:R:3 calculation_type=dimer_refinement calculation_label=CH3SiH3/refinement_100/point_085_distance_2.23 d4_functional=HSE06 d4_method=hse06 d4_energy_eV=-0.07663026312520325 source_geometry=/mnt/ceph/users/cwoodson/dft_calc/diatomics/dimer_jobs/CH3SiH3/refinement_100/point_085_distance_2.23/geometry.in energy=-0.07663026312520325 free_energy=-0.07663026312520325 pbc="F F F"
C        0.00000000       0.00000000      -1.11500000      -0.00000000      -0.00000000      -0.02080694
Si       0.00000000       0.00000000       1.11500000       0.00000000       0.00000000       0.01931031
H        0.00000000      -1.01976200      -1.50689700       0.00000000      -0.00145262       0.00116754
H       -0.88314000       0.50988100      -1.50689700      -0.00125801       0.00072631       0.00116754
H        0.88314000       0.50988100      -1.50689700       0.00125801       0.00072631       0.00116754
H        0.00000000       1.39123400       1.63797900      -0.00000000       0.00286976      -0.00066866
H       -1.20484400      -0.69561700       1.63797900      -0.00248529      -0.00143488      -0.00066866
H        1.20484400      -0.69561700       1.63797900       0.00248529      -0.00143488      -0.00066866
