8
Properties=species:S:1:pos:R:3:forces:R:3 calculation_type=dimer_refinement calculation_label=CH3SiH3/refinement_100/point_070_distance_2.08 d4_functional=HSE06 d4_method=hse06 d4_energy_eV=-0.07616811697733936 source_geometry=/mnt/ceph/users/cwoodson/dft_calc/diatomics/dimer_jobs/CH3SiH3/refinement_100/point_070_distance_2.08/geometry.in energy=-0.07616811697733936 free_energy=-0.07616811697733936 pbc="F F F"
C        0.00000000       0.00000000      -1.04000000      -0.00000000      -0.00000000       0.00149815
Si       0.00000000       0.00000000       1.04000000      -0.00000000       0.00000000      -0.00101132
H        0.00000000      -1.01976200      -1.43189700       0.00000000      -0.00064505       0.00125722
H       -0.88314000       0.50988100      -1.43189700      -0.00055863       0.00032253       0.00125722
H        0.88314000       0.50988100      -1.43189700       0.00055863       0.00032253       0.00125722
H        0.00000000       1.39123400       1.56297900      -0.00000000       0.00041308      -0.00141950
H       -1.20484400      -0.69561700       1.56297900      -0.00035774      -0.00020654      -0.00141950
H        1.20484400      -0.69561700       1.56297900       0.00035774      -0.00020654      -0.00141950
