8
Properties=species:S:1:pos:R:3:forces:R:3 calculation_type=dimer_refinement calculation_label=CH3SiH3/refinement_41/point_018_distance_1.840000 d4_functional=HSE06 d4_method=hse06 d4_energy_eV=-0.07803144881851992 source_geometry=/mnt/ceph/users/cwoodson/dft_calc/diatomics/dimer_jobs/CH3SiH3/refinement_41/point_018_distance_1.840000/geometry.in energy=-0.07803144881851992 free_energy=-0.07803144881851992 pbc="F F F"
C        0.00000000       0.00000296      -0.92000000       0.00000000      -0.00000001       0.00524701
Si       0.00000000      -0.00000296       0.92000000       0.00000000      -0.00000001      -0.00421802
H       -0.00000100      -1.01749204      -1.30773400      -0.00000000      -0.00046310       0.00095934
H       -0.88117700       0.50875196      -1.30772400      -0.00040106       0.00023155       0.00095933
H        0.88117800       0.50874996      -1.30772400       0.00040106       0.00023155       0.00095933
H       -0.00000100       1.38371104       1.44140200       0.00000000      -0.00011234      -0.00130232
H       -1.19833100      -0.69185296       1.44141500       0.00009730       0.00005618      -0.00130234
H        1.19833200      -0.69185096       1.44141500      -0.00009730       0.00005618      -0.00130234
