8
Properties=species:S:1:pos:R:3:forces:R:3 calculation_type=dimer_refinement calculation_label=CH3SiH3/refinement_100/point_074_distance_2.12 d4_functional=HSE06 d4_method=hse06 d4_energy_eV=-0.07600817239000386 source_geometry=/mnt/ceph/users/cwoodson/dft_calc/diatomics/dimer_jobs/CH3SiH3/refinement_100/point_074_distance_2.12/geometry.in energy=-0.07600817239000386 free_energy=-0.07600817239000386 pbc="F F F"
C        0.00000000       0.00000000      -1.06000000      -0.00000000      -0.00000000      -0.00131358
Si       0.00000000       0.00000000       1.06000000      -0.00000000       0.00000000       0.00158116
H        0.00000000      -1.01976200      -1.45189700       0.00000000      -0.00078397       0.00126157
H       -0.88314000       0.50988100      -1.45189700      -0.00067894       0.00039199       0.00126157
H        0.88314000       0.50988100      -1.45189700       0.00067894       0.00039199       0.00126157
H        0.00000000       1.39123400       1.58297900       0.00000000       0.00071693      -0.00135077
H       -1.20484400      -0.69561700       1.58297900      -0.00062088      -0.00035846      -0.00135077
H        1.20484400      -0.69561700       1.58297900       0.00062088      -0.00035846      -0.00135077
