8
Properties=species:S:1:pos:R:3:forces:R:3 calculation_type=dimer_refinement calculation_label=CH3SiH3/refinement_100/point_008_distance_1.46 d4_functional=HSE06 d4_method=hse06 d4_energy_eV=-0.08038287216556629 source_geometry=/mnt/ceph/users/cwoodson/dft_calc/diatomics/dimer_jobs/CH3SiH3/refinement_100/point_008_distance_1.46/geometry.in energy=-0.08038287216556629 free_energy=-0.08038287216556629 pbc="F F F"
C        0.00000000       0.00000000      -0.73000000       0.00000000      -0.00000000       0.00461627
Si       0.00000000       0.00000000       0.73000000       0.00000000       0.00000000      -0.00083310
H        0.00000000      -1.01976200      -1.12189700       0.00000000      -0.00111323      -0.00051139
H       -0.88314000       0.50988100      -1.12189700      -0.00096409       0.00055661      -0.00051139
H        0.88314000       0.50988100      -1.12189700       0.00096409       0.00055661      -0.00051139
H        0.00000000       1.39123400       1.25297900      -0.00000000      -0.00012772      -0.00074966
H       -1.20484400      -0.69561700       1.25297900       0.00011061       0.00006386      -0.00074966
H        1.20484400      -0.69561700       1.25297900      -0.00011061       0.00006386      -0.00074966
