8
Properties=species:S:1:pos:R:3:forces:R:3 calculation_type=dimer_refinement calculation_label=CH3SiH3/refinement_100/point_005_distance_1.43 d4_functional=HSE06 d4_method=hse06 d4_energy_eV=-0.08046630783117967 source_geometry=/mnt/ceph/users/cwoodson/dft_calc/diatomics/dimer_jobs/CH3SiH3/refinement_100/point_005_distance_1.43/geometry.in energy=-0.08046630783117967 free_energy=-0.08046630783117967 pbc="F F F"
C        0.00000000       0.00000000      -0.71500000      -0.00000000      -0.00000000       0.00454751
Si       0.00000000       0.00000000       0.71500000      -0.00000000       0.00000000      -0.00033267
H        0.00000000      -1.01976200      -1.10689700       0.00000000      -0.00120527      -0.00068809
H       -0.88314000       0.50988100      -1.10689700      -0.00104379       0.00060263      -0.00068809
H        0.88314000       0.50988100      -1.10689700       0.00104379       0.00060263      -0.00068809
H        0.00000000       1.39123400       1.23797900       0.00000000      -0.00015627      -0.00071685
H       -1.20484400      -0.69561700       1.23797900       0.00013533       0.00007814      -0.00071685
H        1.20484400      -0.69561700       1.23797900      -0.00013533       0.00007814      -0.00071685
