8
Properties=species:S:1:pos:R:3:forces:R:3 calculation_type=dimer_refinement calculation_label=CH3SiH3/refinement_100/point_045_distance_1.83 d4_functional=HSE06 d4_method=hse06 d4_energy_eV=-0.07809659435194881 source_geometry=/mnt/ceph/users/cwoodson/dft_calc/diatomics/dimer_jobs/CH3SiH3/refinement_100/point_045_distance_1.83/geometry.in energy=-0.07809659435194881 free_energy=-0.07809659435194881 pbc="F F F"
C        0.00000000       0.00000000      -0.91500000      -0.00000000      -0.00000000       0.00528734
Si       0.00000000       0.00000000       0.91500000       0.00000000       0.00000000      -0.00435226
H        0.00000000      -1.01976200      -1.30689700       0.00000000      -0.00048427       0.00094181
H       -0.88314000       0.50988100      -1.30689700      -0.00041939       0.00024214       0.00094181
H        0.88314000       0.50988100      -1.30689700       0.00041939       0.00024214       0.00094181
H        0.00000000       1.39123400       1.43797900       0.00000000      -0.00000494      -0.00125350
H       -1.20484400      -0.69561700       1.43797900       0.00000427       0.00000247      -0.00125350
H        1.20484400      -0.69561700       1.43797900      -0.00000427       0.00000247      -0.00125350
