8
Properties=species:S:1:pos:R:3:forces:R:3 calculation_type=dimer_refinement calculation_label=CH3SiH3/refinement_100/point_069_distance_2.07 d4_functional=HSE06 d4_method=hse06 d4_energy_eV=-0.0762233068679532 source_geometry=/mnt/ceph/users/cwoodson/dft_calc/diatomics/dimer_jobs/CH3SiH3/refinement_100/point_069_distance_2.07/geometry.in energy=-0.0762233068679532 free_energy=-0.0762233068679532 pbc="F F F"
C        0.00000000       0.00000000      -1.03500000       0.00000000      -0.00000000       0.00199843
Si       0.00000000       0.00000000       1.03500000       0.00000000       0.00000000      -0.00147038
H        0.00000000      -1.01976200      -1.42689700       0.00000000      -0.00061913       0.00125270
H       -0.88314000       0.50988100      -1.42689700      -0.00053618       0.00030956       0.00125270
H        0.88314000       0.50988100      -1.42689700       0.00053618       0.00030956       0.00125270
H        0.00000000       1.39123400       1.55797900       0.00000000       0.00035782      -0.00142871
H       -1.20484400      -0.69561700       1.55797900      -0.00030988      -0.00017891      -0.00142871
H        1.20484400      -0.69561700       1.55797900       0.00030988      -0.00017891      -0.00142871
