8
Properties=species:S:1:pos:R:3:forces:R:3 calculation_type=dimer_refinement calculation_label=CH3SiH3/refinement_100/point_088_distance_2.26 d4_functional=HSE06 d4_method=hse06 d4_energy_eV=-0.07727387208384126 source_geometry=/mnt/ceph/users/cwoodson/dft_calc/diatomics/dimer_jobs/CH3SiH3/refinement_100/point_088_distance_2.26/geometry.in energy=-0.07727387208384126 free_energy=-0.07727387208384126 pbc="F F F"
C        0.00000000       0.00000000      -1.13000000      -0.00000000      -0.00000000      -0.02912529
Si       0.00000000       0.00000000       1.13000000       0.00000000       0.00000000       0.02648833
H        0.00000000      -1.01976200      -1.52189700       0.00000000      -0.00156726       0.00117222
H       -0.88314000       0.50988100      -1.52189700      -0.00135729       0.00078363       0.00117221
H        0.88314000       0.50988100      -1.52189700       0.00135729       0.00078363       0.00117221
H        0.00000000       1.39123400       1.65297900      -0.00000000       0.00396786      -0.00029323
H       -1.20484400      -0.69561700       1.65297900      -0.00343627      -0.00198393      -0.00029323
H        1.20484400      -0.69561700       1.65297900       0.00343627      -0.00198393      -0.00029323
