8
Properties=species:S:1:pos:R:3:forces:R:3 calculation_type=dimer_refinement calculation_label=CH3SiH3/refinement_100/point_022_distance_1.60 d4_functional=HSE06 d4_method=hse06 d4_energy_eV=-0.07975179833587892 source_geometry=/mnt/ceph/users/cwoodson/dft_calc/diatomics/dimer_jobs/CH3SiH3/refinement_100/point_022_distance_1.60/geometry.in energy=-0.07975179833587892 free_energy=-0.07975179833587892 pbc="F F F"
C        0.00000000       0.00000000      -0.80000000      -0.00000000      -0.00000000       0.00494778
Si       0.00000000       0.00000000       0.80000000      -0.00000000       0.00000000      -0.00313195
H        0.00000000      -1.01976200      -1.19189700       0.00000000      -0.00071910       0.00029851
H       -0.88314000       0.50988100      -1.19189700      -0.00062276       0.00035955       0.00029851
H        0.88314000       0.50988100      -1.19189700       0.00062276       0.00035955       0.00029851
H        0.00000000       1.39123400       1.32297900       0.00000000       0.00001726      -0.00090379
H       -1.20484400      -0.69561700       1.32297900      -0.00001494      -0.00000863      -0.00090379
H        1.20484400      -0.69561700       1.32297900       0.00001494      -0.00000863      -0.00090379
