8
Properties=species:S:1:pos:R:3:forces:R:3 calculation_type=dimer_refinement calculation_label=CH3SiH3/refinement_41/point_031_distance_1.970000 d4_functional=HSE06 d4_method=hse06 d4_energy_eV=-0.0769620103786033 source_geometry=/mnt/ceph/users/cwoodson/dft_calc/diatomics/dimer_jobs/CH3SiH3/refinement_41/point_031_distance_1.970000/geometry.in energy=-0.0769620103786033 free_energy=-0.0769620103786033 pbc="F F F"
C        0.00000000       0.00000316      -0.98500000       0.00000000      -0.00000001       0.00458984
Si      -0.00000000      -0.00000316       0.98500000       0.00000000      -0.00000001      -0.00368965
H       -0.00000100      -1.01749184      -1.37273400      -0.00000000      -0.00046222       0.00116074
H       -0.88117700       0.50875216      -1.37272400      -0.00040029       0.00023111       0.00116074
H        0.88117800       0.50875016      -1.37272400       0.00040029       0.00023111       0.00116074
H       -0.00000100       1.38371084       1.50640200       0.00000000      -0.00006185      -0.00146079
H       -1.19833100      -0.69185316       1.50641500       0.00005357       0.00003093      -0.00146081
H        1.19833200      -0.69185116       1.50641500      -0.00005357       0.00003093      -0.00146081
