8
Properties=species:S:1:pos:R:3:forces:R:3 calculation_type=dimer_refinement calculation_label=CH3SiH3/refinement_100/point_081_distance_2.19 d4_functional=HSE06 d4_method=hse06 d4_energy_eV=-0.07614056265368102 source_geometry=/mnt/ceph/users/cwoodson/dft_calc/diatomics/dimer_jobs/CH3SiH3/refinement_100/point_081_distance_2.19/geometry.in energy=-0.07614056265368102 free_energy=-0.07614056265368102 pbc="F F F"
C        0.00000000       0.00000000      -1.09500000       0.00000000      -0.00000000      -0.01124580
Si       0.00000000       0.00000000       1.09500000      -0.00000000       0.00000000       0.01071721
H        0.00000000      -1.01976200      -1.48689700      -0.00000000      -0.00118654       0.00120881
H       -0.88314000       0.50988100      -1.48689700      -0.00102757       0.00059327       0.00120881
H        0.88314000       0.50988100      -1.48689700       0.00102757       0.00059327       0.00120881
H        0.00000000       1.39123400       1.61797900      -0.00000000       0.00177462      -0.00103261
H       -1.20484400      -0.69561700       1.61797900      -0.00153687      -0.00088731      -0.00103261
H        1.20484400      -0.69561700       1.61797900       0.00153687      -0.00088731      -0.00103261
