2
Properties=species:S:1:pos:R:3:forces:R:3 calculation_type=dimer_refinement calculation_label=LiCl/refinement_100/point_033_distance_1.84 d4_functional=HSE06 d4_method=hse06 d4_energy_eV=-0.010113771414095862 source_geometry=/mnt/ceph/users/cwoodson/dft_calc/diatomics/dimer_jobs/LiCl/refinement_100/point_033_distance_1.84/geometry.in energy=-0.010113771414095862 free_energy=-0.010113771414095862 pbc="F F F"
Li       0.00000000       0.00000000      -0.92000000      -0.00000000      -0.00000000      -0.00006181
Cl       0.00000000       0.00000000       0.92000000      -0.00000000      -0.00000000       0.00006181
