2
Properties=species:S:1:pos:R:3:forces:R:3 calculation_type=dimer_refinement calculation_label=LiCl/refinement_41/point_030_distance_2.110000 d4_functional=HSE06 d4_method=hse06 d4_energy_eV=-0.010123679126705849 source_geometry=/mnt/ceph/users/cwoodson/dft_calc/diatomics/dimer_jobs/LiCl/refinement_41/point_030_distance_2.110000/geometry.in energy=-0.010123679126705849 free_energy=-0.010123679126705849 pbc="F F F"
Li       0.00000000       0.00000000      -1.05500000      -0.00000000      -0.00000000      -0.00010251
Cl       0.00000000       0.00000000       1.05500000      -0.00000000      -0.00000000       0.00010251
