2
Properties=species:S:1:pos:R:3:forces:R:3 calculation_type=dimer_refinement calculation_label=LiCl/refinement_41/point_038_distance_2.190000 d4_functional=HSE06 d4_method=hse06 d4_energy_eV=-0.010139916480346345 source_geometry=/mnt/ceph/users/cwoodson/dft_calc/diatomics/dimer_jobs/LiCl/refinement_41/point_038_distance_2.190000/geometry.in energy=-0.010139916480346345 free_energy=-0.010139916480346345 pbc="F F F"
Li       0.00000000       0.00000000      -1.09500000      -0.00000000      -0.00000000      -0.00033946
Cl       0.00000000       0.00000000       1.09500000      -0.00000000      -0.00000000       0.00033946
