2
Properties=species:S:1:pos:R:3:forces:R:3 calculation_type=dimer_refinement calculation_label=LiCl/refinement_100/point_069_distance_2.20 d4_functional=HSE06 d4_method=hse06 d4_energy_eV=-0.010143542363219 source_geometry=/mnt/ceph/users/cwoodson/dft_calc/diatomics/dimer_jobs/LiCl/refinement_100/point_069_distance_2.20/geometry.in energy=-0.010143542363219 free_energy=-0.010143542363219 pbc="F F F"
Li       0.00000000       0.00000000      -1.10000000      -0.00000000      -0.00000000      -0.00038652
Cl       0.00000000       0.00000000       1.10000000      -0.00000000      -0.00000000       0.00038652
