2
Properties=species:S:1:pos:R:3:forces:R:3 calculation_type=dimer_refinement calculation_label=LiF/refinement_41/point_023_distance_1.580000 d4_functional=HSE06 d4_method=hse06 d4_energy_eV=-0.005167041373420943 source_geometry=/mnt/ceph/users/cwoodson/dft_calc/diatomics/dimer_jobs/LiF/refinement_41/point_023_distance_1.580000/geometry.in energy=-0.005167041373420943 free_energy=-0.005167041373420943 pbc="F F F"
Li       0.00000000       0.00000000      -0.79000000      -0.00000000      -0.00000000       0.00026630
F        0.00000000       0.00000000       0.79000000      -0.00000000      -0.00000000      -0.00026630
