2
Properties=species:S:1:pos:R:3:forces:R:3 calculation_type=dimer_refinement calculation_label=LiF/refinement_41/point_012_distance_1.470000 d4_functional=HSE06 d4_method=hse06 d4_energy_eV=-0.005198377459305963 source_geometry=/mnt/ceph/users/cwoodson/dft_calc/diatomics/dimer_jobs/LiF/refinement_41/point_012_distance_1.470000/geometry.in energy=-0.005198377459305963 free_energy=-0.005198377459305963 pbc="F F F"
Li       0.00000000       0.00000000      -0.73500000      -0.00000000      -0.00000000       0.00030188
F        0.00000000       0.00000000       0.73500000      -0.00000000      -0.00000000      -0.00030188
