2
Properties=species:S:1:pos:R:3:forces:R:3 calculation_type=dimer_refinement calculation_label=LiF/refinement_41/point_025_distance_1.600000 d4_functional=HSE06 d4_method=hse06 d4_energy_eV=-0.0051617981838588504 source_geometry=/mnt/ceph/users/cwoodson/dft_calc/diatomics/dimer_jobs/LiF/refinement_41/point_025_distance_1.600000/geometry.in energy=-0.0051617981838588504 free_energy=-0.0051617981838588504 pbc="F F F"
Li       0.00000000       0.00000000      -0.80000000      -0.00000000      -0.00000000       0.00025781
F        0.00000000       0.00000000       0.80000000      -0.00000000      -0.00000000      -0.00025781
