2
Properties=species:S:1:pos:R:3:forces:R:3 calculation_type=dimer_refinement calculation_label=LiF/refinement_100/point_063_distance_1.68 d4_functional=HSE06 d4_method=hse06 d4_energy_eV=-0.005143077844854093 source_geometry=/mnt/ceph/users/cwoodson/dft_calc/diatomics/dimer_jobs/LiF/refinement_100/point_063_distance_1.68/geometry.in energy=-0.005143077844854093 free_energy=-0.005143077844854093 pbc="F F F"
Li       0.00000000       0.00000000      -0.84000000      -0.00000000      -0.00000000       0.00020275
F        0.00000000       0.00000000       0.84000000      -0.00000000      -0.00000000      -0.00020275
