2
Properties=species:S:1:pos:R:3:forces:R:3 calculation_type=dimer_refinement calculation_label=LiF/refinement_100/point_008_distance_1.13 d4_functional=HSE06 d4_method=hse06 d4_energy_eV=-0.0053224730571753065 source_geometry=/mnt/ceph/users/cwoodson/dft_calc/diatomics/dimer_jobs/LiF/refinement_100/point_008_distance_1.13/geometry.in energy=-0.0053224730571753065 free_energy=-0.0053224730571753065 pbc="F F F"
Li       0.00000000       0.00000000      -0.56500000      -0.00000000      -0.00000000       0.00044226
F        0.00000000       0.00000000       0.56500000      -0.00000000      -0.00000000      -0.00044226
