2
Properties=species:S:1:pos:R:3:forces:R:3 calculation_type=dimer_refinement calculation_label=LiF/refinement_100/point_025_distance_1.30 d4_functional=HSE06 d4_method=hse06 d4_energy_eV=-0.005254473064687897 source_geometry=/mnt/ceph/users/cwoodson/dft_calc/diatomics/dimer_jobs/LiF/refinement_100/point_025_distance_1.30/geometry.in energy=-0.005254473064687897 free_energy=-0.005254473064687897 pbc="F F F"
Li       0.00000000       0.00000000      -0.65000000      -0.00000000      -0.00000000       0.00036130
F        0.00000000       0.00000000       0.65000000      -0.00000000      -0.00000000      -0.00036130
