2
Properties=species:S:1:pos:R:3:forces:R:3 calculation_type=dimer_refinement calculation_label=LiF/refinement_100/point_050_distance_1.55 d4_functional=HSE06 d4_method=hse06 d4_energy_eV=-0.005175197894949223 source_geometry=/mnt/ceph/users/cwoodson/dft_calc/diatomics/dimer_jobs/LiF/refinement_100/point_050_distance_1.55/geometry.in energy=-0.005175197894949223 free_energy=-0.005175197894949223 pbc="F F F"
Li       0.00000000       0.00000000      -0.77500000      -0.00000000      -0.00000000       0.00027718
F        0.00000000       0.00000000       0.77500000      -0.00000000      -0.00000000      -0.00027718
