2
Properties=species:S:1:pos:R:3:forces:R:3 calculation_type=dimer_refinement calculation_label=LiF/refinement_100/point_001_distance_1.06 d4_functional=HSE06 d4_method=hse06 d4_energy_eV=-0.0053547795623964225 source_geometry=/mnt/ceph/users/cwoodson/dft_calc/diatomics/dimer_jobs/LiF/refinement_100/point_001_distance_1.06/geometry.in energy=-0.0053547795623964225 free_energy=-0.0053547795623964225 pbc="F F F"
Li       0.00000000       0.00000000      -0.53000000      -0.00000000      -0.00000000       0.00048124
F        0.00000000       0.00000000       0.53000000      -0.00000000      -0.00000000      -0.00048124
