2
Properties=species:S:1:pos:R:3:forces:R:3 calculation_type=dimer_refinement calculation_label=MgO/refinement_41/point_038_distance_1.920000 d4_functional=HSE06 d4_method=hse06 d4_energy_eV=-0.01760630666480553 source_geometry=/mnt/ceph/users/cwoodson/dft_calc/diatomics/dimer_jobs/MgO/refinement_41/point_038_distance_1.920000/geometry.in energy=-0.01760630666480553 free_energy=-0.01760630666480553 pbc="F F F"
Mg       0.00000000       0.00000000      -0.96000000      -0.00000000      -0.00000000       0.00184961
O        0.00000000       0.00000000       0.96000000      -0.00000000      -0.00000000      -0.00184961
