2
Properties=species:S:1:pos:R:3:forces:R:3 calculation_type=dimer_refinement calculation_label=MgO/refinement_100/point_039_distance_1.63 d4_functional=HSE06 d4_method=hse06 d4_energy_eV=-0.01834041770508696 source_geometry=/mnt/ceph/users/cwoodson/dft_calc/diatomics/dimer_jobs/MgO/refinement_100/point_039_distance_1.63/geometry.in energy=-0.01834041770508696 free_energy=-0.01834041770508696 pbc="F F F"
Mg       0.00000000       0.00000000      -0.81500000      -0.00000000      -0.00000000       0.00325208
O        0.00000000       0.00000000       0.81500000      -0.00000000      -0.00000000      -0.00325208
