2
Properties=species:S:1:pos:R:3:forces:R:3 calculation_type=dimer_refinement calculation_label=MgO/refinement_41/point_012_distance_1.660000 d4_functional=HSE06 d4_method=hse06 d4_energy_eV=-0.018245492057162287 source_geometry=/mnt/ceph/users/cwoodson/dft_calc/diatomics/dimer_jobs/MgO/refinement_41/point_012_distance_1.660000/geometry.in energy=-0.018245492057162287 free_energy=-0.018245492057162287 pbc="F F F"
Mg       0.00000000       0.00000000      -0.83000000      -0.00000000      -0.00000000       0.00307873
O        0.00000000       0.00000000       0.83000000      -0.00000000      -0.00000000      -0.00307873
