2
Properties=species:S:1:pos:R:3:forces:R:3 calculation_type=dimer_refinement calculation_label=MgO/refinement_100/point_080_distance_2.04 d4_functional=HSE06 d4_method=hse06 d4_energy_eV=-0.017433311349883768 source_geometry=/mnt/ceph/users/cwoodson/dft_calc/diatomics/dimer_jobs/MgO/refinement_100/point_080_distance_2.04/geometry.in energy=-0.017433311349883768 free_energy=-0.017433311349883768 pbc="F F F"
Mg       0.00000000       0.00000000      -1.02000000      -0.00000000      -0.00000000       0.00092553
O        0.00000000       0.00000000       1.02000000      -0.00000000      -0.00000000      -0.00092553
