2
Properties=species:S:1:pos:R:3:forces:R:3 calculation_type=dimer_refinement calculation_label=MgO/refinement_100/point_011_distance_1.35 d4_functional=HSE06 d4_method=hse06 d4_energy_eV=-0.019573392786619705 source_geometry=/mnt/ceph/users/cwoodson/dft_calc/diatomics/dimer_jobs/MgO/refinement_100/point_011_distance_1.35/geometry.in energy=-0.019573392786619705 free_energy=-0.019573392786619705 pbc="F F F"
Mg       0.00000000       0.00000000      -0.67500000      -0.00000000      -0.00000000       0.00595707
O        0.00000000       0.00000000       0.67500000      -0.00000000      -0.00000000      -0.00595707
