5
Properties=species:S:1:pos:R:3:forces:R:3 calculation_type=dimer_refinement calculation_label=MgOH2/refinement_41/point_025_distance_1.810000 d4_functional=HSE06 d4_method=hse06 d4_energy_eV=-0.036026643215011846 source_geometry=/mnt/ceph/users/cwoodson/dft_calc/diatomics/dimer_jobs/MgOH2/refinement_41/point_025_distance_1.810000/geometry.in energy=-0.036026643215011846 free_energy=-0.036026643215011846 pbc="F F F"
Mg       0.00000000       0.00000000       0.00000000      -0.00000000       0.00000000      -0.00000000
O       -1.79187443       0.25551132       0.00000000       0.00710575      -0.00068141      -0.00000000
O        1.79187443      -0.25551132       0.00000000      -0.00710575       0.00068141      -0.00000000
H       -2.60827643       0.73535432       0.00000000       0.00098256      -0.00050498      -0.00000000
H        2.60827643      -0.73535432       0.00000000      -0.00098256       0.00050498      -0.00000000
