5
Properties=species:S:1:pos:R:3:forces:R:3 calculation_type=dimer_refinement calculation_label=MgOH2/refinement_41/point_026_distance_1.820000 d4_functional=HSE06 d4_method=hse06 d4_energy_eV=-0.03586442788737423 source_geometry=/mnt/ceph/users/cwoodson/dft_calc/diatomics/dimer_jobs/MgOH2/refinement_41/point_026_distance_1.820000/geometry.in energy=-0.03586442788737423 free_energy=-0.03586442788737423 pbc="F F F"
Mg       0.00000000       0.00000000       0.00000000       0.00000000      -0.00000000      -0.00000000
O       -1.80177429       0.25692299       0.00000000       0.00697447      -0.00068733      -0.00000000
O        1.80177429      -0.25692299       0.00000000      -0.00697447       0.00068733      -0.00000000
H       -2.61817629       0.73676599       0.00000000       0.00098387      -0.00048827      -0.00000000
H        2.61817629      -0.73676599       0.00000000      -0.00098387       0.00048827      -0.00000000
