5
Properties=species:S:1:pos:R:3:forces:R:3 calculation_type=dimer_refinement calculation_label=MgOH2/refinement_41/point_032_distance_1.880000 d4_functional=HSE06 d4_method=hse06 d4_energy_eV=-0.03495740401260118 source_geometry=/mnt/ceph/users/cwoodson/dft_calc/diatomics/dimer_jobs/MgOH2/refinement_41/point_032_distance_1.880000/geometry.in energy=-0.03495740401260118 free_energy=-0.03495740401260118 pbc="F F F"
Mg       0.00000000       0.00000000       0.00000000       0.00000000      -0.00000000      -0.00000000
O       -1.86117344       0.26539298       0.00000000       0.00600481      -0.00068137      -0.00000000
O        1.86117344      -0.26539298       0.00000000      -0.00600481       0.00068137      -0.00000000
H       -2.67757544       0.74523598       0.00000000       0.00091063      -0.00037501      -0.00000000
H        2.67757544      -0.74523598       0.00000000      -0.00091063       0.00037501      -0.00000000
