5
Properties=species:S:1:pos:R:3:forces:R:3 calculation_type=dimer_refinement calculation_label=MgOH2/refinement_41/point_031_distance_1.870000 d4_functional=HSE06 d4_method=hse06 d4_energy_eV=-0.03509940680954022 source_geometry=/mnt/ceph/users/cwoodson/dft_calc/diatomics/dimer_jobs/MgOH2/refinement_41/point_031_distance_1.870000/geometry.in energy=-0.03509940680954022 free_energy=-0.03509940680954022 pbc="F F F"
Mg       0.00000000       0.00000000       0.00000000       0.00000000       0.00000000      -0.00000000
O       -1.85127358       0.26398131       0.00000000       0.00619175      -0.00068775      -0.00000000
O        1.85127358      -0.26398131       0.00000000      -0.00619175       0.00068775      -0.00000000
H       -2.66767558       0.74382431       0.00000000       0.00092947      -0.00039460      -0.00000000
H        2.66767558      -0.74382431       0.00000000      -0.00092947       0.00039460      -0.00000000
