5
Properties=species:S:1:pos:R:3:forces:R:3 calculation_type=dimer_refinement calculation_label=MgOH2/refinement_41/point_029_distance_1.850000 d4_functional=HSE06 d4_method=hse06 d4_energy_eV=-0.03539518897111082 source_geometry=/mnt/ceph/users/cwoodson/dft_calc/diatomics/dimer_jobs/MgOH2/refinement_41/point_029_distance_1.850000/geometry.in energy=-0.03539518897111082 free_energy=-0.03539518897111082 pbc="F F F"
Mg       0.00000000       0.00000000       0.00000000       0.00000000      -0.00000000      -0.00000000
O       -1.83147386       0.26115798       0.00000000       0.00653284      -0.00069375      -0.00000000
O        1.83147386      -0.26115798       0.00000000      -0.00653284       0.00069375      -0.00000000
H       -2.64787586       0.74100098       0.00000000       0.00096083      -0.00043336      -0.00000000
H        2.64787586      -0.74100098       0.00000000      -0.00096083       0.00043336      -0.00000000
