5
Properties=species:S:1:pos:R:3:forces:R:3 calculation_type=dimer_refinement calculation_label=MgOH2/refinement_41/point_010_distance_1.660000 d4_functional=HSE06 d4_method=hse06 d4_energy_eV=-0.03858965623665573 source_geometry=/mnt/ceph/users/cwoodson/dft_calc/diatomics/dimer_jobs/MgOH2/refinement_41/point_010_distance_1.660000/geometry.in energy=-0.03858965623665573 free_energy=-0.03858965623665573 pbc="F F F"
Mg       0.00000000       0.00000000       0.00000000      -0.00000000       0.00000000      -0.00000000
O       -1.64337655       0.23433635       0.00000000       0.00848083      -0.00040136      -0.00000000
O        1.64337655      -0.23433635       0.00000000      -0.00848083       0.00040136      -0.00000000
H       -2.45977855       0.71417935       0.00000000      -0.00024740      -0.00046797      -0.00000000
H        2.45977855      -0.71417935       0.00000000       0.00024740       0.00046797      -0.00000000
