5
Properties=species:S:1:pos:R:3:forces:R:3 calculation_type=dimer_refinement calculation_label=MgOH2/refinement_41/point_024_distance_1.800000 d4_functional=HSE06 d4_method=hse06 d4_energy_eV=-0.03619133295099323 source_geometry=/mnt/ceph/users/cwoodson/dft_calc/diatomics/dimer_jobs/MgOH2/refinement_41/point_024_distance_1.800000/geometry.in energy=-0.03619133295099323 free_energy=-0.03619133295099323 pbc="F F F"
Mg       0.00000000       0.00000000       0.00000000       0.00000000      -0.00000000      -0.00000000
O       -1.78197457       0.25409966       0.00000000       0.00723007      -0.00067370      -0.00000000
O        1.78197457      -0.25409966       0.00000000      -0.00723007       0.00067370      -0.00000000
H       -2.59837657       0.73394266       0.00000000       0.00097550      -0.00052056      -0.00000000
H        2.59837657      -0.73394266       0.00000000      -0.00097550       0.00052056      -0.00000000
