2
Properties=species:S:1:pos:R:3:forces:R:3 calculation_type=dimer_refinement calculation_label=MgS/refinement_100/point_081_distance_2.47 d4_functional=HSE06 d4_method=hse06 d4_energy_eV=-0.03374297215089522 source_geometry=/mnt/ceph/users/cwoodson/dft_calc/diatomics/dimer_jobs/MgS/refinement_100/point_081_distance_2.47/geometry.in energy=-0.03374297215089522 free_energy=-0.03374297215089522 pbc="F F F"
Mg       0.00000000       0.00000000      -1.23500000      -0.00000000      -0.00000000       0.00109439
S        0.00000000       0.00000000       1.23500000      -0.00000000      -0.00000000      -0.00109439
