2
Properties=species:S:1:pos:R:3:forces:R:3 calculation_type=dimer_refinement calculation_label=MgS/refinement_41/point_002_distance_1.980000 d4_functional=HSE06 d4_method=hse06 d4_energy_eV=-0.03429512501958465 source_geometry=/mnt/ceph/users/cwoodson/dft_calc/diatomics/dimer_jobs/MgS/refinement_41/point_002_distance_1.980000/geometry.in energy=-0.03429512501958465 free_energy=-0.03429512501958465 pbc="F F F"
Mg       0.00000000       0.00000000      -0.99000000      -0.00000000      -0.00000000       0.00093060
S        0.00000000       0.00000000       0.99000000      -0.00000000      -0.00000000      -0.00093060
