2
Properties=species:S:1:pos:R:3:forces:R:3 calculation_type=dimer_refinement calculation_label=MgS/refinement_100/point_091_distance_2.57 d4_functional=HSE06 d4_method=hse06 d4_energy_eV=-0.033654367812034465 source_geometry=/mnt/ceph/users/cwoodson/dft_calc/diatomics/dimer_jobs/MgS/refinement_100/point_091_distance_2.57/geometry.in energy=-0.033654367812034465 free_energy=-0.033654367812034465 pbc="F F F"
Mg       0.00000000       0.00000000      -1.28500000      -0.00000000      -0.00000000       0.00058770
S        0.00000000       0.00000000       1.28500000      -0.00000000      -0.00000000      -0.00058770
