2
Properties=species:S:1:pos:R:3:forces:R:3 calculation_type=dimer_refinement calculation_label=MgS/refinement_100/point_028_distance_1.94 d4_functional=HSE06 d4_method=hse06 d4_energy_eV=-0.0343317501717271 source_geometry=/mnt/ceph/users/cwoodson/dft_calc/diatomics/dimer_jobs/MgS/refinement_100/point_028_distance_1.94/geometry.in energy=-0.0343317501717271 free_energy=-0.0343317501717271 pbc="F F F"
Mg       0.00000000       0.00000000      -0.97000000      -0.00000000      -0.00000000       0.00090144
S        0.00000000       0.00000000       0.97000000      -0.00000000      -0.00000000      -0.00090144
