2
Properties=species:S:1:pos:R:3:forces:R:3 calculation_type=dimer_refinement calculation_label=MgS/refinement_100/point_087_distance_2.53 d4_functional=HSE06 d4_method=hse06 d4_energy_eV=-0.033683638733665054 source_geometry=/mnt/ceph/users/cwoodson/dft_calc/diatomics/dimer_jobs/MgS/refinement_100/point_087_distance_2.53/geometry.in energy=-0.033683638733665054 free_energy=-0.033683638733665054 pbc="F F F"
Mg       0.00000000       0.00000000      -1.26500000      -0.00000000      -0.00000000       0.00085694
S        0.00000000       0.00000000       1.26500000      -0.00000000      -0.00000000      -0.00085694
