2
Properties=species:S:1:pos:R:3:forces:R:3 calculation_type=dimer_refinement calculation_label=MgS/refinement_41/point_007_distance_2.030000 d4_functional=HSE06 d4_method=hse06 d4_energy_eV=-0.03424755315381607 source_geometry=/mnt/ceph/users/cwoodson/dft_calc/diatomics/dimer_jobs/MgS/refinement_41/point_007_distance_2.030000/geometry.in energy=-0.03424755315381607 free_energy=-0.03424755315381607 pbc="F F F"
Mg       0.00000000       0.00000000      -1.01500000      -0.00000000      -0.00000000       0.00097338
S        0.00000000       0.00000000       1.01500000      -0.00000000      -0.00000000      -0.00097338
