5
Properties=species:S:1:pos:R:3:forces:R:3 calculation_type=dimer_refinement calculation_label=MgSH2/refinement_41/point_027_distance_2.350000 d4_functional=HSE06 d4_method=hse06 d4_energy_eV=-0.06587190802939606 source_geometry=/mnt/ceph/users/cwoodson/dft_calc/diatomics/dimer_jobs/MgSH2/refinement_41/point_027_distance_2.350000/geometry.in energy=-0.06587190802939606 free_energy=-0.06587190802939606 pbc="F F F"
Mg       0.00000000       0.00000000       0.00000000       0.00000000      -0.00000000      -0.00000000
S       -2.33839761      -0.23323079       0.00000000       0.01119832      -0.00102437      -0.00000000
S        2.33839761       0.23323079       0.00000000      -0.01119832       0.00102437      -0.00000000
H       -2.52270961       1.09566621       0.00000000       0.00211805       0.00106492      -0.00000000
H        2.52270961      -1.09566621       0.00000000      -0.00211805      -0.00106492      -0.00000000
