5
Properties=species:S:1:pos:R:3:forces:R:3 calculation_type=dimer_refinement calculation_label=MgSH2/refinement_41/point_028_distance_2.360000 d4_functional=HSE06 d4_method=hse06 d4_energy_eV=-0.06560935637894813 source_geometry=/mnt/ceph/users/cwoodson/dft_calc/diatomics/dimer_jobs/MgSH2/refinement_41/point_028_distance_2.360000/geometry.in energy=-0.06560935637894813 free_energy=-0.06560935637894813 pbc="F F F"
Mg       0.00000000       0.00000000       0.00000000      -0.00000000      -0.00000000      -0.00000000
S       -2.34834824      -0.23422327       0.00000000       0.01095546      -0.00103664      -0.00000000
S        2.34834824       0.23422327       0.00000000      -0.01095546       0.00103664      -0.00000000
H       -2.53266024       1.09467373       0.00000000       0.00210589       0.00106416      -0.00000000
H        2.53266024      -1.09467373       0.00000000      -0.00210589      -0.00106416      -0.00000000
