5
Properties=species:S:1:pos:R:3:forces:R:3 calculation_type=dimer_refinement calculation_label=MgSH2/refinement_41/point_037_distance_2.450000 d4_functional=HSE06 d4_method=hse06 d4_energy_eV=-0.0634950897113009 source_geometry=/mnt/ceph/users/cwoodson/dft_calc/diatomics/dimer_jobs/MgSH2/refinement_41/point_037_distance_2.450000/geometry.in energy=-0.0634950897113009 free_energy=-0.0634950897113009 pbc="F F F"
Mg       0.00000000       0.00000000       0.00000000       0.00000000      -0.00000000      -0.00000000
S       -2.43790389      -0.24315551       0.00000000       0.00844979      -0.00118963      -0.00000000
S        2.43790389       0.24315551       0.00000000      -0.00844979       0.00118963      -0.00000000
H       -2.62221589       1.08574149       0.00000000       0.00198980       0.00106567      -0.00000000
H        2.62221589      -1.08574149       0.00000000      -0.00198980      -0.00106567      -0.00000000
