2
Properties=species:S:1:pos:R:3:forces:R:3 calculation_type=dimer_refinement calculation_label=NaCl/refinement_100/point_051_distance_2.36 d4_functional=HSE06 d4_method=hse06 d4_energy_eV=-0.013942176286366445 source_geometry=/mnt/ceph/users/cwoodson/dft_calc/diatomics/dimer_jobs/NaCl/refinement_100/point_051_distance_2.36/geometry.in energy=-0.013942176286366445 free_energy=-0.013942176286366445 pbc="F F F"
Na       0.00000000       0.00000000      -1.18000000      -0.00000000      -0.00000000       0.00017495
Cl       0.00000000       0.00000000       1.18000000      -0.00000000      -0.00000000      -0.00017495
