2
Properties=species:S:1:pos:R:3:forces:R:3 calculation_type=dimer_refinement calculation_label=NaCl/refinement_41/point_024_distance_2.390000 d4_functional=HSE06 d4_method=hse06 d4_energy_eV=-0.013938207543179341 source_geometry=/mnt/ceph/users/cwoodson/dft_calc/diatomics/dimer_jobs/NaCl/refinement_41/point_024_distance_2.390000/geometry.in energy=-0.013938207543179341 free_energy=-0.013938207543179341 pbc="F F F"
Na       0.00000000       0.00000000      -1.19500000      -0.00000000      -0.00000000       0.00008509
Cl       0.00000000       0.00000000       1.19500000      -0.00000000      -0.00000000      -0.00008509
