2
Properties=species:S:1:pos:R:3:forces:R:3 calculation_type=dimer_refinement calculation_label=NaCl/refinement_100/point_052_distance_2.37 d4_functional=HSE06 d4_method=hse06 d4_energy_eV=-0.01394055927452594 source_geometry=/mnt/ceph/users/cwoodson/dft_calc/diatomics/dimer_jobs/NaCl/refinement_100/point_052_distance_2.37/geometry.in energy=-0.01394055927452594 free_energy=-0.01394055927452594 pbc="F F F"
Na       0.00000000       0.00000000      -1.18500000      -0.00000000      -0.00000000       0.00014799
Cl       0.00000000       0.00000000       1.18500000      -0.00000000      -0.00000000      -0.00014799
