2
Properties=species:S:1:pos:R:3:forces:R:3 calculation_type=dimer_refinement calculation_label=NaCl/refinement_100/point_021_distance_2.06 d4_functional=HSE06 d4_method=hse06 d4_energy_eV=-0.014037768029869164 source_geometry=/mnt/ceph/users/cwoodson/dft_calc/diatomics/dimer_jobs/NaCl/refinement_100/point_021_distance_2.06/geometry.in energy=-0.014037768029869164 free_energy=-0.014037768029869164 pbc="F F F"
Na       0.00000000       0.00000000      -1.03000000      -0.00000000      -0.00000000       0.00033591
Cl       0.00000000       0.00000000       1.03000000      -0.00000000      -0.00000000      -0.00033591
