2
Properties=species:S:1:pos:R:3:forces:R:3 calculation_type=dimer_refinement calculation_label=NaCl/refinement_100/point_094_distance_2.79 d4_functional=HSE06 d4_method=hse06 d4_energy_eV=-0.015061961846198657 source_geometry=/mnt/ceph/users/cwoodson/dft_calc/diatomics/dimer_jobs/NaCl/refinement_100/point_094_distance_2.79/geometry.in energy=-0.015061961846198657 free_energy=-0.015061961846198657 pbc="F F F"
Na       0.00000000       0.00000000      -1.39500000      -0.00000000      -0.00000000      -0.01039856
Cl       0.00000000       0.00000000       1.39500000      -0.00000000      -0.00000000       0.01039856
