2
Properties=species:S:1:pos:R:3:forces:R:3 calculation_type=dimer_refinement calculation_label=NaCl/refinement_41/point_036_distance_2.510000 d4_functional=HSE06 d4_method=hse06 d4_energy_eV=-0.013965238112315063 source_geometry=/mnt/ceph/users/cwoodson/dft_calc/diatomics/dimer_jobs/NaCl/refinement_41/point_036_distance_2.510000/geometry.in energy=-0.013965238112315063 free_energy=-0.013965238112315063 pbc="F F F"
Na       0.00000000       0.00000000      -1.25500000      -0.00000000      -0.00000000      -0.00066255
Cl       0.00000000       0.00000000       1.25500000      -0.00000000      -0.00000000       0.00066255
