2
Properties=species:S:1:pos:R:3:forces:R:3 calculation_type=dimer_refinement calculation_label=NaCl/refinement_100/point_075_distance_2.60 d4_functional=HSE06 d4_method=hse06 d4_energy_eV=-0.014076236444274916 source_geometry=/mnt/ceph/users/cwoodson/dft_calc/diatomics/dimer_jobs/NaCl/refinement_100/point_075_distance_2.60/geometry.in energy=-0.014076236444274916 free_energy=-0.014076236444274916 pbc="F F F"
Na       0.00000000       0.00000000      -1.30000000      -0.00000000      -0.00000000      -0.00195210
Cl       0.00000000       0.00000000       1.30000000      -0.00000000      -0.00000000       0.00195210
