2
Properties=species:S:1:pos:R:3:forces:R:3 calculation_type=dimer_refinement calculation_label=NaCl/refinement_100/point_029_distance_2.14 d4_functional=HSE06 d4_method=hse06 d4_energy_eV=-0.01401022937697049 source_geometry=/mnt/ceph/users/cwoodson/dft_calc/diatomics/dimer_jobs/NaCl/refinement_100/point_029_distance_2.14/geometry.in energy=-0.01401022937697049 free_energy=-0.01401022937697049 pbc="F F F"
Na       0.00000000       0.00000000      -1.07000000      -0.00000000      -0.00000000       0.00035083
Cl       0.00000000       0.00000000       1.07000000      -0.00000000      -0.00000000      -0.00035083
