2
Properties=species:S:1:pos:R:3:forces:R:3 calculation_type=dimer_refinement calculation_label=NaCl/refinement_41/point_025_distance_2.400000 d4_functional=HSE06 d4_method=hse06 d4_energy_eV=-0.01393753577210207 source_geometry=/mnt/ceph/users/cwoodson/dft_calc/diatomics/dimer_jobs/NaCl/refinement_41/point_025_distance_2.400000/geometry.in energy=-0.01393753577210207 free_energy=-0.01393753577210207 pbc="F F F"
Na       0.00000000       0.00000000      -1.20000000      -0.00000000      -0.00000000       0.00004868
Cl       0.00000000       0.00000000       1.20000000      -0.00000000      -0.00000000      -0.00004868
