2
Properties=species:S:1:pos:R:3:forces:R:3 calculation_type=dimer_refinement calculation_label=NaCl/refinement_41/point_007_distance_2.220000 d4_functional=HSE06 d4_method=hse06 d4_energy_eV=-0.013982174073975008 source_geometry=/mnt/ceph/users/cwoodson/dft_calc/diatomics/dimer_jobs/NaCl/refinement_41/point_007_distance_2.220000/geometry.in energy=-0.013982174073975008 free_energy=-0.013982174073975008 pbc="F F F"
Na       0.00000000       0.00000000      -1.11000000      -0.00000000      -0.00000000       0.00034504
Cl       0.00000000       0.00000000       1.11000000      -0.00000000      -0.00000000      -0.00034504
