2
Properties=species:S:1:pos:R:3:forces:R:3 calculation_type=dimer_refinement calculation_label=NaF/refinement_41/point_010_distance_1.830000 d4_functional=HSE06 d4_method=hse06 d4_energy_eV=-0.0072382090707876065 source_geometry=/mnt/ceph/users/cwoodson/dft_calc/diatomics/dimer_jobs/NaF/refinement_41/point_010_distance_1.830000/geometry.in energy=-0.0072382090707876065 free_energy=-0.0072382090707876065 pbc="F F F"
Na       0.00000000       0.00000000      -0.91500000      -0.00000000      -0.00000000       0.00054938
F        0.00000000       0.00000000       0.91500000      -0.00000000      -0.00000000      -0.00054938
