2
Properties=species:S:1:pos:R:3:forces:R:3 calculation_type=dimer_refinement calculation_label=NaF/refinement_41/point_034_distance_2.070000 d4_functional=HSE06 d4_method=hse06 d4_energy_eV=-0.007158970508280821 source_geometry=/mnt/ceph/users/cwoodson/dft_calc/diatomics/dimer_jobs/NaF/refinement_41/point_034_distance_2.070000/geometry.in energy=-0.007158970508280821 free_energy=-0.007158970508280821 pbc="F F F"
Na       0.00000000       0.00000000      -1.03500000      -0.00000000      -0.00000000      -0.00011476
F        0.00000000       0.00000000       1.03500000      -0.00000000      -0.00000000       0.00011476
