2
Properties=species:S:1:pos:R:3:forces:R:3 calculation_type=dimer_refinement calculation_label=NaF/refinement_100/point_081_distance_2.24 d4_functional=HSE06 d4_method=hse06 d4_energy_eV=-0.007346278254156858 source_geometry=/mnt/ceph/users/cwoodson/dft_calc/diatomics/dimer_jobs/NaF/refinement_100/point_081_distance_2.24/geometry.in energy=-0.007346278254156858 free_energy=-0.007346278254156858 pbc="F F F"
Na       0.00000000       0.00000000      -1.12000000      -0.00000000      -0.00000000      -0.00264939
F        0.00000000       0.00000000       1.12000000      -0.00000000      -0.00000000       0.00264939
