2
Properties=species:S:1:pos:R:3:forces:R:3 calculation_type=dimer_refinement calculation_label=NaF/refinement_100/point_096_distance_2.39 d4_functional=HSE06 d4_method=hse06 d4_energy_eV=-0.008202571791384504 source_geometry=/mnt/ceph/users/cwoodson/dft_calc/diatomics/dimer_jobs/NaF/refinement_100/point_096_distance_2.39/geometry.in energy=-0.008202571791384504 free_energy=-0.008202571791384504 pbc="F F F"
Na       0.00000000       0.00000000      -1.19500000      -0.00000000      -0.00000000      -0.01009110
F        0.00000000       0.00000000       1.19500000      -0.00000000      -0.00000000       0.01009110
