2
Properties=species:S:1:pos:R:3:forces:R:3 calculation_type=dimer_refinement calculation_label=NaF/refinement_41/point_021_distance_1.940000 d4_functional=HSE06 d4_method=hse06 d4_energy_eV=-0.007184461347439826 source_geometry=/mnt/ceph/users/cwoodson/dft_calc/diatomics/dimer_jobs/NaF/refinement_41/point_021_distance_1.940000/geometry.in energy=-0.007184461347439826 free_energy=-0.007184461347439826 pbc="F F F"
Na       0.00000000       0.00000000      -0.97000000      -0.00000000      -0.00000000       0.00040548
F        0.00000000       0.00000000       0.97000000      -0.00000000      -0.00000000      -0.00040548
