2
Properties=species:S:1:pos:R:3:forces:R:3 calculation_type=dimer_refinement calculation_label=NaF/refinement_100/point_095_distance_2.38 d4_functional=HSE06 d4_method=hse06 d4_energy_eV=-0.008105591396368125 source_geometry=/mnt/ceph/users/cwoodson/dft_calc/diatomics/dimer_jobs/NaF/refinement_100/point_095_distance_2.38/geometry.in energy=-0.008105591396368125 free_energy=-0.008105591396368125 pbc="F F F"
Na       0.00000000       0.00000000      -1.19000000      -0.00000000      -0.00000000      -0.00931351
F        0.00000000       0.00000000       1.19000000      -0.00000000      -0.00000000       0.00931351
