8
Properties=species:S:1:pos:R:3:forces:R:3 calculation_type=dimer_refinement calculation_label=Si2H6/refinement_100/point_089_distance_2.71 d4_functional=HSE06 d4_method=hse06 d4_energy_eV=-0.10228804045784083 source_geometry=/mnt/ceph/users/cwoodson/dft_calc/diatomics/dimer_jobs/Si2H6/refinement_100/point_089_distance_2.71/geometry.in energy=-0.10228804045784083 free_energy=-0.10228804045784083 pbc="F F F"
Si       0.00000000       0.00000000       1.35500000       0.00000000      -0.00000001       0.05078433
Si       0.00000000       0.00000000      -1.35500000       0.00000000       0.00000001      -0.05078433
H        0.00000000       1.39328600       1.87333700      -0.00000000       0.00690597      -0.00022234
H       -1.20662100      -0.69664300       1.87333700      -0.00598074      -0.00345298      -0.00022235
H        1.20662100      -0.69664300       1.87333700       0.00598074      -0.00345298      -0.00022235
H        0.00000000      -1.39328600      -1.87333700      -0.00000000      -0.00690597       0.00022234
H       -1.20662100       0.69664300      -1.87333700      -0.00598074       0.00345298       0.00022235
H        1.20662100       0.69664300      -1.87333700       0.00598074       0.00345298       0.00022235
