8
Properties=species:S:1:pos:R:3:forces:R:3 calculation_type=dimer_refinement calculation_label=Si2H6/refinement_100/point_021_distance_2.03 d4_functional=HSE06 d4_method=hse06 d4_energy_eV=-0.10684718383460111 source_geometry=/mnt/ceph/users/cwoodson/dft_calc/diatomics/dimer_jobs/Si2H6/refinement_100/point_021_distance_2.03/geometry.in energy=-0.10684718383460111 free_energy=-0.10684718383460111 pbc="F F F"
Si       0.00000000       0.00000000       1.01500000       0.00000000      -0.00000000      -0.00674783
Si       0.00000000       0.00000000      -1.01500000       0.00000000       0.00000000       0.00674783
H        0.00000000       1.39328600       1.53333700      -0.00000000      -0.00028128      -0.00212023
H       -1.20662100      -0.69664300       1.53333700       0.00024360       0.00014064      -0.00212023
H        1.20662100      -0.69664300       1.53333700      -0.00024360       0.00014064      -0.00212023
H        0.00000000      -1.39328600      -1.53333700      -0.00000000       0.00028128       0.00212023
H       -1.20662100       0.69664300      -1.53333700       0.00024360      -0.00014064       0.00212023
H        1.20662100       0.69664300      -1.53333700      -0.00024360      -0.00014064       0.00212023
