8
Properties=species:S:1:pos:R:3:forces:R:3 calculation_type=dimer_refinement calculation_label=Si2H6/refinement_41/point_010_distance_2.220000 d4_functional=HSE06 d4_method=hse06 d4_energy_eV=-0.10430729117202053 source_geometry=/mnt/ceph/users/cwoodson/dft_calc/diatomics/dimer_jobs/Si2H6/refinement_41/point_010_distance_2.220000/geometry.in energy=-0.10430729117202053 free_energy=-0.10430729117202053 pbc="F F F"
Si       0.00000000      -0.00000666       1.11000000       0.00000001       0.00000001      -0.00733667
Si       0.00000000       0.00000666      -1.11000000      -0.00000000      -0.00000001       0.00733667
H       -0.00000200       1.38690934       1.62162100       0.00000000      -0.00042605      -0.00243032
H       -1.20110300      -0.69345866       1.62163300       0.00036899       0.00021305      -0.00243033
H        1.20110400      -0.69345566       1.62163300      -0.00036899       0.00021305      -0.00243034
H       -0.00000200      -1.38690934      -1.62162100       0.00000000       0.00042605       0.00243032
H       -1.20110300       0.69345866      -1.62163200       0.00036899      -0.00021305       0.00243033
H        1.20110500       0.69345566      -1.62163300      -0.00036899      -0.00021304       0.00243033
