8
Properties=species:S:1:pos:R:3:forces:R:3 calculation_type=dimer_refinement calculation_label=Si2H6/refinement_100/point_047_distance_2.29 d4_functional=HSE06 d4_method=hse06 d4_energy_eV=-0.10315624165581355 source_geometry=/mnt/ceph/users/cwoodson/dft_calc/diatomics/dimer_jobs/Si2H6/refinement_100/point_047_distance_2.29/geometry.in energy=-0.10315624165581355 free_energy=-0.10315624165581355 pbc="F F F"
Si       0.00000000       0.00000000       1.14500000      -0.00000000      -0.00000000      -0.00752178
Si       0.00000000       0.00000000      -1.14500000      -0.00000000       0.00000000       0.00752178
H        0.00000000       1.39328600       1.66333700       0.00000000      -0.00032983      -0.00247939
H       -1.20662100      -0.69664300       1.66333700       0.00028564       0.00016492      -0.00247939
H        1.20662100      -0.69664300       1.66333700      -0.00028564       0.00016492      -0.00247939
H        0.00000000      -1.39328600      -1.66333700      -0.00000000       0.00032983       0.00247939
H       -1.20662100       0.69664300      -1.66333700       0.00028564      -0.00016492       0.00247939
H        1.20662100       0.69664300      -1.66333700      -0.00028564      -0.00016492       0.00247939
