8
Properties=species:S:1:pos:R:3:forces:R:3 calculation_type=dimer_refinement calculation_label=Si2H6/refinement_100/point_073_distance_2.55 d4_functional=HSE06 d4_method=hse06 d4_energy_eV=-0.09975243113904678 source_geometry=/mnt/ceph/users/cwoodson/dft_calc/diatomics/dimer_jobs/Si2H6/refinement_100/point_073_distance_2.55/geometry.in energy=-0.09975243113904678 free_energy=-0.09975243113904678 pbc="F F F"
Si       0.00000000       0.00000000       1.27500000      -0.00000000      -0.00000000       0.00051876
Si       0.00000000       0.00000000      -1.27500000       0.00000000       0.00000000      -0.00051876
H        0.00000000       1.39328600       1.79333700       0.00000000       0.00088776      -0.00228578
H       -1.20662100      -0.69664300       1.79333700      -0.00076882      -0.00044388      -0.00228578
H        1.20662100      -0.69664300       1.79333700       0.00076882      -0.00044388      -0.00228578
H        0.00000000      -1.39328600      -1.79333700      -0.00000000      -0.00088776       0.00228578
H       -1.20662100       0.69664300      -1.79333700      -0.00076882       0.00044388       0.00228578
H        1.20662100       0.69664300      -1.79333700       0.00076882       0.00044388       0.00228578
