8
Properties=species:S:1:pos:R:3:forces:R:3 calculation_type=dimer_refinement calculation_label=Si2H6/refinement_41/point_040_distance_2.520000 d4_functional=HSE06 d4_method=hse06 d4_energy_eV=-0.10007962620642867 source_geometry=/mnt/ceph/users/cwoodson/dft_calc/diatomics/dimer_jobs/Si2H6/refinement_41/point_040_distance_2.520000/geometry.in energy=-0.10007962620642867 free_energy=-0.10007962620642867 pbc="F F F"
Si      -0.00000000      -0.00000757       1.26000000       0.00000001      -0.00000004      -0.00257241
Si       0.00000000       0.00000757      -1.26000000      -0.00000001       0.00000004       0.00257241
H       -0.00000200       1.38690843       1.77162100      -0.00000000       0.00025213      -0.00250415
H       -1.20110300      -0.69345957       1.77163300      -0.00021833      -0.00012604      -0.00250416
H        1.20110400      -0.69345657       1.77163300       0.00021833      -0.00012604      -0.00250416
H       -0.00000200      -1.38690843      -1.77162100      -0.00000000      -0.00025213       0.00250415
H       -1.20110300       0.69345957      -1.77163200      -0.00021833       0.00012604       0.00250416
H        1.20110500       0.69345657      -1.77163300       0.00021834       0.00012604       0.00250415
