8
Properties=species:S:1:pos:R:3:forces:R:3 calculation_type=dimer_refinement calculation_label=Si2H6/refinement_100/point_038_distance_2.20 d4_functional=HSE06 d4_method=hse06 d4_energy_eV=-0.10448775883602802 source_geometry=/mnt/ceph/users/cwoodson/dft_calc/diatomics/dimer_jobs/Si2H6/refinement_100/point_038_distance_2.20/geometry.in energy=-0.10448775883602802 free_energy=-0.10448775883602802 pbc="F F F"
Si       0.00000000       0.00000000       1.10000000       0.00000000      -0.00000000      -0.00743721
Si       0.00000000       0.00000000      -1.10000000       0.00000000       0.00000000       0.00743721
H        0.00000000       1.39328600       1.61833700       0.00000000      -0.00034088      -0.00237402
H       -1.20662100      -0.69664300       1.61833700       0.00029521       0.00017044      -0.00237402
H        1.20662100      -0.69664300       1.61833700      -0.00029521       0.00017044      -0.00237402
H        0.00000000      -1.39328600      -1.61833700       0.00000000       0.00034088       0.00237402
H       -1.20662100       0.69664300      -1.61833700       0.00029521      -0.00017044       0.00237402
H        1.20662100       0.69664300      -1.61833700      -0.00029521      -0.00017044       0.00237402
