8
Properties=species:S:1:pos:R:3:forces:R:3 calculation_type=dimer_refinement calculation_label=Si2H6/refinement_41/point_025_distance_2.370000 d4_functional=HSE06 d4_method=hse06 d4_energy_eV=-0.10207654753790128 source_geometry=/mnt/ceph/users/cwoodson/dft_calc/diatomics/dimer_jobs/Si2H6/refinement_41/point_025_distance_2.370000/geometry.in energy=-0.10207654753790128 free_energy=-0.10207654753790128 pbc="F F F"
Si      -0.00000000      -0.00000712       1.18500000       0.00000001       0.00000000      -0.00706975
Si       0.00000000       0.00000712      -1.18500000      -0.00000001      -0.00000001       0.00706975
H       -0.00000200       1.38690888       1.69662100       0.00000000      -0.00036201      -0.00258320
H       -1.20110300      -0.69345912       1.69663300       0.00031353       0.00018103      -0.00258322
H        1.20110400      -0.69345612       1.69663300      -0.00031353       0.00018103      -0.00258322
H       -0.00000200      -1.38690888      -1.69662100       0.00000000       0.00036201       0.00258320
H       -1.20110300       0.69345912      -1.69663200       0.00031353      -0.00018103       0.00258322
H        1.20110500       0.69345612      -1.69663300      -0.00031353      -0.00018102       0.00258321
