8
Properties=species:S:1:pos:R:3:forces:R:3 calculation_type=dimer_refinement calculation_label=Si2H6/refinement_41/point_005_distance_2.170000 d4_functional=HSE06 d4_method=hse06 d4_energy_eV=-0.10503037838914132 source_geometry=/mnt/ceph/users/cwoodson/dft_calc/diatomics/dimer_jobs/Si2H6/refinement_41/point_005_distance_2.170000/geometry.in energy=-0.10503037838914132 free_energy=-0.10503037838914132 pbc="F F F"
Si       0.00000000      -0.00000651       1.08500000       0.00000001       0.00000001      -0.00719726
Si       0.00000000       0.00000651      -1.08500000      -0.00000000      -0.00000001       0.00719726
H       -0.00000200       1.38690949       1.59662100       0.00000000      -0.00041621      -0.00236166
H       -1.20110300      -0.69345851       1.59663300       0.00036047       0.00020813      -0.00236168
H        1.20110400      -0.69345551       1.59663300      -0.00036048       0.00020813      -0.00236168
H       -0.00000200      -1.38690949      -1.59662100       0.00000000       0.00041621       0.00236166
H       -1.20110300       0.69345851      -1.59663200       0.00036047      -0.00020813       0.00236168
H        1.20110500       0.69345551      -1.59663300      -0.00036047      -0.00020812       0.00236168
