8
Properties=species:S:1:pos:R:3:forces:R:3 calculation_type=dimer_refinement calculation_label=Si2H6/refinement_100/point_036_distance_2.18 d4_functional=HSE06 d4_method=hse06 d4_energy_eV=-0.10477759474892946 source_geometry=/mnt/ceph/users/cwoodson/dft_calc/diatomics/dimer_jobs/Si2H6/refinement_100/point_036_distance_2.18/geometry.in energy=-0.10477759474892946 free_energy=-0.10477759474892946 pbc="F F F"
Si       0.00000000       0.00000000       1.09000000      -0.00000000      -0.00000000      -0.00738069
Si       0.00000000       0.00000000      -1.09000000       0.00000000       0.00000000       0.00738069
H        0.00000000       1.39328600       1.60833700       0.00000000      -0.00033758      -0.00234715
H       -1.20662100      -0.69664300       1.60833700       0.00029236       0.00016879      -0.00234715
H        1.20662100      -0.69664300       1.60833700      -0.00029236       0.00016879      -0.00234715
H        0.00000000      -1.39328600      -1.60833700      -0.00000000       0.00033758       0.00234715
H       -1.20662100       0.69664300      -1.60833700       0.00029236      -0.00016879       0.00234715
H        1.20662100       0.69664300      -1.60833700      -0.00029236      -0.00016879       0.00234715
