8
Properties=species:S:1:pos:R:3:forces:R:3 calculation_type=dimer_refinement calculation_label=Si2H6/refinement_41/point_036_distance_2.480000 d4_functional=HSE06 d4_method=hse06 d4_energy_eV=-0.10053627350647495 source_geometry=/mnt/ceph/users/cwoodson/dft_calc/diatomics/dimer_jobs/Si2H6/refinement_41/point_036_distance_2.480000/geometry.in energy=-0.10053627350647495 free_energy=-0.10053627350647495 pbc="F F F"
Si      -0.00000000      -0.00000745       1.24000000       0.00000001      -0.00000002      -0.00479002
Si       0.00000000       0.00000745      -1.24000000      -0.00000001       0.00000002       0.00479002
H       -0.00000200       1.38690855       1.75162100      -0.00000000      -0.00003647      -0.00257378
H       -1.20110300      -0.69345945       1.75163300       0.00003160       0.00001826      -0.00257379
H        1.20110400      -0.69345645       1.75163300      -0.00003161       0.00001826      -0.00257379
H       -0.00000200      -1.38690855      -1.75162100      -0.00000000       0.00003647       0.00257378
H       -1.20110300       0.69345945      -1.75163200       0.00003160      -0.00001826       0.00257379
H        1.20110500       0.69345645      -1.75163300      -0.00003160      -0.00001825       0.00257379
