8
Properties=species:S:1:pos:R:3:forces:R:3 calculation_type=dimer_refinement calculation_label=Si2H6/refinement_100/point_075_distance_2.57 d4_functional=HSE06 d4_method=hse06 d4_energy_eV=-0.09965481327560971 source_geometry=/mnt/ceph/users/cwoodson/dft_calc/diatomics/dimer_jobs/Si2H6/refinement_100/point_075_distance_2.57/geometry.in energy=-0.09965481327560971 free_energy=-0.09965481327560971 pbc="F F F"
Si       0.00000000       0.00000000       1.28500000       0.00000000      -0.00000000       0.00322432
Si       0.00000000       0.00000000      -1.28500000      -0.00000000       0.00000000      -0.00322432
H        0.00000000       1.39328600       1.80333700      -0.00000000       0.00124829      -0.00216942
H       -1.20662100      -0.69664300       1.80333700      -0.00108105      -0.00062414      -0.00216943
H        1.20662100      -0.69664300       1.80333700       0.00108105      -0.00062414      -0.00216943
H        0.00000000      -1.39328600      -1.80333700       0.00000000      -0.00124829       0.00216942
H       -1.20662100       0.69664300      -1.80333700      -0.00108105       0.00062414       0.00216943
H        1.20662100       0.69664300      -1.80333700       0.00108105       0.00062414       0.00216943
