8
Properties=species:S:1:pos:R:3:forces:R:3 calculation_type=dimer_refinement calculation_label=Si2H6/refinement_41/point_026_distance_2.380000 d4_functional=HSE06 d4_method=hse06 d4_energy_eV=-0.10192869710800645 source_geometry=/mnt/ceph/users/cwoodson/dft_calc/diatomics/dimer_jobs/Si2H6/refinement_41/point_026_distance_2.380000/geometry.in energy=-0.10192869710800645 free_energy=-0.10192869710800645 pbc="F F F"
Si      -0.00000000      -0.00000715       1.19000000       0.00000001       0.00000000      -0.00698158
Si       0.00000000       0.00000715      -1.19000000      -0.00000001      -0.00000001       0.00698159
H       -0.00000200       1.38690885       1.70162100       0.00000000      -0.00034801      -0.00258875
H       -1.20110300      -0.69345915       1.70163300       0.00030141       0.00017403      -0.00258877
H        1.20110400      -0.69345615       1.70163300      -0.00030141       0.00017403      -0.00258877
H       -0.00000200      -1.38690885      -1.70162100       0.00000000       0.00034801       0.00258875
H       -1.20110300       0.69345915      -1.70163200       0.00030141      -0.00017403       0.00258877
H        1.20110500       0.69345615      -1.70163300      -0.00030140      -0.00017402       0.00258877
