8
Properties=species:S:1:pos:R:3:forces:R:3 calculation_type=dimer_refinement calculation_label=Si2H6/refinement_100/point_017_distance_1.99 d4_functional=HSE06 d4_method=hse06 d4_energy_eV=-0.10736362216201539 source_geometry=/mnt/ceph/users/cwoodson/dft_calc/diatomics/dimer_jobs/Si2H6/refinement_100/point_017_distance_1.99/geometry.in energy=-0.10736362216201539 free_energy=-0.10736362216201539 pbc="F F F"
Si       0.00000000       0.00000000       0.99500000       0.00000000      -0.00000000      -0.00654903
Si       0.00000000       0.00000000      -0.99500000      -0.00000000       0.00000000       0.00654903
H        0.00000000       1.39328600       1.51333700      -0.00000000      -0.00026122      -0.00205424
H       -1.20662100      -0.69664300       1.51333700       0.00022623       0.00013061      -0.00205424
H        1.20662100      -0.69664300       1.51333700      -0.00022623       0.00013061      -0.00205424
H        0.00000000      -1.39328600      -1.51333700       0.00000000       0.00026122       0.00205424
H       -1.20662100       0.69664300      -1.51333700       0.00022623      -0.00013061       0.00205424
H        1.20662100       0.69664300      -1.51333700      -0.00022623      -0.00013061       0.00205424
