8
Properties=species:S:1:pos:R:3:forces:R:3 calculation_type=dimer_refinement calculation_label=Si2H6/refinement_41/point_027_distance_2.390000 d4_functional=HSE06 d4_method=hse06 d4_energy_eV=-0.1017816502613689 source_geometry=/mnt/ceph/users/cwoodson/dft_calc/diatomics/dimer_jobs/Si2H6/refinement_41/point_027_distance_2.390000/geometry.in energy=-0.1017816502613689 free_energy=-0.1017816502613689 pbc="F F F"
Si      -0.00000000      -0.00000718       1.19500000       0.00000001       0.00000000      -0.00687809
Si       0.00000000       0.00000718      -1.19500000      -0.00000001      -0.00000000       0.00687809
H       -0.00000200       1.38690882       1.70662100       0.00000000      -0.00033192      -0.00259340
H       -1.20110300      -0.69345918       1.70663300       0.00028747       0.00016598      -0.00259341
H        1.20110400      -0.69345618       1.70663300      -0.00028748       0.00016599      -0.00259341
H       -0.00000200      -1.38690882      -1.70662100       0.00000000       0.00033192       0.00259340
H       -1.20110300       0.69345918      -1.70663200       0.00028748      -0.00016598       0.00259341
H        1.20110500       0.69345618      -1.70663300      -0.00028747      -0.00016598       0.00259341
