8
Properties=species:S:1:pos:R:3:forces:R:3 calculation_type=dimer_refinement calculation_label=Si2H6/refinement_100/point_100_distance_2.82 d4_functional=HSE06 d4_method=hse06 d4_energy_eV=-0.109059059937336 source_geometry=/mnt/ceph/users/cwoodson/dft_calc/diatomics/dimer_jobs/Si2H6/refinement_100/point_100_distance_2.82/geometry.in energy=-0.109059059937336 free_energy=-0.109059059937336 pbc="F F F"
Si       0.00000000       0.00000000       1.41000000      -0.00000000      -0.00000001       0.05366659
Si       0.00000000       0.00000000      -1.41000000      -0.00000000       0.00000001      -0.05366659
H        0.00000000       1.39328600       1.92833700      -0.00000000       0.00729918      -0.00025065
H       -1.20662100      -0.69664300       1.92833700      -0.00632127      -0.00364959      -0.00025065
H        1.20662100      -0.69664300       1.92833700       0.00632127      -0.00364959      -0.00025065
H        0.00000000      -1.39328600      -1.92833700       0.00000000      -0.00729918       0.00025065
H       -1.20662100       0.69664300      -1.92833700      -0.00632127       0.00364959       0.00025065
H        1.20662100       0.69664300      -1.92833700       0.00632127       0.00364959       0.00025065
