8
Properties=species:S:1:pos:R:3:forces:R:3 calculation_type=dimer_refinement calculation_label=Si2H6/refinement_100/point_072_distance_2.54 d4_functional=HSE06 d4_method=hse06 d4_energy_eV=-0.09982215275099783 source_geometry=/mnt/ceph/users/cwoodson/dft_calc/diatomics/dimer_jobs/Si2H6/refinement_100/point_072_distance_2.54/geometry.in energy=-0.09982215275099783 free_energy=-0.09982215275099783 pbc="F F F"
Si       0.00000000       0.00000000       1.27000000      -0.00000000      -0.00000000      -0.00057890
Si       0.00000000       0.00000000      -1.27000000      -0.00000000       0.00000000       0.00057890
H        0.00000000       1.39328600       1.78833700       0.00000000       0.00073800      -0.00233266
H       -1.20662100      -0.69664300       1.78833700      -0.00063913      -0.00036900      -0.00233266
H        1.20662100      -0.69664300       1.78833700       0.00063913      -0.00036900      -0.00233266
H        0.00000000      -1.39328600      -1.78833700       0.00000000      -0.00073800       0.00233266
H       -1.20662100       0.69664300      -1.78833700      -0.00063913       0.00036900       0.00233266
H        1.20662100       0.69664300      -1.78833700       0.00063913       0.00036900       0.00233266
