8
Properties=species:S:1:pos:R:3:forces:R:3 calculation_type=dimer_refinement calculation_label=Si2H6/refinement_100/point_024_distance_2.06 d4_functional=HSE06 d4_method=hse06 d4_energy_eV=-0.10644956373091782 source_geometry=/mnt/ceph/users/cwoodson/dft_calc/diatomics/dimer_jobs/Si2H6/refinement_100/point_024_distance_2.06/geometry.in energy=-0.10644956373091782 free_energy=-0.10644956373091782 pbc="F F F"
Si       0.00000000       0.00000000       1.03000000      -0.00000000      -0.00000000      -0.00689267
Si       0.00000000       0.00000000      -1.03000000      -0.00000000       0.00000000       0.00689267
H        0.00000000       1.39328600       1.54833700       0.00000000      -0.00029544      -0.00216847
H       -1.20662100      -0.69664300       1.54833700       0.00025586       0.00014772      -0.00216847
H        1.20662100      -0.69664300       1.54833700      -0.00025586       0.00014772      -0.00216847
H        0.00000000      -1.39328600      -1.54833700       0.00000000       0.00029544       0.00216847
H       -1.20662100       0.69664300      -1.54833700       0.00025586      -0.00014772       0.00216847
H        1.20662100       0.69664300      -1.54833700      -0.00025586      -0.00014772       0.00216847
