2
Properties=species:S:1:pos:R:3:forces:R:3 calculation_type=dimer_refinement calculation_label=SiC/refinement_100/point_060_distance_1.72 d4_functional=HSE06 d4_method=hse06 d4_energy_eV=-0.02397788647816721 source_geometry=/mnt/ceph/users/cwoodson/dft_calc/diatomics/dimer_jobs/SiC/refinement_100/point_060_distance_1.72/geometry.in energy=-0.02397788647816721 free_energy=-0.02397788647816721 pbc="F F F"
Si       0.00000000       0.00000000      -0.86000000      -0.00000000      -0.00000000       0.00095439
C        0.00000000       0.00000000       0.86000000      -0.00000000      -0.00000000      -0.00095439
