2
Properties=species:S:1:pos:R:3:forces:R:3 calculation_type=dimer_refinement calculation_label=SiC/refinement_100/point_085_distance_1.97 d4_functional=HSE06 d4_method=hse06 d4_energy_eV=-0.02370620822832563 source_geometry=/mnt/ceph/users/cwoodson/dft_calc/diatomics/dimer_jobs/SiC/refinement_100/point_085_distance_1.97/geometry.in energy=-0.02370620822832563 free_energy=-0.02370620822832563 pbc="F F F"
Si       0.00000000       0.00000000      -0.98500000      -0.00000000      -0.00000000       0.00133332
C        0.00000000       0.00000000       0.98500000      -0.00000000      -0.00000000      -0.00133332
