2
Properties=species:S:1:pos:R:3:forces:R:3 calculation_type=dimer_refinement calculation_label=SiC/refinement_100/point_092_distance_2.04 d4_functional=HSE06 d4_method=hse06 d4_energy_eV=-0.023605458821072803 source_geometry=/mnt/ceph/users/cwoodson/dft_calc/diatomics/dimer_jobs/SiC/refinement_100/point_092_distance_2.04/geometry.in energy=-0.023605458821072803 free_energy=-0.023605458821072803 pbc="F F F"
Si       0.00000000       0.00000000      -1.02000000      -0.00000000      -0.00000000       0.00154277
C        0.00000000       0.00000000       1.02000000      -0.00000000      -0.00000000      -0.00154277
