2
Properties=species:S:1:pos:R:3:forces:R:3 calculation_type=dimer_refinement calculation_label=SiC/refinement_100/point_055_distance_1.67 d4_functional=HSE06 d4_method=hse06 d4_energy_eV=-0.02402530426977452 source_geometry=/mnt/ceph/users/cwoodson/dft_calc/diatomics/dimer_jobs/SiC/refinement_100/point_055_distance_1.67/geometry.in energy=-0.02402530426977452 free_energy=-0.02402530426977452 pbc="F F F"
Si       0.00000000       0.00000000      -0.83500000      -0.00000000      -0.00000000       0.00094455
C        0.00000000       0.00000000       0.83500000      -0.00000000      -0.00000000      -0.00094455
