------------------------------------------------------------
          Invoking FHI-aims ...

          When using FHI-aims, please cite the following reference:

            Volker Blum, Ralf Gehrke, Felix Hanke, Paula Havu,
            Ville Havu, Xinguo Ren, Karsten Reuter, and Matthias Scheffler,
            'Ab Initio Molecular Simulations with Numeric Atom-Centered Orbitals',
            Computer Physics Communications 180, 2175-2196 (2009)

          In addition, many other developments in FHI-aims are likely important for
          your particular application. If so, please cite them. A partial list of references
          is written at the end of this file. Thank you for giving credit to the authors
          of these developments.

          For general information about FHI-aims please find us at

            https://fhi-aims.org

          Online tutorials can be found at

            https://fhi-aims-club.gitlab.io/tutorials/tutorials-overview/

          For any questions about FHI-aims, please visit our slack channel at

            https://fhi-aims.slack.com

          and our main development and support site at

            https://aims-git.rz-berlin.mpg.de .

          The latter site, in particular, has a wiki to collect information, as well
          as an issue tracker to log discussions, suggest improvements, and report issues
          or bugs. https://aims-git.rz-berlin.mpg.de is also the main development site
          of the project and all new and updated code versions can be obtained there.
          Please send an email to aims-coordinators@ms1p.org and we will add
          you to these sites. They are for you and everyone is welcome there.

------------------------------------------------------------



  Date     :  20260805, Time     :  170917.057
  Time zero on CPU 1             :   0.337057000000000E+00  s.
  Internal wall clock time zero  :           555181757.057  s.

  FHI-aims created a unique identifier for this run for later identification
  aims_uuid : 8176F688-DBC8-492A-ADB0-51B48ED36B5F

  Build configuration of the current instance of FHI-aims
  -------------------------------------------------------
  FHI-aims version      : 260331
  Commit number         : GITDIR-NOTFOUND
  CMake host system     : Linux-4.18.0-553.97.1.el8_10.x86_64
  CMake version         : 3.31.6
  OS Distribution       : Rocky Linux 8.10 (Green Obsidian)
  Built on              : Intel(R) Xeon(R) w5-3435X
  Fortran compiler      : /mnt/sw/nix/store/pa59vldasm7gxpr7dkijhk09q5qq63q1-openmpi-4.1.8/bin/mpifort (GNU) version 13.3.0
  Fortran compiler flags: -O2 -fallow-argument-mismatch -ffree-line-length-none
  C compiler            : /mnt/sw/nix/store/pa59vldasm7gxpr7dkijhk09q5qq63q1-openmpi-4.1.8/bin/mpicc (GNU) version 13.3.0
  C compiler flags      : -O2
  C++ compiler          : /mnt/sw/nix/store/pa59vldasm7gxpr7dkijhk09q5qq63q1-openmpi-4.1.8/bin/mpicxx (GNU) version 13.3.0
  C++ compiler flags    : -O2
  HIP compiler          :
  HIP compiler flags    :
  HIP GPU arch          :
  Using MPI
  Using ScaLAPACK
  Using LibXC
  Using i-PI
  Using RLSY
  Using GREENX
  Linking against: /mnt/sw/nix/store/dwd607jzx9m5bdd100br72s3b6g05zrf-intel-oneapi-mkl-2024.2.2/mkl/2024.2/lib/libmkl_intel_lp64.so
                   /mnt/sw/nix/store/dwd607jzx9m5bdd100br72s3b6g05zrf-intel-oneapi-mkl-2024.2.2/mkl/2024.2/lib/libmkl_sequential.so
                   /mnt/sw/nix/store/dwd607jzx9m5bdd100br72s3b6g05zrf-intel-oneapi-mkl-2024.2.2/mkl/2024.2/lib/libmkl_core.so
                   /mnt/sw/nix/store/dwd607jzx9m5bdd100br72s3b6g05zrf-intel-oneapi-mkl-2024.2.2/mkl/2024.2/lib/libmkl_blacs_openmpi_lp64.so
                   /mnt/sw/nix/store/dwd607jzx9m5bdd100br72s3b6g05zrf-intel-oneapi-mkl-2024.2.2/mkl/2024.2/lib/libmkl_scalapack_lp64.so

  Using       64 parallel tasks.
  Task        0 on host worker6090 reporting.
  Task        1 on host worker6090 reporting.
  Task        2 on host worker6090 reporting.
  Task        3 on host worker6090 reporting.
  Task        4 on host worker6090 reporting.
  Task        5 on host worker6090 reporting.
  Task        6 on host worker6090 reporting.
  Task        7 on host worker6090 reporting.
  Task        8 on host worker6090 reporting.
  Task        9 on host worker6090 reporting.
  Task       10 on host worker6090 reporting.
  Task       11 on host worker6090 reporting.
  Task       12 on host worker6090 reporting.
  Task       13 on host worker6090 reporting.
  Task       14 on host worker6090 reporting.
  Task       15 on host worker6090 reporting.
  Task       16 on host worker6090 reporting.
  Task       17 on host worker6090 reporting.
  Task       18 on host worker6090 reporting.
  Task       19 on host worker6090 reporting.
  Task       20 on host worker6090 reporting.
  Task       21 on host worker6090 reporting.
  Task       22 on host worker6090 reporting.
  Task       23 on host worker6090 reporting.
  Task       24 on host worker6090 reporting.
  Task       25 on host worker6090 reporting.
  Task       26 on host worker6090 reporting.
  Task       27 on host worker6090 reporting.
  Task       28 on host worker6090 reporting.
  Task       29 on host worker6090 reporting.
  Task       30 on host worker6090 reporting.
  Task       31 on host worker6090 reporting.
  Task       32 on host worker6158 reporting.
  Task       33 on host worker6158 reporting.
  Task       34 on host worker6158 reporting.
  Task       35 on host worker6158 reporting.
  Task       36 on host worker6158 reporting.
  Task       37 on host worker6158 reporting.
  Task       38 on host worker6158 reporting.
  Task       39 on host worker6158 reporting.
  Task       40 on host worker6158 reporting.
  Task       41 on host worker6158 reporting.
  Task       42 on host worker6158 reporting.
  Task       43 on host worker6158 reporting.
  Task       44 on host worker6158 reporting.
  Task       45 on host worker6158 reporting.
  Task       46 on host worker6158 reporting.
  Task       47 on host worker6158 reporting.
  Task       48 on host worker6158 reporting.
  Task       49 on host worker6158 reporting.
  Task       50 on host worker6158 reporting.
  Task       51 on host worker6158 reporting.
  Task       52 on host worker6158 reporting.
  Task       53 on host worker6158 reporting.
  Task       54 on host worker6158 reporting.
  Task       55 on host worker6158 reporting.
  Task       56 on host worker6158 reporting.
  Task       57 on host worker6158 reporting.
  Task       58 on host worker6158 reporting.
  Task       59 on host worker6158 reporting.
  Task       60 on host worker6158 reporting.
  Task       61 on host worker6158 reporting.
  Task       62 on host worker6158 reporting.
  Task       63 on host worker6158 reporting.

  Obtaining array dimensions for all initial allocations:
  
  -----------------------------------------------------------------------
  Parsing control.in (first pass over file, find array dimensions only).
  The contents of control.in will be repeated verbatim below
  unless switched off by setting 'verbatim_writeout .false.' .
  in the first line of control.in .
  -----------------------------------------------------------------------
  
  override_warning_libxc             True
  xc                                 libxc MGGA_X_R2SCAN+MGGA_C_R2SCAN
  spin                               none
  charge                             0
  
  relativistic                       atomic_zora scalar
  atomic_solver_xc                   pbe
  ionic_solver_xc                    pbe
  
  occupation_type                    gaussian 0.01
  
  sc_accuracy_rho                    1e-06
  sc_accuracy_eev                    1e-03
  sc_accuracy_etot                   1e-06
  occupation_acc                     1e-09
  
  charge_mix_param                   0.1
  n_max_pulay                        8
  max_zeroin                         20000
  
  # Species defaults for H
  ################################################################################
  #
  #  FHI-aims code project
  #  Volker Blum, Fritz Haber Institute Berlin, 2009
  #
  #  Suggested "tight" defaults for H atom (to be pasted into control.in file)
  #
  ################################################################################
    species        H
  #     global species definitions
      nucleus             1
      mass                1.00794
  #
      l_hartree           6
  #
      cut_pot             4.0  2.0  1.0
      basis_dep_cutoff    1e-4
  #
      radial_base         24 7.0
      radial_multiplier   2
      angular_grids       specified
        division   0.1930   50
        division   0.3175  110
        division   0.4293  194
        division   0.5066  302
        division   0.5626  434
  #      division   0.5922  590
  #      division   0.6227  974
  #      division   0.6868 1202
  #      outer_grid  770
        outer_grid  434
  ################################################################################
  #
  #  Definition of "minimal" basis
  #
  ################################################################################
  #     valence basis states
      valence      1  s   1.
  #     ion occupancy
      ion_occ      1  s   0.5
  ################################################################################
  #
  #  Suggested additional basis functions. For production calculations,
  #  uncomment them one after another (the most important basis functions are
  #  listed first).
  #
  #  Basis constructed for dimers: 0.5 A, 0.7 A, 1.0 A, 1.5 A, 2.5 A
  #
  ################################################################################
  #  "First tier" - improvements: -1014.90 meV to -62.69 meV
       hydro 2 s 2.1
       hydro 2 p 3.5
  #  "Second tier" - improvements: -12.89 meV to -1.83 meV
       hydro 1 s 0.85
       hydro 2 p 3.7
       hydro 2 s 1.2
       hydro 3 d 7
  #  "Third tier" - improvements: -0.25 meV to -0.12 meV
  #     hydro 4 f 11.2
  #     hydro 3 p 4.8
  #     hydro 4 d 9
  #     hydro 3 s 3.2
  ################################################################################
  #
  # For methods that use the localized form of the "resolution of identity" for
  # the two-electron Coulomb operator (RI_method LVL), particularly Hartree-Fock and
  # hybrid density functional calculations, the highest accuracy can be obtained by
  # uncommenting the line beginning with "for_aux"  below, thus adding an extra g radial
  # function to the construction of the product basis set for the expansion.
  # See Ref. New J. Phys. 17, 093020 (2015) for more information, particularly Figs. 1 and 6.
  #
  ################################################################################
  #
  # for_aux hydro 5 g 6.0
  
  # Species defaults for Al
  ################################################################################
  #
  #  FHI-aims code project
  #  Volker Blum, Fritz Haber Institute Berlin, 2009
  #
  #  Suggested "tight" defaults for Al atom (to be pasted into control.in file)
  #
  #  Revised June 14, 2011.
  #     d and g functions of tier 2 now enabled by default.
  #     This is in line with Si-Cl (same period).
  #
  ################################################################################
    species        Al
  #     global species definitions
      nucleus             13
      mass                26.9815386
  #
      l_hartree           6
  #
      cut_pot             4.0          2.0  1.0
      basis_dep_cutoff    1e-4
  #
      radial_base         41 7.0
      radial_multiplier   2
      angular_grids       specified
        division   0.6594  110
        division   0.8170  194
        division   0.9059  302
        division   1.0363  434
  #      division   1.1443  590
  #      division   1.2621  770
  #      division   2.8177  974
  #      outer_grid   974
        outer_grid  434
  ################################################################################
  #
  #  Definition of "minimal" basis
  #
  ################################################################################
  #     valence basis states
      valence      3  s   2.
      valence      3  p   1.
  #     ion occupancy
      ion_occ      3  s   1.
      ion_occ      2  p   6.
  ################################################################################
  #
  #  Suggested additional basis functions. For production calculations,
  #  uncomment them one after another (the most important basis functions are
  #  listed first).
  #
  #  Constructed for dimers: 2.0 A, 2.5 A, 3.0 A, 3.75 A, 4.5 A
  #
  ################################################################################
  #  "First tier" - improvements: -199.47 meV to -10.63 meV
       ionic 3 d auto
       ionic 3 p auto
       hydro 4 f 4.7
       ionic 3 s auto
  #  "Second tier" - improvements: -5.35 meV to -1.57 meV
       hydro 5 g 7
       hydro 3 d 6
  #     hydro 2 s 11.6
  #     hydro 2 p 0.9
  #  "Third tier" - improvements: -0.63 meV to -0.20 meV
  #     hydro 5 f 7.6
  #     hydro 4 p 7.2
  #     hydro 4 s 3.7
  #     hydro 4 d 7.6
  #  "Fourth tier" - improvements: -0.17 meV to -0.08 meV
  #     hydro 4 d 13.6
  #     hydro 5 g 11.2
  #     hydro 4 d 0.9
  #     hydro 1 s 0.4
  #     hydro 4 p 0.1
  #     hydro 5 f 9.8
  #  Further basis functions that fell out of the optimization - noise level...
  #     hydro 4 p 5
  
  ################################################################################
  #
  # For methods that use the localized form of the "resolution of identity" for
  # the two-electron Coulomb operator (RI_method LVL), particularly Hartree-Fock and
  # hybrid density functional calculations, the highest accuracy can be obtained by
  # uncommenting the line beginning with "for_aux"  below, thus adding an extra g radial
  # function to the construction of the product basis set for the expansion.
  # See Ref. New J. Phys. 17, 093020 (2015) for more information, particularly Figs. 1 and 6.
  #
  ################################################################################
  #
  # for_aux hydro 5 g 6.0
  
  # Species defaults for P
  ################################################################################
  #
  #  FHI-aims code project
  #  Volker Blum, Fritz Haber Institute Berlin, 2010
  #
  #  Suggested "tight" defaults for P atom (to be pasted into control.in file)
  #
  #  Revised Jan 04, 2011, following tests (SiC) done by Lydia Nemec:
  #     d function of tier 2 now enabled by default.
  #
  ################################################################################
    species        P
  #     global species definitions
      nucleus             15
      mass                30.973762
  #
      l_hartree           6
  #
      cut_pot             4.0          2.0  1.0
      basis_dep_cutoff    1e-4
  #
      radial_base         43 7.0
      radial_multiplier   2
      angular_grids       specified
        division   0.2995   50
        division   0.5998  110
        division   0.9240  194
        division   1.0921  302
        division   1.2863  434
  #      division   1.3165  590
  #      division   1.4113  770
  #      division   1.5128  974
  #      division   2.4980 1202
        outer_grid  434
  ################################################################################
  #
  #  Definition of "minimal" basis
  #
  ################################################################################
  #     valence basis states
      valence      3  s   2.
      valence      3  p   3.
  #     ion occupancy
      ion_occ      3  s   1.
      ion_occ      3  p   2.
  ################################################################################
  #
  #  Suggested additional basis functions. For production calculations,
  #  uncomment them one after another (the most important basis functions are
  #  listed first).
  #
  #  Constructed for dimers: 1.625 A, 1.875 A, 2.5 A, 3.25 A, 4.0 A
  #
  ################################################################################
  #  "First tier" - improvements: -726.20 meV to -35.91 meV
       ionic 3 d auto
       ionic 3 p auto
       hydro 4 f 6.2
       hydro 5 g 8.6
       ionic 3 s auto
  #  "Second tier" - improvements: -16.02 meV to -1.71 meV
       hydro 4 d 6.2
  #     hydro 4 p 9.2
  #     hydro 5 f 9.8
  #     hydro 1 s 0.7
  #     hydro 5 g 13.2
  #  "Third tier" - improvements: -1.82 meV to -0.20 meV
  #     hydro 3 p 2.5
  #     hydro 4 d 6.4
  #     hydro 5 f 11.2
  #     hydro 2 s 1.5
  #  "Fourth tier" - improvements: -0.91 meV to -0.17 meV
  #     hydro 3 d 16.8
  #     hydro 5 g 18
  #     hydro 4 p 4.5
  #     hydro 3 s 2.1
  #  Further basis functions that fell out of the optimization - < -0.09 meV
  #     hydro 4 p 10.4
  #     hydro 4 d 17.6
  #     hydro 4 s 11.2
  ################################################################################
  #
  # For methods that use the localized form of the "resolution of identity" for
  # the two-electron Coulomb operator (RI_method LVL), particularly Hartree-Fock and
  # hybrid density functional calculations, the highest accuracy can be obtained by
  # uncommenting the line beginning with "for_aux"  below, thus adding an extra g radial
  # function to the construction of the product basis set for the expansion.
  # See Ref. New J. Phys. 17, 093020 (2015) for more information, particularly Figs. 1 and 6.
  #
  ################################################################################
  #
  # for_aux hydro 5 g 6.0
  
  -----------------------------------------------------------------------
  Completed first pass over input file control.in .
  -----------------------------------------------------------------------
  
  
  -----------------------------------------------------------------------
  Parsing geometry.in (first pass over file, find array dimensions only).
  The contents of geometry.in will be repeated verbatim below
  unless switched off by setting 'verbatim_writeout .false.' .
  in the first line of geometry.in .
  -----------------------------------------------------------------------
  
  #===============================================================================
  # Created using the Atomic Simulation Environment (ASE)
  
  # Wed Aug  5 16:59:47 2026
  
  #=======================================================
  atom -0.0000010789173299 0.0000037762106547 1.3799999999944115 Al
  atom 0.0000010789173299 -0.0000037762106547 -1.3799999999944115 P
  atom 0.0000029210826701 1.5752487762106548 1.5579899999944118 H
  atom -1.3641890789173299 -0.7876022237893453 1.5581759999944116 H
  atom 1.3641819210826700 -0.7876102237893453 1.5581809999944114 H
  atom 0.0000050789173299 -1.2253807762106548 -2.0623019999944114 H
  atom -1.0612439210826698 0.6127482237893453 -2.0621809999944114 H
  atom 1.0612350789173302 0.6127602237893452 -2.0621869999944118 H
  
  -----------------------------------------------------------------------
  Completed first pass over input file geometry.in .
  -----------------------------------------------------------------------
  

  Basic array size parameters:
  | Number of species                 :        3
  | Number of atoms                   :        8
  | Max. basis fn. angular momentum   :        4
  | Max. atomic/ionic basis occupied n:        3
  | Max. number of basis fn. types    :        3
  | Max. radial fns per species/type  :        6
  | Max. logarithmic grid size        :     1352
  | Max. radial integration grid size :       87
  | Max. angular integration grid size:      434
  | Max. angular grid division number :        8
  | Radial grid for Hartree potential :     1352
  | Number of spin channels           :        1

  Definition of standardized fundamental physical constants in this FHI-aims run:
  | Using the set of values used in FHI-aims up to 2024, which combines values from
  | different CODATA sets - see constants.f90.
  | Use the 'codata' keyword in control.in to change this selection.

  Memory overcommitment is allowed on your operating system.

------------------------------------------------------------
          Reading file control.in.
------------------------------------------------------------
  XC: Using LibXC. Please refer to LibXC output for further details.
  Using libxc - Initializing
  Libxc version: 6.1.0

  You have selected libxc functional MGGA_X_R2SCAN (497)
    - Description: Re-regularized SCAN exchange by Furness et al
    - Type: MGGA(Exchange)
    - Using the following   6 external libxc parameters:
               _c1 = 0.667000000000D+00  (c1 parameter)
               _c2 = 0.800000000000D+00  (c2 parameter)
                _d = 0.124000000000D+01  (d parameter)
               _k1 = 0.650000000000D-01  (k1 parameter)
              _eta = 0.100000000000D-02  (eta parameter)
              _dp2 = 0.361000000000D+00  (dp2 parameter)
    - Reference to Literature:
      [1] J. W. Furness, A. D. Kaplan, J. Ning, J. P. Perdew, and J. Sun.,  J. Phys. Chem. Lett. 11, 8208-8215 (2020)
      [2] J. W. Furness, A. D. Kaplan, J. Ning, J. P. Perdew, and J. Sun.,  J. Phys. Chem. Lett. 11, 9248-9248 (2020)

  You have selected libxc functional MGGA_C_R2SCAN (498)
    - Description: Re-regularized SCAN correlation by Furness et al
    - Type: MGGA(Correlation)
    - Using the following   1 external libxc parameters:
              _eta = 0.100000000000D-02  (Regularization parameter)
    - Reference to Literature:
      [1] J. W. Furness, A. D. Kaplan, J. Ning, J. P. Perdew, and J. Sun.,  J. Phys. Chem. Lett. 11, 8208-8215 (2020)
      [2] J. W. Furness, A. D. Kaplan, J. Ning, J. P. Perdew, and J. Sun.,  J. Phys. Chem. Lett. 11, 9248-9248 (2020)

  Switching on meta-ggas
  Spin treatment: No spin polarisation.
  Charge =   0.000000E+00: Neutral system requested explicitly.
  Scalar relativistic treatment of kinetic energy: on-site free-atom approximation to ZORA.
  Atomic Solver XC: Using user-defined functional for generating the minimal NAO basis functions.
  Note that only the following functionals are available: kli, pz-lda, pw-lda, vwn, vwn-gauss, pw91_gga, pbe, rpbe, revpbe, pbeint, pbesol, blyp.
  Ionic Solver XC: Using user-defined functional for generating the minimal NAO basis functions.
  Note that only the following functionals are available: kli, pz-lda, pw-lda, vwn, vwn-gauss, pw91_gga, pbe, rpbe, revpbe, pbeint, pbesol, blyp.
  Occupation type: Gaussian broadening, width =   0.100000E-01 eV.
  Convergence accuracy of self-consistent charge density:  0.1000E-05
  Convergence accuracy of sum of eigenvalues:  0.1000E-02
  Convergence accuracy of total energy:  0.1000E-05
  Accuracy of occupation numbers  :  0.1000E-08
  Charge density mixing - mixing parameter:     0.1000
  Pulay mixing - number of memorized iterations:    8
  Maximum # of zeroin steps  : ****

  Reading configuration options for species H                   .
  | Found nuclear charge :   1.0000
  | Found atomic mass :    1.0079400000000001      amu
  | Found l_max for Hartree potential  :   6
  | Found cutoff potl. onset [A], width [A], scale factor :    4.00000    2.00000    1.00000
  | Threshold for basis-dependent cutoff potential is   0.100000E-03
  | Found data for basic radial integration grid :    24 points, outermost radius =    7.000 A
  | Found multiplier for basic radial grid :   2
  | Found angular grid specification: user-specified.
  | Specified grid contains     6 separate shells.
  | Check grid settings after all constraints further below.
  | Found free-atom valence shell :  1 s   1.000
  | Found free-ion valence shell :  1 s   0.500
  | Found hydrogenic basis function :  2 s   2.100
  | Found hydrogenic basis function :  2 p   3.500
  | Found hydrogenic basis function :  1 s   0.850
  | Found hydrogenic basis function :  2 p   3.700
  | Found hydrogenic basis function :  2 s   1.200
  | Found hydrogenic basis function :  3 d   7.000
 | Encountered keyword species, ending the description of species H                   .
  Species H                   : Missing cutoff potential type.
  Defaulting to exp(1/x)/(1-x)^2 type cutoff potential.
  Species H : No 'logarithmic' tag. Using default grid for free atom:
  | Default logarithmic grid data [bohr] : 0.1000E-03 0.1000E+03 0.1012E+01
  Species H : On-site basis accuracy parameter (for Gram-Schmidt orthonormalisation) not specified.
  Using default value basis_acc =  0.1000000E-03.
  Species H                   : Using default innermost maximum threshold i_radial=  2 for radial functions.
  Species H                   : Default cutoff onset for free atom density etc. : 0.40000000E+01 AA.
  Species H                   : Basic radial grid will be enhanced according to radial_multiplier =   2, to contain    49 grid points.

  Reading configuration options for species Al                  .
  | Found nuclear charge :  13.0000
  | Found atomic mass :    26.981538600000000      amu
  | Found l_max for Hartree potential  :   6
  | Found cutoff potl. onset [A], width [A], scale factor :    4.00000    2.00000    1.00000
  | Threshold for basis-dependent cutoff potential is   0.100000E-03
  | Found data for basic radial integration grid :    41 points, outermost radius =    7.000 A
  | Found multiplier for basic radial grid :   2
  | Found angular grid specification: user-specified.
  | Specified grid contains     5 separate shells.
  | Check grid settings after all constraints further below.
  | Found free-atom valence shell :  3 s   2.000
  | Found free-atom valence shell :  3 p   1.000
  | Found free-ion valence shell :  3 s   1.000
  | Found free-ion valence shell :  2 p   6.000
  | Found ionic basis function :  3 d , default cutoff radius.
  | Found ionic basis function :  3 p , default cutoff radius.
  | Found hydrogenic basis function :  4 f   4.700
  | Found ionic basis function :  3 s , default cutoff radius.
  | Found hydrogenic basis function :  5 g   7.000
  | Found hydrogenic basis function :  3 d   6.000
 | Encountered keyword species, ending the description of species Al                  .
  Species Al                  : Missing cutoff potential type.
  Defaulting to exp(1/x)/(1-x)^2 type cutoff potential.
  Species Al: No 'logarithmic' tag. Using default grid for free atom:
  | Default logarithmic grid data [bohr] : 0.1000E-03 0.1000E+03 0.1012E+01
  | Will include ionic basis functions of  2.0-fold positive Al                   ion.
  Species Al: On-site basis accuracy parameter (for Gram-Schmidt orthonormalisation) not specified.
  Using default value basis_acc =  0.1000000E-03.
  Species Al                  : Using default innermost maximum threshold i_radial=  2 for radial functions.
  Species Al                  : Default cutoff onset for free atom density etc. : 0.40000000E+01 AA.
  Species Al                  : Basic radial grid will be enhanced according to radial_multiplier =   2, to contain    83 grid points.

  Reading configuration options for species P                   .
  | Found nuclear charge :  15.0000
  | Found atomic mass :    30.973762000000001      amu
  | Found l_max for Hartree potential  :   6
  | Found cutoff potl. onset [A], width [A], scale factor :    4.00000    2.00000    1.00000
  | Threshold for basis-dependent cutoff potential is   0.100000E-03
  | Found data for basic radial integration grid :    43 points, outermost radius =    7.000 A
  | Found multiplier for basic radial grid :   2
  | Found angular grid specification: user-specified.
  | Specified grid contains     6 separate shells.
  | Check grid settings after all constraints further below.
  | Found free-atom valence shell :  3 s   2.000
  | Found free-atom valence shell :  3 p   3.000
  | Found free-ion valence shell :  3 s   1.000
  | Found free-ion valence shell :  3 p   2.000
  | Found ionic basis function :  3 d , default cutoff radius.
  | Found ionic basis function :  3 p , default cutoff radius.
  | Found hydrogenic basis function :  4 f   6.200
  | Found hydrogenic basis function :  5 g   8.600
  | Found ionic basis function :  3 s , default cutoff radius.
  | Found hydrogenic basis function :  4 d   6.200
  Species P                   : Missing cutoff potential type.
  Defaulting to exp(1/x)/(1-x)^2 type cutoff potential.
  Species P : No 'logarithmic' tag. Using default grid for free atom:
  | Default logarithmic grid data [bohr] : 0.1000E-03 0.1000E+03 0.1012E+01
  | Will include ionic basis functions of  2.0-fold positive P                    ion.
  Species P : On-site basis accuracy parameter (for Gram-Schmidt orthonormalisation) not specified.
  Using default value basis_acc =  0.1000000E-03.
  Species P                   : Using default innermost maximum threshold i_radial=  2 for radial functions.
  Species P                   : Default cutoff onset for free atom density etc. : 0.40000000E+01 AA.
  Species P                   : Basic radial grid will be enhanced according to radial_multiplier =   2, to contain    87 grid points.

  Finished reading input file 'control.in'.

------------------------------------------------------------


------------------------------------------------------------
          Reading geometry description geometry.in.
------------------------------------------------------------
  | The smallest distance between any two atoms is         1.40252502 AA.
  | The first atom of this pair is atom number                      2 .
  | The second atom of this pair is atom number                     8 .
  Input structure read successfully.
  The structure contains        8 atoms,  and a total of         34.000 electrons.

  Input geometry:
  | No unit cell requested.
  | Atomic structure:
  |       Atom                x [A]            y [A]            z [A]
  |    1: Species Al           -0.00000108        0.00000378        1.38000000
  |    2: Species P             0.00000108       -0.00000378       -1.38000000
  |    3: Species H             0.00000292        1.57524878        1.55799000
  |    4: Species H            -1.36418908       -0.78760222        1.55817600
  |    5: Species H             1.36418192       -0.78761022        1.55818100
  |    6: Species H             0.00000508       -1.22538078       -2.06230200
  |    7: Species H            -1.06124392        0.61274822       -2.06218100
  |    8: Species H             1.06123508        0.61276022       -2.06218700

  Slab Identifier: This is not a periodic structure.

  Finished reading input file 'geometry.in'.



  Consistency checks for stacksize environment parameter are next.

  | Maximum stacksize for task 0: unlimited
  | Maximum stacksize for task 1: unlimited
  | Maximum stacksize for task 2: unlimited
  | Maximum stacksize for task 3: unlimited
  | Maximum stacksize for task 4: unlimited
  | Maximum stacksize for task 5: unlimited
  | Maximum stacksize for task 6: unlimited
  | Maximum stacksize for task 7: unlimited
  | Maximum stacksize for task 8: unlimited
  | Maximum stacksize for task 9: unlimited
  | Maximum stacksize for task 10: unlimited
  | Maximum stacksize for task 11: unlimited
  | Maximum stacksize for task 12: unlimited
  | Maximum stacksize for task 13: unlimited
  | Maximum stacksize for task 14: unlimited
  | Maximum stacksize for task 15: unlimited
  | Maximum stacksize for task 16: unlimited
  | Maximum stacksize for task 17: unlimited
  | Maximum stacksize for task 18: unlimited
  | Maximum stacksize for task 19: unlimited
  | Maximum stacksize for task 20: unlimited
  | Maximum stacksize for task 21: unlimited
  | Maximum stacksize for task 22: unlimited
  | Maximum stacksize for task 23: unlimited
  | Maximum stacksize for task 24: unlimited
  | Maximum stacksize for task 25: unlimited
  | Maximum stacksize for task 26: unlimited
  | Maximum stacksize for task 27: unlimited
  | Maximum stacksize for task 28: unlimited
  | Maximum stacksize for task 29: unlimited
  | Maximum stacksize for task 30: unlimited
  | Maximum stacksize for task 31: unlimited
  | Maximum stacksize for task 32: unlimited
  | Maximum stacksize for task 33: unlimited
  | Maximum stacksize for task 34: unlimited
  | Maximum stacksize for task 35: unlimited
  | Maximum stacksize for task 36: unlimited
  | Maximum stacksize for task 37: unlimited
  | Maximum stacksize for task 38: unlimited
  | Maximum stacksize for task 39: unlimited
  | Maximum stacksize for task 40: unlimited
  | Maximum stacksize for task 41: unlimited
  | Maximum stacksize for task 42: unlimited
  | Maximum stacksize for task 43: unlimited
  | Maximum stacksize for task 44: unlimited
  | Maximum stacksize for task 45: unlimited
  | Maximum stacksize for task 46: unlimited
  | Maximum stacksize for task 47: unlimited
  | Maximum stacksize for task 48: unlimited
  | Maximum stacksize for task 49: unlimited
  | Maximum stacksize for task 50: unlimited
  | Maximum stacksize for task 51: unlimited
  | Maximum stacksize for task 52: unlimited
  | Maximum stacksize for task 53: unlimited
  | Maximum stacksize for task 54: unlimited
  | Maximum stacksize for task 55: unlimited
  | Maximum stacksize for task 56: unlimited
  | Maximum stacksize for task 57: unlimited
  | Maximum stacksize for task 58: unlimited
  | Maximum stacksize for task 59: unlimited
  | Maximum stacksize for task 60: unlimited
  | Maximum stacksize for task 61: unlimited
  | Maximum stacksize for task 62: unlimited
  | Maximum stacksize for task 63: unlimited
  | Current stacksize for task 0: unlimited
  | Current stacksize for task 1: unlimited
  | Current stacksize for task 2: unlimited
  | Current stacksize for task 3: unlimited
  | Current stacksize for task 4: unlimited
  | Current stacksize for task 5: unlimited
  | Current stacksize for task 6: unlimited
  | Current stacksize for task 7: unlimited
  | Current stacksize for task 8: unlimited
  | Current stacksize for task 9: unlimited
  | Current stacksize for task 10: unlimited
  | Current stacksize for task 11: unlimited
  | Current stacksize for task 12: unlimited
  | Current stacksize for task 13: unlimited
  | Current stacksize for task 14: unlimited
  | Current stacksize for task 15: unlimited
  | Current stacksize for task 16: unlimited
  | Current stacksize for task 17: unlimited
  | Current stacksize for task 18: unlimited
  | Current stacksize for task 19: unlimited
  | Current stacksize for task 20: unlimited
  | Current stacksize for task 21: unlimited
  | Current stacksize for task 22: unlimited
  | Current stacksize for task 23: unlimited
  | Current stacksize for task 24: unlimited
  | Current stacksize for task 25: unlimited
  | Current stacksize for task 26: unlimited
  | Current stacksize for task 27: unlimited
  | Current stacksize for task 28: unlimited
  | Current stacksize for task 29: unlimited
  | Current stacksize for task 30: unlimited
  | Current stacksize for task 31: unlimited
  | Current stacksize for task 32: unlimited
  | Current stacksize for task 33: unlimited
  | Current stacksize for task 34: unlimited
  | Current stacksize for task 35: unlimited
  | Current stacksize for task 36: unlimited
  | Current stacksize for task 37: unlimited
  | Current stacksize for task 38: unlimited
  | Current stacksize for task 39: unlimited
  | Current stacksize for task 40: unlimited
  | Current stacksize for task 41: unlimited
  | Current stacksize for task 42: unlimited
  | Current stacksize for task 43: unlimited
  | Current stacksize for task 44: unlimited
  | Current stacksize for task 45: unlimited
  | Current stacksize for task 46: unlimited
  | Current stacksize for task 47: unlimited
  | Current stacksize for task 48: unlimited
  | Current stacksize for task 49: unlimited
  | Current stacksize for task 50: unlimited
  | Current stacksize for task 51: unlimited
  | Current stacksize for task 52: unlimited
  | Current stacksize for task 53: unlimited
  | Current stacksize for task 54: unlimited
  | Current stacksize for task 55: unlimited
  | Current stacksize for task 56: unlimited
  | Current stacksize for task 57: unlimited
  | Current stacksize for task 58: unlimited
  | Current stacksize for task 59: unlimited
  | Current stacksize for task 60: unlimited
  | Current stacksize for task 61: unlimited
  | Current stacksize for task 62: unlimited
  | Current stacksize for task 63: unlimited

  Consistency checks for the contents of control.in are next.

  MPI_IN_PLACE appears to work with this MPI implementation.
  | Keeping use_mpi_in_place .true. (see manual).
  Target number of points in a grid batch is not set. Defaulting to  100
  Method for grid partitioning is not set. Defaulting to parallel hash+maxmin partitioning.
  Batch size limit is not set. Defaulting to    200
  By default, will store active basis functions for each batch.
  If in need of memory, prune_basis_once .false. can be used to disable this option.
  communication_type for Hartree potential was not specified.
  Defaulting to calc_hartree .
  Defaulting to Pulay charge density mixer.
  Pulay mixer: Number of initial linear mixing iterations not set.
  Defaulting to    0 iterations.
  Work space size for distributed Hartree potential not set.
  Defaulting to   0.200000E+03 MB.
  Algorithm-dependent basis array size parameters:
  | n_max_pulay                         :        8
  Maximum number of self-consistency iterations not provided.
  Presetting  1000 iterations.
  Presetting      1001 iterations before the initial mixing cycle
  is restarted anyway using the sc_init_iter criterion / keyword.
  Presetting a factor      1.000 between actual scf density residual
  and density convergence criterion sc_accuracy_rho below which sc_init_iter
  takes no effect.
  Calculation of forces was not defined in control.in. No forces will be calculated.
  Geometry relaxation not requested: no relaxation will be performed.
  No accuracy limit for integral partition fn. given. Defaulting to  0.1000E-14.
  No threshold value for u(r) in integrations given. Defaulting to  0.1000E-05.
  No threshold value for occupation numbers given. Defaulting to  0.0000E+00.
  No accuracy for fermi level given. Defaulting to  0.1000E-19.
  Preferred method for the eigenvalue solver ('KS_method') not specified in 'control.in'.
  Calling BLACS routine to test compilation state
  Since ScaLAPACK support is enabled, defaulting to ELPA (via ELSI).
  Threshold for basis singularities not set.
  Default threshold for basis singularities:  0.1000E-04
  partition_type (choice of integration weights) for integrals was not specified.
  | Using a version of the partition function of Stratmann and coworkers ('stratmann_sparse').
  | At each grid point, the set of atoms used to build the partition table is smoothly restricted to
  | only those atoms whose free-atom density would be non-zero at that grid point.
  Partitioning for Hartree potential was not defined. Using partition_type for integrals.
  | Adjusted default value of keyword multip_moments_threshold to:       0.10000000E-11
  | This value may affect high angular momentum components of the Hartree potential in periodic systems.
  No q(lm)/r^(l+1) cutoff set for long-range Hartree potential.
  | Using default value of  0.100000E-09 .
  | Verify using the multipole_threshold keyword.
  Defaulting to new monopole extrapolation.
  Density update method: automatic selection selected.
  Charge integration errors on the 3D integration grid will be compensated
  by explicit normalization and distribution of residual charges.
  Use the "compensate_multipole_errors" flag to change this behaviour.
  Set 'collect_eigenvectors' to be '.true.' for use_density_matrix .false.
  Found potential conflicts with setting 'use_local_index' for this calculation. Will not set it.
** WARNING:

  You have specified the use of LibXC.

  ** PLEASE ** be careful using LibXC. Whilst most of the LDA, GGA and MGGA
  functionals, and hybrid variations therein, should be stable (though we
  always recommend testing!), there are several fancy functionals with e.g.
  range-separation, like HSE03/HSE06/LC-PBEh, and also MGGA functionals
  that depend on the laplacian of the density, like BR89, that are not
  fully implemented due to the infrastructure for these functionals being
  incomplete or non-generic.
  If you want to use these functionals please contact the development team
  and we will work on them with you!

** END OF WARNING

  Consistency checks for the contents of geometry.in are next.

  Number of empty states per atom not set in control.in - providing a guess from actual geometry.
  | Total number of empty states used during s.c.f. cycle:       15
  If you use a very high smearing, use empty_states (per atom!) in control.in to increase this value.

  Structure-dependent array size parameters: 
  | Maximum number of distinct radial functions  :       29
  | Maximum number of basis functions            :      168
  | Number of Kohn-Sham states (occupied + empty):       32
------------------------------------------------------------
  After read_input_data [GB]:   1008.43

  Performing system and environment tests:
  | Environment variable OMP_NUM_THREADS correctly set to 1.
  | Checking for ScaLAPACK...
  | Testing pdtran()...
  *** WARNING: CPU mismatch detected for Node worker6158 : Intel(R) Xeon(R) Platinum 8362 CPU @ 2.80GHz                                                 
  | All pdtran() tests passed.
  | Testing CPU compatibility for run-time vs. build-time.
  | Reading /proc/cpuinfo for CPU information ...
  | Built for  : Intel(R) Xeon(R) w5-3435X
  *** WARNING: CPU mismatch detected for Node worker6090 : Intel(R) Xeon(R) Platinum 8362 CPU @ 2.80GHz                                                 
** WARNING:
  | WARNING: This FHI-aims executable was built on a different
  CPU type than the CPUs used in this run.

  | Running on different hardware than that on which a code was compiled
  | can produce incorrect results (wrong numbers) due to architecture-specific
  | optimizations made by the compiler. Those wrong numbers may occur only spuriously.
  | They are therefore very difficult to rule out even by tests ahead of time.

** END OF WARNING
  | Running on : Intel(R) Xeon(R) Platinum 8362 CPU @ 2.80GHz
  | Runtime CPU compatibility verified.
  
  After prepare_system [GB]:   1008.41

------------------------------------------------------------
          Preparing all fixed parts of the calculation.
------------------------------------------------------------
  Determining machine precision:
     2.2250738585072014E-308
  Setting up grids for atomic and cluster calculations.

  Creating wave function, potential, and density for free atoms.
  Runtime choices for atomic solver:
  | atomic solver xc        : PBE
  | compute density gradient: 1
  | compute kinetic density : T

  Species: H

  List of occupied orbitals and eigenvalues:
    n    l              occ      energy [Ha]    energy [eV]
    1    0           1.0000        -0.238386        -6.4868


  Species: Al

  List of occupied orbitals and eigenvalues:
    n    l              occ      energy [Ha]    energy [eV]
    1    0           2.0000       -55.632680     -1513.8422
    2    0           2.0000        -3.968002      -107.9748
    3    0           2.0000        -0.279583        -7.6079
    2    1           6.0000        -2.551946       -69.4420
    3    1           1.0000        -0.093244        -2.5373


  Species: P

  List of occupied orbitals and eigenvalues:
    n    l              occ      energy [Ha]    energy [eV]
    1    0           2.0000       -76.790257     -2089.5692
    2    0           2.0000        -6.393895      -173.9867
    3    0           2.0000        -0.512112       -13.9353
    2    1           6.0000        -4.574086      -124.4672
    3    1           3.0000        -0.201148        -5.4735


  Adding cutoff potential to free-atom effective potential.
  Creating fixed part of basis set: Ionic, confined, hydrogenic.

  H                    hydrogenic:

  List of hydrogenic basis orbitals: 
    n    l      effective z      eigenvalue [eV]  inner max. [A]     outer max. [A]     outer radius [A]   
    2    0         2.100000       -14.9965           0.193243           1.317208           5.373006
    2    1         3.500000       -41.6672           0.602369           0.602369           4.056063
    1    0         0.850000        -9.8292           0.624871           0.624871           5.373006
    2    1         3.700000       -46.5653           0.573622           0.573622           3.910002
    2    0         1.200000        -4.5995           0.334980           2.228188           5.505995
    3    2         7.000000       -74.0753           0.680699           0.680699           3.769201


  Al                   ion:
  Runtime choices for ionic solver:
  | ionic solver xc        : PBE

  List of free ionic orbitals and eigenvalues:
    n    l      energy [Ha]    energy [eV]
    1    0       -56.418846     -1535.2349
    2    0        -4.732717      -128.7838
    3    0        -0.872690       -23.7471
    2    1        -3.317230       -90.2664


  List of ionic basis orbitals and eigenvalues:
    n    l      energy [Ha]    energy [eV]    outer radius [A]
    3    2        -0.350517        -9.5381       5.451604
    3    1        -0.632146       -17.2016       5.385364
    3    0        -0.872680       -23.7468       4.943680


  Al                   hydrogenic:

  List of hydrogenic basis orbitals: 
    n    l      effective z      eigenvalue [eV]  inner max. [A]     outer max. [A]     outer radius [A]   
    4    3         4.700000       -18.7545           1.792186           1.792186           5.451604
    5    4         7.000000       -26.6464           1.882002           1.882002           5.451604
    3    2         6.000000       -54.4226           0.790067           0.790067           4.166016


  P                    ion:
  Runtime choices for ionic solver:
  | ionic solver xc        : PBE

  List of free ionic orbitals and eigenvalues:
    n    l      energy [Ha]    energy [eV]
    1    0       -77.734373     -2115.2599
    2    0        -7.310959      -198.9413
    3    0        -1.271460       -34.5982
    2    1        -5.492730      -149.4648
    3    1        -0.913468       -24.8567


  List of ionic basis orbitals and eigenvalues:
    n    l      energy [Ha]    energy [eV]    outer radius [A]
    3    2        -0.457450       -12.4478       5.404780
    3    1        -0.913460       -24.8565       4.724723
    3    0        -1.271453       -34.5980       4.232463


  P                    hydrogenic:

  List of hydrogenic basis orbitals: 
    n    l      effective z      eigenvalue [eV]  inner max. [A]     outer max. [A]     outer radius [A]   
    4    3         6.200000       -32.6870           1.357793           1.357793           5.339109
    5    4         8.600000       -40.2502           1.534356           1.534356           5.404780
    4    2         6.200000       -32.6848           0.577014           1.820771           5.404780

  Creating atomic-like basis functions for current effective potential.

  Species H                   :

  List of atomic basis orbitals and eigenvalues:
    n    l      energy [Ha]    energy [eV]    outer radius [A]
    1    0        -0.238386        -6.4868       5.373006


  Species Al                  :

  List of atomic basis orbitals and eigenvalues:
    n    l      energy [Ha]    energy [eV]    outer radius [A]
    1    0       -55.632680     -1513.8422       0.850197
    2    0        -3.968002      -107.9748       3.144911
    3    0        -0.279583        -7.6079       5.385364
    2    1        -2.551946       -69.4420       3.777870
    3    1        -0.093244        -2.5373       5.451604


  Species P                   :

  List of atomic basis orbitals and eigenvalues:
    n    l      energy [Ha]    energy [eV]    outer radius [A]
    1    0       -76.790257     -2089.5692       0.727884
    2    0        -6.393895      -173.9867       2.532824
    3    0        -0.512112       -13.9353       5.274236
    2    1        -4.574086      -124.4672       2.862183
    3    1        -0.201148        -5.4735       5.404780

  Assembling full basis from fixed parts.
  | Species H :   atomic orbital   1 s accepted.
  | Species H :    hydro orbital   2 s accepted.
  | Species H :    hydro orbital   1 s accepted.
  | Species H :    hydro orbital   2 s accepted.
  | Species H :    hydro orbital   2 p accepted.
  | Species H :    hydro orbital   2 p accepted.
  | Species H :    hydro orbital   3 d accepted.
  | Species Al :   atomic orbital   1 s accepted.
  | Species Al :   atomic orbital   2 s accepted.
  | Species Al :    ionic orbital   3 s accepted.
  | Species Al :   atomic orbital   3 s accepted.
  | Species Al :   atomic orbital   2 p accepted.
  | Species Al :    ionic orbital   3 p accepted.
  | Species Al :   atomic orbital   3 p accepted.
  | Species Al :    hydro orbital   3 d accepted.
  | Species Al :    ionic orbital   3 d accepted.
  | Species Al :    hydro orbital   4 f accepted.
  | Species Al :    hydro orbital   5 g accepted.
  | Species P :   atomic orbital   1 s accepted.
  | Species P :   atomic orbital   2 s accepted.
  | Species P :    ionic orbital   3 s accepted.
  | Species P :   atomic orbital   3 s accepted.
  | Species P :   atomic orbital   2 p accepted.
  | Species P :    ionic orbital   3 p accepted.
  | Species P :   atomic orbital   3 p accepted.
  | Species P :    ionic orbital   3 d accepted.
  | Species P :    hydro orbital   4 d accepted.
  | Species P :    hydro orbital   4 f accepted.
  | Species P :    hydro orbital   5 g accepted.

  Basis size parameters after reduction:
  | Total number of radial functions:       29
  | Total number of basis functions :      168

  Per-task memory consumption for arrays in subroutine allocate_ext:
  |          10.043396MB.
  Testing on-site integration grid accuracy.
  |  Species  Function  <phi|h_atom|phi> (log., in eV)  <phi|h_atom|phi> (rad., in eV)
           1        1                 -6.4870767962                 -6.4871688290
           1        2                 13.5032046589                 13.5028982997
           1        3                 32.8195184817                 32.8119941656
           1        4                 33.8513856511                 33.7670005767 ***
           1        5                 28.8544614965                 28.8544615203
           1        6                 59.6326952547                 59.6327656460
           1        7                 60.2719308513                 60.2719305949
           2        8              -1513.8422387113              -1513.8422137479
           2        9               -107.9748298038               -107.9748295037
           2       10                 -7.1549958236                 -7.1549944009
           2       11                  4.6897975489                  4.6885092788
           2       12                -69.4419904626                -69.4419903866
           2       13                 -1.7284229072                 -1.7284376197
           2       14                  4.8720809074                  4.8685169848
           2       15                 17.1348402844                 17.1348398212
           2       16                 10.9135737671                 10.9128664576
           2       17                 11.4987355985                 11.4983224815
           2       18                 20.2224916670                 20.2221617898
           3       19              -2089.5691986335              -2089.5691596863
           3       20               -173.9867283695               -173.9867277557
           3       21                -13.6361081844                -13.6361080848
           3       22                  6.3196202277                  6.3196248730
           3       23               -124.4672117337               -124.4672115736
           3       24                 -4.8326310060                 -4.8326301332
           3       25                  5.8128667531                  5.8123810283
           3       26                  5.1351171633                  5.1350933795
           3       27                 22.1926334062                 22.1926306446
           3       28                 19.3185135835                 19.3185098349
           3       29                 30.3333552813                 30.3333505659
 * Note: Onsite integrals marked "***" above are less accurate than
 * onsite_accuracy_threshold =    0.03000 eV. Usually, this is harmless.
 * When in doubt, tighten the "radial" and/or "radial_multiplier" flags to check.

  Preparing densities etc. for the partition functions (integrals / Hartree potential).

  Preparations completed.
  max(cpu_time)          :      0.261 s.
  Wall clock time (cpu1) :      0.671 s.
------------------------------------------------------------
  After prepare_scf [GB]:   1007.34

  Initializing index lists of integration centers etc. from given atomic structure:
  | Number of centers in hartree potential                       :         8
  | Number of centers in hartree multipole                       :         8
  | Number of centers in electron density summation              :         8
  | Number of centers in basis integrals                         :         8
  | Number of centers in integrals                               :         8
  | Number of centers in hamiltonian                             :         8
  | Number of centers in partition table from touching 0-cell    :         8
  | Number of centers in partition table total                   :         8
  After initialize_bc_dependent_lists [GB]:   1007.34

------------------------------------------------------------
          Begin self-consistency loop: Initialization.

          Date     :  20260805, Time     :  170917.978
------------------------------------------------------------
  Available memory per node after initialize_hartree_non_periodic_ewald [GB]:   1007.34
  Available memory per node after initialize_recip_hartree_potential [GB]:   1007.34
  * Using 64 tasks for Scalapack Eigenvalue solver.
  Detailed listing of tasks and assigned k-points:
  (for non-periodic systems, the "k-point" denotes an internal label only)
   Task     0 k-point     1 on worker6090
   Task     1 k-point     1 on worker6090
   Task     2 k-point     1 on worker6090
   Task     3 k-point     1 on worker6090
   Task     4 k-point     1 on worker6090
   Task     5 k-point     1 on worker6090
   Task     6 k-point     1 on worker6090
   Task     7 k-point     1 on worker6090
   Task     8 k-point     1 on worker6090
   Task     9 k-point     1 on worker6090
   Task    10 k-point     1 on worker6090
   Task    11 k-point     1 on worker6090
   Task    12 k-point     1 on worker6090
   Task    13 k-point     1 on worker6090
   Task    14 k-point     1 on worker6090
   Task    15 k-point     1 on worker6090
   Task    16 k-point     1 on worker6090
   Task    17 k-point     1 on worker6090
   Task    18 k-point     1 on worker6090
   Task    19 k-point     1 on worker6090
   Task    20 k-point     1 on worker6090
   Task    21 k-point     1 on worker6090
   Task    22 k-point     1 on worker6090
   Task    23 k-point     1 on worker6090
   Task    24 k-point     1 on worker6090
   Task    25 k-point     1 on worker6090
   Task    26 k-point     1 on worker6090
   Task    27 k-point     1 on worker6090
   Task    28 k-point     1 on worker6090
   Task    29 k-point     1 on worker6090
   Task    30 k-point     1 on worker6090
   Task    31 k-point     1 on worker6090
   Task    32 k-point     1 on worker6158
   Task    33 k-point     1 on worker6158
   Task    34 k-point     1 on worker6158
   Task    35 k-point     1 on worker6158
   Task    36 k-point     1 on worker6158
   Task    37 k-point     1 on worker6158
   Task    38 k-point     1 on worker6158
   Task    39 k-point     1 on worker6158
   Task    40 k-point     1 on worker6158
   Task    41 k-point     1 on worker6158
   Task    42 k-point     1 on worker6158
   Task    43 k-point     1 on worker6158
   Task    44 k-point     1 on worker6158
   Task    45 k-point     1 on worker6158
   Task    46 k-point     1 on worker6158
   Task    47 k-point     1 on worker6158
   Task    48 k-point     1 on worker6158
   Task    49 k-point     1 on worker6158
   Task    50 k-point     1 on worker6158
   Task    51 k-point     1 on worker6158
   Task    52 k-point     1 on worker6158
   Task    53 k-point     1 on worker6158
   Task    54 k-point     1 on worker6158
   Task    55 k-point     1 on worker6158
   Task    56 k-point     1 on worker6158
   Task    57 k-point     1 on worker6158
   Task    58 k-point     1 on worker6158
   Task    59 k-point     1 on worker6158
   Task    60 k-point     1 on worker6158
   Task    61 k-point     1 on worker6158
   Task    62 k-point     1 on worker6158
   Task    63 k-point     1 on worker6158
  Tasks:    64 split into      8 X      8 BLACS grid
  Calculating block size based on n_basis =          168  max_nprow =            8  max_npcol =            8
  ScaLAPACK block size set to:           16
  Allocating        0.008 MB for ovlp
  Allocating        0.008 MB for ham
  Allocating        0.008 MB for eigenvec
  Required Scalapack workspace - INTEGER:            1  REAL:             1
  Available memory per node after initialize_scalapack [GB]:   1007.34
  Available memory per node after aims_elsi_init_scf [GB]:   1007.34
  Available memory per node after initialize_fixed_grids [GB]:   1007.34
  Partitioning the integration grid into batches with parallel hashing+maxmin method.
  | Number of batches:     1616
  | Maximal batch size:     199
  | Minimal batch size:       3
  | Average batch size:      78.975
  | Standard deviation of batch sizes:      26.313

  Integration load balanced across    64 MPI tasks.
  Work distribution over tasks is as follows:
  Task     0 has       2034 integration points.
  Task     1 has       2077 integration points.
  Task     2 has       2045 integration points.
  Task     3 has       1964 integration points.
  Task     4 has       1977 integration points.
  Task     5 has       1959 integration points.
  Task     6 has       1949 integration points.
  Task     7 has       2123 integration points.
  Task     8 has       1949 integration points.
  Task     9 has       2056 integration points.
  Task    10 has       1961 integration points.
  Task    11 has       1966 integration points.
  Task    12 has       2057 integration points.
  Task    13 has       2042 integration points.
  Task    14 has       2047 integration points.
  Task    15 has       2046 integration points.
  Task    16 has       2031 integration points.
  Task    17 has       2050 integration points.
  Task    18 has       1973 integration points.
  Task    19 has       1992 integration points.
  Task    20 has       1965 integration points.
  Task    21 has       2029 integration points.
  Task    22 has       1952 integration points.
  Task    23 has       1951 integration points.
  Task    24 has       1986 integration points.
  Task    25 has       2061 integration points.
  Task    26 has       1995 integration points.
  Task    27 has       2027 integration points.
  Task    28 has       2035 integration points.
  Task    29 has       1968 integration points.
  Task    30 has       2080 integration points.
  Task    31 has       1956 integration points.
  Task    32 has       1959 integration points.
  Task    33 has       1957 integration points.
  Task    34 has       1960 integration points.
  Task    35 has       1952 integration points.
  Task    36 has       1952 integration points.
  Task    37 has       1987 integration points.
  Task    38 has       2040 integration points.
  Task    39 has       1955 integration points.
  Task    40 has       1962 integration points.
  Task    41 has       1948 integration points.
  Task    42 has       2118 integration points.
  Task    43 has       1982 integration points.
  Task    44 has       1985 integration points.
  Task    45 has       1991 integration points.
  Task    46 has       2041 integration points.
  Task    47 has       1990 integration points.
  Task    48 has       1961 integration points.
  Task    49 has       1956 integration points.
  Task    50 has       1960 integration points.
  Task    51 has       1963 integration points.
  Task    52 has       1962 integration points.
  Task    53 has       1963 integration points.
  Task    54 has       1967 integration points.
  Task    55 has       1970 integration points.
  Task    56 has       1979 integration points.
  Task    57 has       1948 integration points.
  Task    58 has       2051 integration points.
  Task    59 has       1971 integration points.
  Task    60 has       1987 integration points.
  Task    61 has       1962 integration points.
  Task    62 has       1986 integration points.
  Task    63 has       1956 integration points.
  Available memory per node after partition_grid [GB]:   1007.00
  Initializing partition tables, free-atom densities, potentials, etc. across the integration grid (initialize_grid_storage).
  | initialize_grid_storage: Actual outermost partition radius vs. multipole_radius_free
  | (-- VB: in principle, multipole_radius_free should be larger, hence this output)
  | Species        1: Confinement radius =              6.000000000000000 AA, multipole_radius_free =              6.071692442739658 AA.
  | Species        1: outer_partition_radius set to              6.071692442739658 AA .
  | Species        2: Confinement radius =              6.000000000000000 AA, multipole_radius_free =              6.011712643327361 AA.
  | Species        2: outer_partition_radius set to              6.011712643327361 AA .
  | Species        3: Confinement radius =              6.000000000000000 AA, multipole_radius_free =              6.033387558927091 AA.
  | Species        3: outer_partition_radius set to              6.033387558927091 AA .
  | The sparse table of interatomic distances needs          0.71 kbyte instead of         0.51 kbyte of memory.
  | Using the partition_type stratmann_smoother will reduce your memory usage.
  | Net number of integration points:   127624
  | of which are non-zero points    :   111966
  Available memory per node after initialize_grid_storage_p1 [GB]:   1007.00
  Renormalizing the initial density to the exact electron count on the 3D integration grid.
  | Initial density: Formal number of electrons (from input files) :      34.0000000000
  | Integrated number of electrons on 3D grid     :      33.9999981503
  | Charge integration error                      :      -0.0000018497
  | Normalization factor for density and gradient :       1.0000000544
  Renormalizing the free-atom superposition density to the exact electron count on the 3D integration grid.
  | Formal number of electrons (from input files) :      34.0000000000
  | Integrated number of electrons on 3D grid     :      33.9999981503
  | Charge integration error                      :      -0.0000018497
  | Normalization factor for density and gradient :       1.0000000544
  Obtaining max. number of non-zero basis functions in each batch (get_n_compute_maxes).
  | Maximal number of non-zero basis functions:      167 in task     0
  | Maximal number of non-zero basis functions:      167 in task     1
  | Maximal number of non-zero basis functions:      167 in task     2
  | Maximal number of non-zero basis functions:      167 in task     3
  | Maximal number of non-zero basis functions:      167 in task     4
  | Maximal number of non-zero basis functions:      167 in task     5
  | Maximal number of non-zero basis functions:      167 in task     6
  | Maximal number of non-zero basis functions:      167 in task     7
  | Maximal number of non-zero basis functions:      167 in task     8
  | Maximal number of non-zero basis functions:      167 in task     9
  | Maximal number of non-zero basis functions:      167 in task    10
  | Maximal number of non-zero basis functions:      167 in task    11
  | Maximal number of non-zero basis functions:      167 in task    12
  | Maximal number of non-zero basis functions:      167 in task    13
  | Maximal number of non-zero basis functions:      167 in task    14
  | Maximal number of non-zero basis functions:      167 in task    15
  | Maximal number of non-zero basis functions:      167 in task    16
  | Maximal number of non-zero basis functions:      167 in task    17
  | Maximal number of non-zero basis functions:      167 in task    18
  | Maximal number of non-zero basis functions:      167 in task    19
  | Maximal number of non-zero basis functions:      167 in task    20
  | Maximal number of non-zero basis functions:      167 in task    21
  | Maximal number of non-zero basis functions:      167 in task    22
  | Maximal number of non-zero basis functions:      167 in task    23
  | Maximal number of non-zero basis functions:      167 in task    24
  | Maximal number of non-zero basis functions:      167 in task    25
  | Maximal number of non-zero basis functions:      167 in task    26
  | Maximal number of non-zero basis functions:      167 in task    27
  | Maximal number of non-zero basis functions:      167 in task    28
  | Maximal number of non-zero basis functions:      167 in task    29
  | Maximal number of non-zero basis functions:      167 in task    30
  | Maximal number of non-zero basis functions:      167 in task    31
  | Maximal number of non-zero basis functions:      167 in task    32
  | Maximal number of non-zero basis functions:      167 in task    33
  | Maximal number of non-zero basis functions:      167 in task    34
  | Maximal number of non-zero basis functions:      167 in task    35
  | Maximal number of non-zero basis functions:      167 in task    36
  | Maximal number of non-zero basis functions:      167 in task    37
  | Maximal number of non-zero basis functions:      167 in task    38
  | Maximal number of non-zero basis functions:      167 in task    39
  | Maximal number of non-zero basis functions:      167 in task    40
  | Maximal number of non-zero basis functions:      167 in task    41
  | Maximal number of non-zero basis functions:      167 in task    42
  | Maximal number of non-zero basis functions:      167 in task    43
  | Maximal number of non-zero basis functions:      167 in task    44
  | Maximal number of non-zero basis functions:      167 in task    45
  | Maximal number of non-zero basis functions:      167 in task    46
  | Maximal number of non-zero basis functions:      167 in task    47
  | Maximal number of non-zero basis functions:      167 in task    48
  | Maximal number of non-zero basis functions:      167 in task    49
  | Maximal number of non-zero basis functions:      167 in task    50
  | Maximal number of non-zero basis functions:      166 in task    51
  | Maximal number of non-zero basis functions:      167 in task    52
  | Maximal number of non-zero basis functions:      167 in task    53
  | Maximal number of non-zero basis functions:      167 in task    54
  | Maximal number of non-zero basis functions:      167 in task    55
  | Maximal number of non-zero basis functions:      167 in task    56
  | Maximal number of non-zero basis functions:      167 in task    57
  | Maximal number of non-zero basis functions:      167 in task    58
  | Maximal number of non-zero basis functions:      167 in task    59
  | Maximal number of non-zero basis functions:      167 in task    60
  | Maximal number of non-zero basis functions:      167 in task    61
  | Maximal number of non-zero basis functions:      167 in task    62
  | Maximal number of non-zero basis functions:      167 in task    63
  Selecting the method for density update.
  Loop over occupied states selected for charge density update.
  Available memory per node after get_n_compute_maxes_p1 [GB]:   1007.00
  Allocating        0.041 MB for KS_eigenvector
  Available memory per node after allocate_matrices [GB]:   1007.00
  Available memory per node after init_comm_sparse_local_matrix_scalapack [GB]:   1007.00
  Integrating Hamiltonian matrix: batch-based integration.
  Time summed over all CPUs for integration: real work        0.900 s, elapsed        1.034 s
  Available memory per node after integrate hamiltonian matrix [GB]:   1006.90
  Integrating overlap matrix.
  Time summed over all CPUs for integration: real work        0.244 s, elapsed        0.355 s
  Available memory per node after integrate ovlp matrix [GB]:   1006.90
  Deallocating overlap matrix.
  Available memory per node after save_overlap_scalapack [GB]:   1006.90

  Updating Kohn-Sham eigenvalues and eigenvectors using ELSI and the ELPA eigensolver.
  Overlap matrix is not singular
  | Lowest and highest eigenvalues :  0.3585E-03,  0.4962E+01
  Finished singularity check of overlap matrix
  | Time :     0.155 s
  Starting ELPA eigensolver
  Finished Cholesky decomposition
  | Time :     0.004 s
  Finished transformation to standard eigenproblem
  | Time :     0.001 s
  Finished solving standard eigenproblem
  | Time :     0.048 s
  Finished back-transformation of eigenvectors
  | Time :     0.000 s

  Obtaining occupation numbers and electronic chemical potential using ELSI.
  | Note that, for insulating systems, the printed 'chemical potential' value is not uniquely defined.
  | It can be anywhere in the energy gap, as long as it correctly separates occupied and unoccupied states.
  | In systems with a gap, the physically relevant chemical potential is the VBM or HOMO.

  | Chemical potential (Fermi level):    -5.95782273 eV
  Available memory per node after advance_KS_solution [GB]:   1006.88
  Writing Kohn-Sham eigenvalues.

  State    Occupation    Eigenvalue [Ha]    Eigenvalue [eV]
      1       2.00000         -76.490686        -2081.41747
      2       2.00000         -55.365222        -1506.56435
      3       2.00000          -6.397444         -174.08330
      4       2.00000          -4.608704         -125.40922
      5       2.00000          -4.608703         -125.40919
      6       2.00000          -4.607784         -125.38419
      7       2.00000          -3.961067         -107.78611
      8       2.00000          -2.573246          -70.02157
      9       2.00000          -2.573244          -70.02154
     10       2.00000          -2.569439          -69.91799
     11       2.00000          -0.690005          -18.77599
     12       2.00000          -0.467809          -12.72973
     13       2.00000          -0.445571          -12.12460
     14       2.00000          -0.445570          -12.12458
     15       2.00000          -0.359714           -9.78831
     16       2.00000          -0.359713           -9.78828
     17       2.00000          -0.338990           -9.22438
     18       0.00000          -0.098902           -2.69126
     19       0.00000          -0.079006           -2.14987
     20       0.00000          -0.079003           -2.14977
     21       0.00000          -0.048218           -1.31209
     22       0.00000          -0.042171           -1.14752
     23       0.00000          -0.029855           -0.81240
     24       0.00000          -0.029851           -0.81227
     25       0.00000           0.018957            0.51585
     26       0.00000           0.018988            0.51668
     27       0.00000           0.029662            0.80715
     28       0.00000           0.039676            1.07965
     29       0.00000           0.039681            1.07979
     30       0.00000           0.054184            1.47443
     31       0.00000           0.054187            1.47451
     32       0.00000           0.062717            1.70661

  Highest occupied state (VBM) at     -9.22438087 eV
  | Occupation number:      2.00000000

  Lowest unoccupied state (CBM) at    -2.69126459 eV
  | Occupation number:      0.00000000

  Overall HOMO-LUMO gap:      6.53311628 eV.
  Calculating total energy contributions from superposition of free atom densities.

  Total energy components:
  | Sum of eigenvalues            :        -333.72582229 Ha       -9081.14166781 eV
  | XC energy correction          :         -41.40189200 Ha       -1126.60280230 eV
  | XC potential correction       :          54.67375042 Ha        1487.74844462 eV
  | Free-atom electrostatic energy:        -266.62643124 Ha       -7255.27433828 eV
  | Hartree energy correction     :          -0.00000000 Ha          -0.00000000 eV
  | Entropy correction            :          -0.00000000 Ha          -0.00000000 eV
  | ---------------------------
  | Total energy                  :        -587.08039511 Ha      -15975.27036377 eV
  | Total energy, T -> 0          :        -587.08039511 Ha      -15975.27036377 eV  <-- do not rely on this value for anything but (periodic) metals
  | Electronic free energy        :        -587.08039511 Ha      -15975.27036377 eV

  Derived energy quantities:
  | Kinetic energy                :         589.37867811 Ha       16037.80982628 eV
  | Electrostatic energy          :       -1135.05718122 Ha      -30886.47738775 eV
  | Energy correction for multipole
  | error in Hartree potential    :           0.00000000 Ha           0.00000000 eV
  | Sum of eigenvalues per atom                           :       -1135.14270848 eV
  | Total energy (T->0) per atom                          :       -1996.90879547 eV  <-- do not rely on this value for anything but (periodic) metals
  | Electronic free energy per atom                       :       -1996.90879547 eV
  Initialize hartree_potential_storage
  Max. number of atoms included in rho_multipole:            8

  End scf initialization - timings             :  max(cpu_time)    wall_clock(cpu1)
  | Time for scf. initialization                :        0.261 s           0.289 s
  | Boundary condition initialization           :        0.002 s           0.001 s
  | Integration                                 :        0.026 s           0.026 s
  | Solution of K.-S. eqns.                     :        0.185 s           0.213 s
  | Grid partitioning                           :        0.038 s           0.037 s
  | Preloading free-atom quantities on grid     :        0.008 s           0.008 s
  | Free-atom superposition energy              :        0.002 s           0.002 s
  | Total energy evaluation                     :        0.000 s           0.000 s

  Partial memory accounting:
  | Current value for overall tracked memory usage:
  |   Minimum:        0.156 MB (on task 27)
  |   Maximum:        0.174 MB (on task  0)
  |   Average:        0.160 MB
  | Peak value for overall tracked memory usage:
  |   Minimum:        2.747 MB (on task 51 after allocating wave)
  |   Maximum:        2.780 MB (on task  0 after allocating wave)
  |   Average:        2.767 MB
  | Largest tracked array allocation so far:
  |   Minimum:        0.756 MB (gradient_basis_wave_store on task 51)
  |   Maximum:        0.761 MB (gradient_basis_wave_store on task  0)
  |   Average:        0.761 MB
  Note:  These values currently only include a subset of arrays which are explicitly tracked.
  The "true" memory usage will be greater.
------------------------------------------------------------
  Available memory after initialize_scf [GB]:   1006.88
  Available memory after allocating mixing [GB]:   1006.88
  Evaluating new KS density.
  Integration grid: deviation in total charge (<rho> - N_e) =   0.000000E+00

  Time for density update prior                :  max(cpu_time)    wall_clock(cpu1)
  | self-consistency iterative process          :        0.008 s           0.008 s
  Available memory before start of SCF loop [GB]:   1006.85

------------------------------------------------------------
          Begin self-consistency iteration #    1

  Date     :  20260805, Time     :  170918.276
------------------------------------------------------------
  Pulay mixing of updated and previous charge densities.
  Available memory per node after mixing [GB]:   1006.85
  Renormalizing the density to the exact electron count on the 3D integration grid.
  | Formal number of electrons (from input files) :      34.0000000000
  | Integrated number of electrons on 3D grid     :      34.0000000000
  | Charge integration error                      :       0.0000000000
  | Normalization factor for density and gradient :       1.0000000000

  Evaluating partitioned Hartree potential by multipole expansion.
  | Original multipole sum: apparent total charge =  -0.741007E-15
  | Sum of charges compensated after spline to logarithmic grids =  -0.467978E-07
  | Analytical far-field extrapolation by fixed multipoles:
  | Hartree multipole sum: apparent total charge =  -0.676438E-15
  Summing up the Hartree potential.
  Time summed over all CPUs for potential: real work        0.007 s, elapsed        0.007 s
  | RMS charge density error from multipole expansion :   0.684771E-03

  Integrating Hamiltonian matrix: batch-based integration.
  Time summed over all CPUs for integration: real work        0.978 s, elapsed        1.145 s

  Updating Kohn-Sham eigenvalues and eigenvectors using ELSI and the ELPA eigensolver.
  Starting ELPA eigensolver
  Finished transformation to standard eigenproblem
  | Time :     0.000 s
  Finished solving standard eigenproblem
  | Time :     0.004 s
  Finished back-transformation of eigenvectors
  | Time :     0.000 s

  Obtaining occupation numbers and electronic chemical potential using ELSI.
  | Note that, for insulating systems, the printed 'chemical potential' value is not uniquely defined.
  | It can be anywhere in the energy gap, as long as it correctly separates occupied and unoccupied states.
  | In systems with a gap, the physically relevant chemical potential is the VBM or HOMO.

  | Chemical potential (Fermi level):    -5.69356679 eV
  Writing Kohn-Sham eigenvalues.

  State    Occupation    Eigenvalue [Ha]    Eigenvalue [eV]
      1       2.00000         -77.281239        -2102.92950
      2       2.00000         -56.027971        -1524.59866
      3       2.00000          -6.592793         -179.39903
      4       2.00000          -4.700417         -127.90486
      5       2.00000          -4.700416         -127.90482
      6       2.00000          -4.699244         -127.87295
      7       2.00000          -4.114272         -111.95504
      8       2.00000          -2.634541          -71.68951
      9       2.00000          -2.634540          -71.68949
     10       2.00000          -2.632315          -71.62893
     11       2.00000          -0.707965          -19.26469
     12       2.00000          -0.469495          -12.77562
     13       2.00000          -0.455220          -12.38716
     14       2.00000          -0.455220          -12.38715
     15       2.00000          -0.358207           -9.74732
     16       2.00000          -0.358205           -9.74725
     17       2.00000          -0.339099           -9.22736
     18       0.00000          -0.079370           -2.15978
     19       0.00000          -0.064379           -1.75185
     20       0.00000          -0.064373           -1.75169
     21       0.00000          -0.024819           -0.67536
     22       0.00000          -0.018773           -0.51085
     23       0.00000          -0.005904           -0.16064
     24       0.00000          -0.005899           -0.16053
     25       0.00000           0.051351            1.39733
     26       0.00000           0.051380            1.39813
     27       0.00000           0.060756            1.65325
     28       0.00000           0.071738            1.95210
     29       0.00000           0.071743            1.95223
     30       0.00000           0.085648            2.33060
     31       0.00000           0.085650            2.33067
     32       0.00000           0.096866            2.63587

  Highest occupied state (VBM) at     -9.22735635 eV
  | Occupation number:      2.00000000

  Lowest unoccupied state (CBM) at    -2.15977723 eV
  | Occupation number:      0.00000000

  Overall HOMO-LUMO gap:      7.06757912 eV.

  Total energy components:
  | Sum of eigenvalues            :        -338.32231737 Ha       -9206.21866299 eV
  | XC energy correction          :         -43.73067253 Ha       -1189.97214472 eV
  | XC potential correction       :          59.62161095 Ha        1622.38658003 eV
  | Free-atom electrostatic energy:        -266.62643124 Ha       -7255.27433828 eV
  | Hartree energy correction     :          -0.33077019 Ha          -9.00071469 eV
  | Entropy correction            :          -0.00000000 Ha          -0.00000000 eV
  | ---------------------------
  | Total energy                  :        -589.38858038 Ha      -16038.07928064 eV
  | Total energy, T -> 0          :        -589.38858038 Ha      -16038.07928064 eV  <-- do not rely on this value for anything but (periodic) metals
  | Electronic free energy        :        -589.38858038 Ha      -16038.07928064 eV

  Derived energy quantities:
  | Kinetic energy                :         589.47565101 Ha       16040.44859296 eV
  | Electrostatic energy          :       -1135.13355886 Ha      -30888.55572888 eV
  | Energy correction for multipole
  | error in Hartree potential    :          -0.00083617 Ha          -0.02275328 eV
  | Sum of eigenvalues per atom                           :       -1150.77733287 eV
  | Total energy (T->0) per atom                          :       -2004.75991008 eV  <-- do not rely on this value for anything but (periodic) metals
  | Electronic free energy per atom                       :       -2004.75991008 eV
  Evaluating new KS density.
  Integration grid: deviation in total charge (<rho> - N_e) =   7.105427E-15

  Self-consistency convergence accuracy:
  | Change of charge density      :  0.3027E+00
  | Change of unmixed KS density  :  0.3294E+02
  | Change of sum of eigenvalues  : -0.1251E+03 eV
  | Change of total energy        : -0.6281E+02 eV


------------------------------------------------------------
  End self-consistency iteration #     1       :  max(cpu_time)    wall_clock(cpu1)
  | Time for this iteration                     :        0.043 s           0.043 s
  | Charge density update                       :        0.007 s           0.007 s
  | Density mixing                              :        0.001 s           0.001 s
  | Hartree multipole update                    :        0.002 s           0.003 s
  | Hartree multipole summation                 :        0.008 s           0.008 s
  | Integration                                 :        0.019 s           0.018 s
  | Solution of K.-S. eqns.                     :        0.005 s           0.005 s
  | Total energy evaluation                     :        0.000 s           0.000 s

  Partial memory accounting:
  | Current value for overall tracked memory usage:
  |   Minimum:        1.511 MB (on task 35)
  |   Maximum:        1.636 MB (on task  7)
  |   Average:        1.545 MB
  | Peak value for overall tracked memory usage:
  |   Minimum:        4.001 MB (on task 51 after allocating wave)
  |   Maximum:        4.134 MB (on task  7 after allocating wave)
  |   Average:        4.043 MB
  | Largest tracked array allocation so far:
  |   Minimum:        0.756 MB (gradient_basis_wave_store on task 51)
  |   Maximum:        0.761 MB (gradient_basis_wave_store on task  0)
  |   Average:        0.761 MB
  Note:  These values currently only include a subset of arrays which are explicitly tracked.
  The "true" memory usage will be greater.
------------------------------------------------------------

------------------------------------------------------------
          Begin self-consistency iteration #    2

  Date     :  20260805, Time     :  170918.355
------------------------------------------------------------
  Pulay mixing of updated and previous charge densities.
  Available memory per node after mixing [GB]:   1006.83
  Renormalizing the density to the exact electron count on the 3D integration grid.
  | Formal number of electrons (from input files) :      34.0000000000
  | Integrated number of electrons on 3D grid     :      34.0000000000
  | Charge integration error                      :       0.0000000000
  | Normalization factor for density and gradient :       1.0000000000

  Evaluating partitioned Hartree potential by multipole expansion.
  | Original multipole sum: apparent total charge =  -0.428923E-14
  | Sum of charges compensated after spline to logarithmic grids =  -0.701052E-06
  | Analytical far-field extrapolation by fixed multipoles:
  | Hartree multipole sum: apparent total charge =  -0.457210E-14
  Summing up the Hartree potential.
  Time summed over all CPUs for potential: real work        0.006 s, elapsed        0.007 s
  | RMS charge density error from multipole expansion :   0.252926E-02

  Integrating Hamiltonian matrix: batch-based integration.
  Time summed over all CPUs for integration: real work        0.958 s, elapsed        1.079 s

  Updating Kohn-Sham eigenvalues and eigenvectors using ELSI and the ELPA eigensolver.
  Starting ELPA eigensolver
  Finished transformation to standard eigenproblem
  | Time :     0.000 s
  Finished solving standard eigenproblem
  | Time :     0.030 s
  Finished back-transformation of eigenvectors
  | Time :     0.000 s

  Obtaining occupation numbers and electronic chemical potential using ELSI.
  | Note that, for insulating systems, the printed 'chemical potential' value is not uniquely defined.
  | It can be anywhere in the energy gap, as long as it correctly separates occupied and unoccupied states.
  | In systems with a gap, the physically relevant chemical potential is the VBM or HOMO.

  | Chemical potential (Fermi level):    -5.16572295 eV
  Highest occupied state (VBM) at     -8.66008801 eV
  | Occupation number:      2.00000000

  Lowest unoccupied state (CBM) at    -1.67135789 eV
  | Occupation number:      0.00000000

  Overall HOMO-LUMO gap:      6.98873012 eV.

  Checking to see if s.c.f. parameters should be adjusted.

  Total energy components:
  | Sum of eigenvalues            :        -337.55951942 Ha       -9185.46187470 eV
  | XC energy correction          :         -43.87419886 Ha       -1193.87769489 eV
  | XC potential correction       :          59.80765929 Ha        1627.44921287 eV
  | Free-atom electrostatic energy:        -266.62643124 Ha       -7255.27433828 eV
  | Hartree energy correction     :          -1.10221918 Ha         -29.99290997 eV
  | Entropy correction            :          -0.00000000 Ha          -0.00000000 eV
  | ---------------------------
  | Total energy                  :        -589.35470942 Ha      -16037.15760497 eV
  | Total energy, T -> 0          :        -589.35470942 Ha      -16037.15760497 eV  <-- do not rely on this value for anything but (periodic) metals
  | Electronic free energy        :        -589.35470942 Ha      -16037.15760497 eV

  Derived energy quantities:
  | Kinetic energy                :         590.03865450 Ha       16055.76869735 eV
  | Electrostatic energy          :       -1135.51916505 Ha      -30899.04860742 eV
  | Energy correction for multipole
  | error in Hartree potential    :          -0.00274359 Ha          -0.07465695 eV
  | Sum of eigenvalues per atom                           :       -1148.18273434 eV
  | Total energy (T->0) per atom                          :       -2004.64470062 eV  <-- do not rely on this value for anything but (periodic) metals
  | Electronic free energy per atom                       :       -2004.64470062 eV
  Evaluating new KS density.
  Integration grid: deviation in total charge (<rho> - N_e) =   7.105427E-15

  Self-consistency convergence accuracy:
  | Change of charge density      :  0.2776E+00
  | Change of unmixed KS density  :  0.4631E-01
  | Change of sum of eigenvalues  :  0.2076E+02 eV
  | Change of total energy        :  0.9217E+00 eV


------------------------------------------------------------
  End self-consistency iteration #     2       :  max(cpu_time)    wall_clock(cpu1)
  | Time for this iteration                     :        0.330 s           0.314 s
  | Charge density update                       :        0.007 s           0.007 s
  | Density mixing                              :        0.264 s           0.248 s
  | Hartree multipole update                    :        0.002 s           0.002 s
  | Hartree multipole summation                 :        0.008 s           0.008 s
  | Integration                                 :        0.018 s           0.018 s
  | Solution of K.-S. eqns.                     :        0.031 s           0.030 s
  | Total energy evaluation                     :        0.000 s           0.000 s

  Partial memory accounting:
  | Current value for overall tracked memory usage:
  |   Minimum:        1.512 MB (on task 35)
  |   Maximum:        1.636 MB (on task  7)
  |   Average:        1.545 MB
  | Peak value for overall tracked memory usage:
  |   Minimum:        4.002 MB (on task 51 after allocating wave)
  |   Maximum:        4.135 MB (on task  7 after allocating wave)
  |   Average:        4.044 MB
  | Largest tracked array allocation so far:
  |   Minimum:        0.756 MB (gradient_basis_wave_store on task 51)
  |   Maximum:        0.761 MB (gradient_basis_wave_store on task  0)
  |   Average:        0.761 MB
  Note:  These values currently only include a subset of arrays which are explicitly tracked.
  The "true" memory usage will be greater.
------------------------------------------------------------

------------------------------------------------------------
          Begin self-consistency iteration #    3

  Date     :  20260805, Time     :  170918.734
------------------------------------------------------------
  Pulay mixing of updated and previous charge densities.
  Available memory per node after mixing [GB]:   1006.83
  Renormalizing the density to the exact electron count on the 3D integration grid.
  | Formal number of electrons (from input files) :      34.0000000000
  | Integrated number of electrons on 3D grid     :      34.0000000000
  | Charge integration error                      :       0.0000000000
  | Normalization factor for density and gradient :       1.0000000000

  Evaluating partitioned Hartree potential by multipole expansion.
  | Original multipole sum: apparent total charge =  -0.467357E-14
  | Sum of charges compensated after spline to logarithmic grids =  -0.164825E-05
  | Analytical far-field extrapolation by fixed multipoles:
  | Hartree multipole sum: apparent total charge =  -0.385570E-14
  Summing up the Hartree potential.
  Time summed over all CPUs for potential: real work        0.006 s, elapsed        0.007 s
  | RMS charge density error from multipole expansion :   0.571065E-02

  Integrating Hamiltonian matrix: batch-based integration.
  Time summed over all CPUs for integration: real work        0.952 s, elapsed        1.074 s

  Updating Kohn-Sham eigenvalues and eigenvectors using ELSI and the ELPA eigensolver.
  Starting ELPA eigensolver
  Finished transformation to standard eigenproblem
  | Time :     0.001 s
  Finished solving standard eigenproblem
  | Time :     0.003 s
  Finished back-transformation of eigenvectors
  | Time :     0.000 s

  Obtaining occupation numbers and electronic chemical potential using ELSI.
  | Note that, for insulating systems, the printed 'chemical potential' value is not uniquely defined.
  | It can be anywhere in the energy gap, as long as it correctly separates occupied and unoccupied states.
  | In systems with a gap, the physically relevant chemical potential is the VBM or HOMO.

  | Chemical potential (Fermi level):    -3.92289930 eV
  Highest occupied state (VBM) at     -6.82416328 eV
  | Occupation number:      2.00000000

  Lowest unoccupied state (CBM) at    -1.02163532 eV
  | Occupation number:      0.00000000

  Overall HOMO-LUMO gap:      5.80252796 eV.

  Total energy components:
  | Sum of eigenvalues            :        -336.23817916 Ha       -9149.50637673 eV
  | XC energy correction          :         -44.15539984 Ha       -1201.52956290 eV
  | XC potential correction       :          60.16774465 Ha        1637.24763418 eV
  | Free-atom electrostatic energy:        -266.62643124 Ha       -7255.27433828 eV
  | Hartree energy correction     :          -2.48425077 Ha         -67.59990280 eV
  | Entropy correction            :          -0.00000000 Ha          -0.00000000 eV
  | ---------------------------
  | Total energy                  :        -589.33651636 Ha      -16036.66254653 eV
  | Total energy, T -> 0          :        -589.33651636 Ha      -16036.66254653 eV  <-- do not rely on this value for anything but (periodic) metals
  | Electronic free energy        :        -589.33651636 Ha      -16036.66254653 eV

  Derived energy quantities:
  | Kinetic energy                :         590.91936784 Ha       16079.73412682 eV
  | Electrostatic energy          :       -1136.10048436 Ha      -30914.86711045 eV
  | Energy correction for multipole
  | error in Hartree potential    :          -0.00597689 Ha          -0.16263957 eV
  | Sum of eigenvalues per atom                           :       -1143.68829709 eV
  | Total energy (T->0) per atom                          :       -2004.58281832 eV  <-- do not rely on this value for anything but (periodic) metals
  | Electronic free energy per atom                       :       -2004.58281832 eV
  Evaluating new KS density.
  Integration grid: deviation in total charge (<rho> - N_e) =   1.421085E-14

  Self-consistency convergence accuracy:
  | Change of charge density      :  0.1770E+00
  | Change of unmixed KS density  :  0.2527E-01
  | Change of sum of eigenvalues  :  0.3596E+02 eV
  | Change of total energy        :  0.4951E+00 eV


------------------------------------------------------------
  End self-consistency iteration #     3       :  max(cpu_time)    wall_clock(cpu1)
  | Time for this iteration                     :        0.328 s           0.277 s
  | Charge density update                       :        0.007 s           0.007 s
  | Density mixing                              :        0.289 s           0.238 s
  | Hartree multipole update                    :        0.002 s           0.002 s
  | Hartree multipole summation                 :        0.008 s           0.008 s
  | Integration                                 :        0.017 s           0.017 s
  | Solution of K.-S. eqns.                     :        0.004 s           0.004 s
  | Total energy evaluation                     :        0.000 s           0.000 s

  Partial memory accounting:
  | Current value for overall tracked memory usage:
  |   Minimum:        1.512 MB (on task 35)
  |   Maximum:        1.636 MB (on task  7)
  |   Average:        1.545 MB
  | Peak value for overall tracked memory usage:
  |   Minimum:        4.002 MB (on task 51 after allocating wave)
  |   Maximum:        4.135 MB (on task  7 after allocating wave)
  |   Average:        4.044 MB
  | Largest tracked array allocation so far:
  |   Minimum:        0.756 MB (gradient_basis_wave_store on task 51)
  |   Maximum:        0.761 MB (gradient_basis_wave_store on task  0)
  |   Average:        0.761 MB
  Note:  These values currently only include a subset of arrays which are explicitly tracked.
  The "true" memory usage will be greater.
------------------------------------------------------------

------------------------------------------------------------
          Begin self-consistency iteration #    4

  Date     :  20260805, Time     :  170919.142
------------------------------------------------------------
  Pulay mixing of updated and previous charge densities.
  Available memory per node after mixing [GB]:   1006.83
  Renormalizing the density to the exact electron count on the 3D integration grid.
  | Formal number of electrons (from input files) :      34.0000000000
  | Integrated number of electrons on 3D grid     :      34.0000000000
  | Charge integration error                      :       0.0000000000
  | Normalization factor for density and gradient :       1.0000000000

  Evaluating partitioned Hartree potential by multipole expansion.
  | Original multipole sum: apparent total charge =   0.235523E-14
  | Sum of charges compensated after spline to logarithmic grids =  -0.131973E-05
  | Analytical far-field extrapolation by fixed multipoles:
  | Hartree multipole sum: apparent total charge =   0.249052E-14
  Summing up the Hartree potential.
  Time summed over all CPUs for potential: real work        0.006 s, elapsed        0.007 s
  | RMS charge density error from multipole expansion :   0.611757E-02

  Integrating Hamiltonian matrix: batch-based integration.
  Time summed over all CPUs for integration: real work        0.953 s, elapsed        1.128 s

  Updating Kohn-Sham eigenvalues and eigenvectors using ELSI and the ELPA eigensolver.
  Starting ELPA eigensolver
  Finished transformation to standard eigenproblem
  | Time :     0.001 s
  Finished solving standard eigenproblem
  | Time :     0.011 s
  Finished back-transformation of eigenvectors
  | Time :     0.000 s

  Obtaining occupation numbers and electronic chemical potential using ELSI.
  | Note that, for insulating systems, the printed 'chemical potential' value is not uniquely defined.
  | It can be anywhere in the energy gap, as long as it correctly separates occupied and unoccupied states.
  | In systems with a gap, the physically relevant chemical potential is the VBM or HOMO.

  | Chemical potential (Fermi level):    -3.97706591 eV
  Highest occupied state (VBM) at     -7.11520007 eV
  | Occupation number:      2.00000000

  Lowest unoccupied state (CBM) at    -0.83893174 eV
  | Occupation number:      0.00000000

  Overall HOMO-LUMO gap:      6.27626833 eV.

  Total energy components:
  | Sum of eigenvalues            :        -336.20420425 Ha       -9148.58187234 eV
  | XC energy correction          :         -44.13953569 Ha       -1201.09787740 eV
  | XC potential correction       :          60.14406267 Ha        1636.60321470 eV
  | Free-atom electrostatic energy:        -266.62643124 Ha       -7255.27433828 eV
  | Hartree energy correction     :          -2.51068034 Ha         -68.31908809 eV
  | Entropy correction            :          -0.00000000 Ha          -0.00000000 eV
  | ---------------------------
  | Total energy                  :        -589.33678885 Ha      -16036.66996141 eV
  | Total energy, T -> 0          :        -589.33678885 Ha      -16036.66996141 eV  <-- do not rely on this value for anything but (periodic) metals
  | Electronic free energy        :        -589.33678885 Ha      -16036.66996141 eV

  Derived energy quantities:
  | Kinetic energy                :         590.86995163 Ha       16078.38944342 eV
  | Electrostatic energy          :       -1136.06720479 Ha      -30913.96152742 eV
  | Energy correction for multipole
  | error in Hartree potential    :          -0.00592245 Ha          -0.16115808 eV
  | Sum of eigenvalues per atom                           :       -1143.57273404 eV
  | Total energy (T->0) per atom                          :       -2004.58374518 eV  <-- do not rely on this value for anything but (periodic) metals
  | Electronic free energy per atom                       :       -2004.58374518 eV
  Evaluating new KS density.
  Integration grid: deviation in total charge (<rho> - N_e) =   7.105427E-15

  Self-consistency convergence accuracy:
  | Change of charge density      :  0.3918E-01
  | Change of unmixed KS density  :  0.4481E-01
  | Change of sum of eigenvalues  :  0.9245E+00 eV
  | Change of total energy        : -0.7415E-02 eV


------------------------------------------------------------
  End self-consistency iteration #     4       :  max(cpu_time)    wall_clock(cpu1)
  | Time for this iteration                     :        0.303 s           0.187 s
  | Charge density update                       :        0.007 s           0.007 s
  | Density mixing                              :        0.258 s           0.139 s
  | Hartree multipole update                    :        0.002 s           0.002 s
  | Hartree multipole summation                 :        0.008 s           0.008 s
  | Integration                                 :        0.018 s           0.018 s
  | Solution of K.-S. eqns.                     :        0.012 s           0.013 s
  | Total energy evaluation                     :        0.000 s           0.000 s

  Partial memory accounting:
  | Current value for overall tracked memory usage:
  |   Minimum:        1.512 MB (on task 35)
  |   Maximum:        1.637 MB (on task  7)
  |   Average:        1.545 MB
  | Peak value for overall tracked memory usage:
  |   Minimum:        4.002 MB (on task 51 after allocating wave)
  |   Maximum:        4.135 MB (on task  7 after allocating wave)
  |   Average:        4.044 MB
  | Largest tracked array allocation so far:
  |   Minimum:        0.756 MB (gradient_basis_wave_store on task 51)
  |   Maximum:        0.761 MB (gradient_basis_wave_store on task  0)
  |   Average:        0.761 MB
  Note:  These values currently only include a subset of arrays which are explicitly tracked.
  The "true" memory usage will be greater.
------------------------------------------------------------

------------------------------------------------------------
          Begin self-consistency iteration #    5

  Date     :  20260805, Time     :  170919.481
------------------------------------------------------------
  Pulay mixing of updated and previous charge densities.
  Available memory per node after mixing [GB]:   1006.83
  Renormalizing the density to the exact electron count on the 3D integration grid.
  | Formal number of electrons (from input files) :      34.0000000000
  | Integrated number of electrons on 3D grid     :      34.0000000000
  | Charge integration error                      :      -0.0000000000
  | Normalization factor for density and gradient :       1.0000000000

  Evaluating partitioned Hartree potential by multipole expansion.
  | Original multipole sum: apparent total charge =  -0.899047E-14
  | Sum of charges compensated after spline to logarithmic grids =  -0.139996E-05
  | Analytical far-field extrapolation by fixed multipoles:
  | Hartree multipole sum: apparent total charge =  -0.948858E-14
  Summing up the Hartree potential.
  Time summed over all CPUs for potential: real work        0.006 s, elapsed        0.007 s
  | RMS charge density error from multipole expansion :   0.662154E-02

  Integrating Hamiltonian matrix: batch-based integration.
  Time summed over all CPUs for integration: real work        0.953 s, elapsed        1.077 s

  Updating Kohn-Sham eigenvalues and eigenvectors using ELSI and the ELPA eigensolver.
  Starting ELPA eigensolver
  Finished transformation to standard eigenproblem
  | Time :     0.001 s
  Finished solving standard eigenproblem
  | Time :     0.003 s
  Finished back-transformation of eigenvectors
  | Time :     0.000 s

  Obtaining occupation numbers and electronic chemical potential using ELSI.
  | Note that, for insulating systems, the printed 'chemical potential' value is not uniquely defined.
  | It can be anywhere in the energy gap, as long as it correctly separates occupied and unoccupied states.
  | In systems with a gap, the physically relevant chemical potential is the VBM or HOMO.

  | Chemical potential (Fermi level):    -3.83422767 eV
  Highest occupied state (VBM) at     -6.92193856 eV
  | Occupation number:      2.00000000

  Lowest unoccupied state (CBM) at    -0.74651677 eV
  | Occupation number:      0.00000000

  Overall HOMO-LUMO gap:      6.17542179 eV.

  Total energy components:
  | Sum of eigenvalues            :        -336.04552748 Ha       -9144.26405776 eV
  | XC energy correction          :         -44.17705832 Ha       -1202.11892001 eV
  | XC potential correction       :          60.19110341 Ha        1637.88325834 eV
  | Free-atom electrostatic energy:        -266.62643124 Ha       -7255.27433828 eV
  | Hartree energy correction     :          -2.67872683 Ha         -72.89186567 eV
  | Entropy correction            :          -0.00000000 Ha          -0.00000000 eV
  | ---------------------------
  | Total energy                  :        -589.33664046 Ha      -16036.66592337 eV
  | Total energy, T -> 0          :        -589.33664046 Ha      -16036.66592337 eV  <-- do not rely on this value for anything but (periodic) metals
  | Electronic free energy        :        -589.33664046 Ha      -16036.66592337 eV

  Derived energy quantities:
  | Kinetic energy                :         590.96485556 Ha       16080.97191072 eV
  | Electrostatic energy          :       -1136.12443770 Ha      -30915.51891409 eV
  | Energy correction for multipole
  | error in Hartree potential    :          -0.00633007 Ha          -0.17224988 eV
  | Sum of eigenvalues per atom                           :       -1143.03300722 eV
  | Total energy (T->0) per atom                          :       -2004.58324042 eV  <-- do not rely on this value for anything but (periodic) metals
  | Electronic free energy per atom                       :       -2004.58324042 eV
  Evaluating new KS density.
  Integration grid: deviation in total charge (<rho> - N_e) =   0.000000E+00

  Self-consistency convergence accuracy:
  | Change of charge density      :  0.2297E-01
  | Change of unmixed KS density  :  0.1239E-01
  | Change of sum of eigenvalues  :  0.4318E+01 eV
  | Change of total energy        :  0.4038E-02 eV


------------------------------------------------------------
  End self-consistency iteration #     5       :  max(cpu_time)    wall_clock(cpu1)
  | Time for this iteration                     :        0.301 s           0.161 s
  | Charge density update                       :        0.007 s           0.007 s
  | Density mixing                              :        0.263 s           0.122 s
  | Hartree multipole update                    :        0.002 s           0.002 s
  | Hartree multipole summation                 :        0.008 s           0.008 s
  | Integration                                 :        0.017 s           0.017 s
  | Solution of K.-S. eqns.                     :        0.004 s           0.005 s
  | Total energy evaluation                     :        0.000 s           0.000 s

  Partial memory accounting:
  | Current value for overall tracked memory usage:
  |   Minimum:        1.512 MB (on task 35)
  |   Maximum:        1.637 MB (on task  7)
  |   Average:        1.545 MB
  | Peak value for overall tracked memory usage:
  |   Minimum:        4.002 MB (on task 51 after allocating wave)
  |   Maximum:        4.135 MB (on task  7 after allocating wave)
  |   Average:        4.044 MB
  | Largest tracked array allocation so far:
  |   Minimum:        0.756 MB (gradient_basis_wave_store on task 51)
  |   Maximum:        0.761 MB (gradient_basis_wave_store on task  0)
  |   Average:        0.761 MB
  Note:  These values currently only include a subset of arrays which are explicitly tracked.
  The "true" memory usage will be greater.
------------------------------------------------------------

------------------------------------------------------------
          Begin self-consistency iteration #    6

  Date     :  20260805, Time     :  170919.815
------------------------------------------------------------
  Pulay mixing of updated and previous charge densities.
  Available memory per node after mixing [GB]:   1006.83
  Renormalizing the density to the exact electron count on the 3D integration grid.
  | Formal number of electrons (from input files) :      34.0000000000
  | Integrated number of electrons on 3D grid     :      34.0000000000
  | Charge integration error                      :       0.0000000000
  | Normalization factor for density and gradient :       1.0000000000

  Evaluating partitioned Hartree potential by multipole expansion.
  | Original multipole sum: apparent total charge =  -0.108845E-13
  | Sum of charges compensated after spline to logarithmic grids =  -0.145154E-05
  | Analytical far-field extrapolation by fixed multipoles:
  | Hartree multipole sum: apparent total charge =  -0.101097E-13
  Summing up the Hartree potential.
  Time summed over all CPUs for potential: real work        0.007 s, elapsed        0.007 s
  | RMS charge density error from multipole expansion :   0.674419E-02

  Integrating Hamiltonian matrix: batch-based integration.
  Time summed over all CPUs for integration: real work        0.956 s, elapsed        1.129 s

  Updating Kohn-Sham eigenvalues and eigenvectors using ELSI and the ELPA eigensolver.
  Starting ELPA eigensolver
  Finished transformation to standard eigenproblem
  | Time :     0.001 s
  Finished solving standard eigenproblem
  | Time :     0.003 s
  Finished back-transformation of eigenvectors
  | Time :     0.000 s

  Obtaining occupation numbers and electronic chemical potential using ELSI.
  | Note that, for insulating systems, the printed 'chemical potential' value is not uniquely defined.
  | It can be anywhere in the energy gap, as long as it correctly separates occupied and unoccupied states.
  | In systems with a gap, the physically relevant chemical potential is the VBM or HOMO.

  | Chemical potential (Fermi level):    -3.84836979 eV
  Highest occupied state (VBM) at     -6.91056519 eV
  | Occupation number:      2.00000000

  Lowest unoccupied state (CBM) at    -0.78617440 eV
  | Occupation number:      0.00000000

  Overall HOMO-LUMO gap:      6.12439080 eV.

  Total energy components:
  | Sum of eigenvalues            :        -336.12010530 Ha       -9146.29342340 eV
  | XC energy correction          :         -44.17852120 Ha       -1202.15872703 eV
  | XC potential correction       :          60.19204266 Ha        1637.90881658 eV
  | Free-atom electrostatic energy:        -266.62643124 Ha       -7255.27433828 eV
  | Hartree energy correction     :          -2.60357715 Ha         -70.84693882 eV
  | Entropy correction            :          -0.00000000 Ha          -0.00000000 eV
  | ---------------------------
  | Total energy                  :        -589.33659223 Ha      -16036.66461096 eV
  | Total energy, T -> 0          :        -589.33659223 Ha      -16036.66461096 eV  <-- do not rely on this value for anything but (periodic) metals
  | Electronic free energy        :        -589.33659223 Ha      -16036.66461096 eV

  Derived energy quantities:
  | Kinetic energy                :         590.93838185 Ha       16080.25152427 eV
  | Electrostatic energy          :       -1136.09645287 Ha      -30914.75740819 eV
  | Energy correction for multipole
  | error in Hartree potential    :          -0.00633394 Ha          -0.17235523 eV
  | Sum of eigenvalues per atom                           :       -1143.28667793 eV
  | Total energy (T->0) per atom                          :       -2004.58307637 eV  <-- do not rely on this value for anything but (periodic) metals
  | Electronic free energy per atom                       :       -2004.58307637 eV
  Evaluating new KS density.
  Integration grid: deviation in total charge (<rho> - N_e) =   0.000000E+00

  Self-consistency convergence accuracy:
  | Change of charge density      :  0.6358E-02
  | Change of unmixed KS density  :  0.4417E-02
  | Change of sum of eigenvalues  : -0.2029E+01 eV
  | Change of total energy        :  0.1312E-02 eV


------------------------------------------------------------
  End self-consistency iteration #     6       :  max(cpu_time)    wall_clock(cpu1)
  | Time for this iteration                     :        0.312 s           0.148 s
  | Charge density update                       :        0.007 s           0.007 s
  | Density mixing                              :        0.272 s           0.109 s
  | Hartree multipole update                    :        0.002 s           0.002 s
  | Hartree multipole summation                 :        0.008 s           0.008 s
  | Integration                                 :        0.018 s           0.018 s
  | Solution of K.-S. eqns.                     :        0.004 s           0.004 s
  | Total energy evaluation                     :        0.000 s           0.000 s

  Partial memory accounting:
  | Current value for overall tracked memory usage:
  |   Minimum:        1.512 MB (on task 35)
  |   Maximum:        1.637 MB (on task  7)
  |   Average:        1.545 MB
  | Peak value for overall tracked memory usage:
  |   Minimum:        4.002 MB (on task 51 after allocating wave)
  |   Maximum:        4.135 MB (on task  7 after allocating wave)
  |   Average:        4.044 MB
  | Largest tracked array allocation so far:
  |   Minimum:        0.756 MB (gradient_basis_wave_store on task 51)
  |   Maximum:        0.761 MB (gradient_basis_wave_store on task  0)
  |   Average:        0.761 MB
  Note:  These values currently only include a subset of arrays which are explicitly tracked.
  The "true" memory usage will be greater.
------------------------------------------------------------

------------------------------------------------------------
          Begin self-consistency iteration #    7

  Date     :  20260805, Time     :  170920.004
------------------------------------------------------------
  Pulay mixing of updated and previous charge densities.
  Available memory per node after mixing [GB]:   1006.83
  Renormalizing the density to the exact electron count on the 3D integration grid.
  | Formal number of electrons (from input files) :      34.0000000000
  | Integrated number of electrons on 3D grid     :      34.0000000000
  | Charge integration error                      :       0.0000000000
  | Normalization factor for density and gradient :       1.0000000000

  Evaluating partitioned Hartree potential by multipole expansion.
  | Original multipole sum: apparent total charge =  -0.102142E-13
  | Sum of charges compensated after spline to logarithmic grids =  -0.142530E-05
  | Analytical far-field extrapolation by fixed multipoles:
  | Hartree multipole sum: apparent total charge =  -0.107000E-13
  Summing up the Hartree potential.
  Time summed over all CPUs for potential: real work        0.006 s, elapsed        0.007 s
  | RMS charge density error from multipole expansion :   0.672546E-02

  Integrating Hamiltonian matrix: batch-based integration.
  Time summed over all CPUs for integration: real work        0.952 s, elapsed        1.073 s

  Updating Kohn-Sham eigenvalues and eigenvectors using ELSI and the ELPA eigensolver.
  Starting ELPA eigensolver
  Finished transformation to standard eigenproblem
  | Time :     0.001 s
  Finished solving standard eigenproblem
  | Time :     0.030 s
  Finished back-transformation of eigenvectors
  | Time :     0.000 s

  Obtaining occupation numbers and electronic chemical potential using ELSI.
  | Note that, for insulating systems, the printed 'chemical potential' value is not uniquely defined.
  | It can be anywhere in the energy gap, as long as it correctly separates occupied and unoccupied states.
  | In systems with a gap, the physically relevant chemical potential is the VBM or HOMO.

  | Chemical potential (Fermi level):    -3.87165704 eV
  Highest occupied state (VBM) at     -6.94727369 eV
  | Occupation number:      2.00000000

  Lowest unoccupied state (CBM) at    -0.79604039 eV
  | Occupation number:      0.00000000

  Overall HOMO-LUMO gap:      6.15123330 eV.

  Total energy components:
  | Sum of eigenvalues            :        -336.14871198 Ha       -9147.07185096 eV
  | XC energy correction          :         -44.17311961 Ha       -1202.01174223 eV
  | XC potential correction       :          60.18491312 Ha        1637.71481213 eV
  | Free-atom electrostatic energy:        -266.62643124 Ha       -7255.27433828 eV
  | Hartree energy correction     :          -2.57325009 Ha         -70.02169754 eV
  | Entropy correction            :          -0.00000000 Ha          -0.00000000 eV
  | ---------------------------
  | Total energy                  :        -589.33659979 Ha      -16036.66481688 eV
  | Total energy, T -> 0          :        -589.33659979 Ha      -16036.66481688 eV  <-- do not rely on this value for anything but (periodic) metals
  | Electronic free energy        :        -589.33659979 Ha      -16036.66481688 eV

  Derived energy quantities:
  | Kinetic energy                :         590.92050973 Ha       16079.76519928 eV
  | Electrostatic energy          :       -1136.08398992 Ha      -30914.41827393 eV
  | Energy correction for multipole
  | error in Hartree potential    :          -0.00628555 Ha          -0.17103861 eV
  | Sum of eigenvalues per atom                           :       -1143.38398137 eV
  | Total energy (T->0) per atom                          :       -2004.58310211 eV  <-- do not rely on this value for anything but (periodic) metals
  | Electronic free energy per atom                       :       -2004.58310211 eV
  Evaluating new KS density.
  Integration grid: deviation in total charge (<rho> - N_e) =   7.105427E-15

  Self-consistency convergence accuracy:
  | Change of charge density      :  0.2299E-02
  | Change of unmixed KS density  :  0.3239E-02
  | Change of sum of eigenvalues  : -0.7784E+00 eV
  | Change of total energy        : -0.2059E-03 eV


------------------------------------------------------------
  End self-consistency iteration #     7       :  max(cpu_time)    wall_clock(cpu1)
  | Time for this iteration                     :        0.323 s           0.299 s
  | Charge density update                       :        0.007 s           0.007 s
  | Density mixing                              :        0.258 s           0.233 s
  | Hartree multipole update                    :        0.002 s           0.002 s
  | Hartree multipole summation                 :        0.008 s           0.008 s
  | Integration                                 :        0.017 s           0.017 s
  | Solution of K.-S. eqns.                     :        0.031 s           0.031 s
  | Total energy evaluation                     :        0.000 s           0.000 s

  Partial memory accounting:
  | Current value for overall tracked memory usage:
  |   Minimum:        1.512 MB (on task 35)
  |   Maximum:        1.637 MB (on task  7)
  |   Average:        1.545 MB
  | Peak value for overall tracked memory usage:
  |   Minimum:        4.002 MB (on task 51 after allocating wave)
  |   Maximum:        4.135 MB (on task  7 after allocating wave)
  |   Average:        4.044 MB
  | Largest tracked array allocation so far:
  |   Minimum:        0.756 MB (gradient_basis_wave_store on task 51)
  |   Maximum:        0.761 MB (gradient_basis_wave_store on task  0)
  |   Average:        0.761 MB
  Note:  These values currently only include a subset of arrays which are explicitly tracked.
  The "true" memory usage will be greater.
------------------------------------------------------------

------------------------------------------------------------
          Begin self-consistency iteration #    8

  Date     :  20260805, Time     :  170920.463
------------------------------------------------------------
  Pulay mixing of updated and previous charge densities.
  Available memory per node after mixing [GB]:   1006.83
  Renormalizing the density to the exact electron count on the 3D integration grid.
  | Formal number of electrons (from input files) :      34.0000000000
  | Integrated number of electrons on 3D grid     :      34.0000000000
  | Charge integration error                      :      -0.0000000000
  | Normalization factor for density and gradient :       1.0000000000

  Evaluating partitioned Hartree potential by multipole expansion.
  | Original multipole sum: apparent total charge =  -0.168986E-13
  | Sum of charges compensated after spline to logarithmic grids =  -0.142366E-05
  | Analytical far-field extrapolation by fixed multipoles:
  | Hartree multipole sum: apparent total charge =  -0.178334E-13
  Summing up the Hartree potential.
  Time summed over all CPUs for potential: real work        0.006 s, elapsed        0.007 s
  | RMS charge density error from multipole expansion :   0.678491E-02

  Integrating Hamiltonian matrix: batch-based integration.
  Time summed over all CPUs for integration: real work        0.952 s, elapsed        1.074 s

  Updating Kohn-Sham eigenvalues and eigenvectors using ELSI and the ELPA eigensolver.
  Starting ELPA eigensolver
  Finished transformation to standard eigenproblem
  | Time :     0.000 s
  Finished solving standard eigenproblem
  | Time :     0.004 s
  Finished back-transformation of eigenvectors
  | Time :     0.000 s

  Obtaining occupation numbers and electronic chemical potential using ELSI.
  | Note that, for insulating systems, the printed 'chemical potential' value is not uniquely defined.
  | It can be anywhere in the energy gap, as long as it correctly separates occupied and unoccupied states.
  | In systems with a gap, the physically relevant chemical potential is the VBM or HOMO.

  | Chemical potential (Fermi level):    -3.85808812 eV
  Highest occupied state (VBM) at     -6.91927580 eV
  | Occupation number:      2.00000000

  Lowest unoccupied state (CBM) at    -0.79690044 eV
  | Occupation number:      0.00000000

  Overall HOMO-LUMO gap:      6.12237537 eV.

  Total energy components:
  | Sum of eigenvalues            :        -336.13644585 Ha       -9146.73807254 eV
  | XC energy correction          :         -44.17702044 Ha       -1202.11788934 eV
  | XC potential correction       :          60.18977021 Ha        1637.84698013 eV
  | Free-atom electrostatic energy:        -266.62643124 Ha       -7255.27433828 eV
  | Hartree energy correction     :          -2.58646988 Ha         -70.38142642 eV
  | Entropy correction            :          -0.00000000 Ha          -0.00000000 eV
  | ---------------------------
  | Total energy                  :        -589.33659720 Ha      -16036.66474646 eV
  | Total energy, T -> 0          :        -589.33659720 Ha      -16036.66474646 eV  <-- do not rely on this value for anything but (periodic) metals
  | Electronic free energy        :        -589.33659720 Ha      -16036.66474646 eV

  Derived energy quantities:
  | Kinetic energy                :         590.93054172 Ha       16080.03818352 eV
  | Electrostatic energy          :       -1136.09011848 Ha      -30914.58504063 eV
  | Energy correction for multipole
  | error in Hartree potential    :          -0.00634124 Ha          -0.17255400 eV
  | Sum of eigenvalues per atom                           :       -1143.34225907 eV
  | Total energy (T->0) per atom                          :       -2004.58309331 eV  <-- do not rely on this value for anything but (periodic) metals
  | Electronic free energy per atom                       :       -2004.58309331 eV
  Evaluating new KS density.
  Integration grid: deviation in total charge (<rho> - N_e) =   7.105427E-15

  Self-consistency convergence accuracy:
  | Change of charge density      :  0.2682E-02
  | Change of unmixed KS density  :  0.8697E-03
  | Change of sum of eigenvalues  :  0.3338E+00 eV
  | Change of total energy        :  0.7042E-04 eV


------------------------------------------------------------
  End self-consistency iteration #     8       :  max(cpu_time)    wall_clock(cpu1)
  | Time for this iteration                     :        0.296 s           0.148 s
  | Charge density update                       :        0.007 s           0.007 s
  | Density mixing                              :        0.258 s           0.109 s
  | Hartree multipole update                    :        0.002 s           0.002 s
  | Hartree multipole summation                 :        0.008 s           0.008 s
  | Integration                                 :        0.017 s           0.018 s
  | Solution of K.-S. eqns.                     :        0.004 s           0.004 s
  | Total energy evaluation                     :        0.000 s           0.000 s

  Partial memory accounting:
  | Current value for overall tracked memory usage:
  |   Minimum:        1.512 MB (on task 35)
  |   Maximum:        1.637 MB (on task  7)
  |   Average:        1.546 MB
  | Peak value for overall tracked memory usage:
  |   Minimum:        4.002 MB (on task 51 after allocating wave)
  |   Maximum:        4.135 MB (on task  7 after allocating wave)
  |   Average:        4.044 MB
  | Largest tracked array allocation so far:
  |   Minimum:        0.756 MB (gradient_basis_wave_store on task 51)
  |   Maximum:        0.761 MB (gradient_basis_wave_store on task  0)
  |   Average:        0.761 MB
  Note:  These values currently only include a subset of arrays which are explicitly tracked.
  The "true" memory usage will be greater.
------------------------------------------------------------

------------------------------------------------------------
          Begin self-consistency iteration #    9

  Date     :  20260805, Time     :  170920.622
------------------------------------------------------------
  Pulay mixing of updated and previous charge densities.
  Available memory per node after mixing [GB]:   1006.83
  Renormalizing the density to the exact electron count on the 3D integration grid.
  | Formal number of electrons (from input files) :      34.0000000000
  | Integrated number of electrons on 3D grid     :      34.0000000000
  | Charge integration error                      :       0.0000000000
  | Normalization factor for density and gradient :       1.0000000000

  Evaluating partitioned Hartree potential by multipole expansion.
  | Original multipole sum: apparent total charge =   0.203546E-14
  | Sum of charges compensated after spline to logarithmic grids =  -0.142383E-05
  | Analytical far-field extrapolation by fixed multipoles:
  | Hartree multipole sum: apparent total charge =   0.307472E-14
  Summing up the Hartree potential.
  Time summed over all CPUs for potential: real work        0.006 s, elapsed        0.007 s
  | RMS charge density error from multipole expansion :   0.678765E-02

  Integrating Hamiltonian matrix: batch-based integration.
  Time summed over all CPUs for integration: real work        0.967 s, elapsed        1.097 s

  Updating Kohn-Sham eigenvalues and eigenvectors using ELSI and the ELPA eigensolver.
  Starting ELPA eigensolver
  Finished transformation to standard eigenproblem
  | Time :     0.001 s
  Finished solving standard eigenproblem
  | Time :     0.003 s
  Finished back-transformation of eigenvectors
  | Time :     0.001 s

  Obtaining occupation numbers and electronic chemical potential using ELSI.
  | Note that, for insulating systems, the printed 'chemical potential' value is not uniquely defined.
  | It can be anywhere in the energy gap, as long as it correctly separates occupied and unoccupied states.
  | In systems with a gap, the physically relevant chemical potential is the VBM or HOMO.

  | Chemical potential (Fermi level):    -3.85761559 eV
  Highest occupied state (VBM) at     -6.91883232 eV
  | Occupation number:      2.00000000

  Lowest unoccupied state (CBM) at    -0.79639886 eV
  | Occupation number:      0.00000000

  Overall HOMO-LUMO gap:      6.12243346 eV.

  Total energy components:
  | Sum of eigenvalues            :        -336.13617201 Ha       -9146.73062097 eV
  | XC energy correction          :         -44.17710055 Ha       -1202.12006914 eV
  | XC potential correction       :          60.18987518 Ha        1637.84983665 eV
  | Free-atom electrostatic energy:        -266.62643124 Ha       -7255.27433828 eV
  | Hartree energy correction     :          -2.58676861 Ha         -70.38955515 eV
  | Entropy correction            :          -0.00000000 Ha          -0.00000000 eV
  | ---------------------------
  | Total energy                  :        -589.33659722 Ha      -16036.66474688 eV
  | Total energy, T -> 0          :        -589.33659722 Ha      -16036.66474688 eV  <-- do not rely on this value for anything but (periodic) metals
  | Electronic free energy        :        -589.33659722 Ha      -16036.66474688 eV

  Derived energy quantities:
  | Kinetic energy                :         590.93038714 Ha       16080.03397728 eV
  | Electrostatic energy          :       -1136.08988381 Ha      -30914.57865502 eV
  | Energy correction for multipole
  | error in Hartree potential    :          -0.00634612 Ha          -0.17268681 eV
  | Sum of eigenvalues per atom                           :       -1143.34132762 eV
  | Total energy (T->0) per atom                          :       -2004.58309336 eV  <-- do not rely on this value for anything but (periodic) metals
  | Electronic free energy per atom                       :       -2004.58309336 eV
  Evaluating new KS density.
  Integration grid: deviation in total charge (<rho> - N_e) =   2.131628E-14

  Self-consistency convergence accuracy:
  | Change of charge density      :  0.2328E-03
  | Change of unmixed KS density  :  0.8521E-03
  | Change of sum of eigenvalues  :  0.7452E-02 eV
  | Change of total energy        : -0.4254E-06 eV


------------------------------------------------------------
  End self-consistency iteration #     9       :  max(cpu_time)    wall_clock(cpu1)
  | Time for this iteration                     :        0.341 s           0.341 s
  | Charge density update                       :        0.007 s           0.007 s
  | Density mixing                              :        0.302 s           0.302 s
  | Hartree multipole update                    :        0.002 s           0.002 s
  | Hartree multipole summation                 :        0.008 s           0.008 s
  | Integration                                 :        0.018 s           0.017 s
  | Solution of K.-S. eqns.                     :        0.004 s           0.005 s
  | Total energy evaluation                     :        0.000 s           0.000 s

  Partial memory accounting:
  | Current value for overall tracked memory usage:
  |   Minimum:        1.512 MB (on task 35)
  |   Maximum:        1.637 MB (on task  7)
  |   Average:        1.546 MB
  | Peak value for overall tracked memory usage:
  |   Minimum:        4.002 MB (on task 51 after allocating wave)
  |   Maximum:        4.135 MB (on task  7 after allocating wave)
  |   Average:        4.044 MB
  | Largest tracked array allocation so far:
  |   Minimum:        0.756 MB (gradient_basis_wave_store on task 51)
  |   Maximum:        0.761 MB (gradient_basis_wave_store on task  0)
  |   Average:        0.761 MB
  Note:  These values currently only include a subset of arrays which are explicitly tracked.
  The "true" memory usage will be greater.
------------------------------------------------------------

------------------------------------------------------------
          Begin self-consistency iteration #   10

  Date     :  20260805, Time     :  170921.020
------------------------------------------------------------
  Pulay mixing of updated and previous charge densities.
  Available memory per node after mixing [GB]:   1006.83
  Renormalizing the density to the exact electron count on the 3D integration grid.
  | Formal number of electrons (from input files) :      34.0000000000
  | Integrated number of electrons on 3D grid     :      34.0000000000
  | Charge integration error                      :      -0.0000000000
  | Normalization factor for density and gradient :       1.0000000000

  Evaluating partitioned Hartree potential by multipole expansion.
  | Original multipole sum: apparent total charge =  -0.135718E-13
  | Sum of charges compensated after spline to logarithmic grids =  -0.142326E-05
  | Analytical far-field extrapolation by fixed multipoles:
  | Hartree multipole sum: apparent total charge =  -0.150415E-13
  Summing up the Hartree potential.
  Time summed over all CPUs for potential: real work        0.006 s, elapsed        0.007 s
  | RMS charge density error from multipole expansion :   0.678916E-02

  Integrating Hamiltonian matrix: batch-based integration.
  Time summed over all CPUs for integration: real work        0.955 s, elapsed        1.074 s

  Updating Kohn-Sham eigenvalues and eigenvectors using ELSI and the ELPA eigensolver.
  Starting ELPA eigensolver
  Finished transformation to standard eigenproblem
  | Time :     0.001 s
  Finished solving standard eigenproblem
  | Time :     0.003 s
  Finished back-transformation of eigenvectors
  | Time :     0.000 s

  Obtaining occupation numbers and electronic chemical potential using ELSI.
  | Note that, for insulating systems, the printed 'chemical potential' value is not uniquely defined.
  | It can be anywhere in the energy gap, as long as it correctly separates occupied and unoccupied states.
  | In systems with a gap, the physically relevant chemical potential is the VBM or HOMO.

  | Chemical potential (Fermi level):    -3.85801905 eV
  Highest occupied state (VBM) at     -6.92000062 eV
  | Occupation number:      2.00000000

  Lowest unoccupied state (CBM) at    -0.79603748 eV
  | Occupation number:      0.00000000

  Overall HOMO-LUMO gap:      6.12396314 eV.

  Total energy components:
  | Sum of eigenvalues            :        -336.13678885 Ha       -9146.74740592 eV
  | XC energy correction          :         -44.17698838 Ha       -1202.11701685 eV
  | XC potential correction       :          60.18972485 Ha        1637.84574591 eV
  | Free-atom electrostatic energy:        -266.62643124 Ha       -7255.27433828 eV
  | Hartree energy correction     :          -2.58611368 Ha         -70.37173375 eV
  | Entropy correction            :          -0.00000000 Ha          -0.00000000 eV
  | ---------------------------
  | Total energy                  :        -589.33659729 Ha      -16036.66474889 eV
  | Total energy, T -> 0          :        -589.33659729 Ha      -16036.66474889 eV  <-- do not rely on this value for anything but (periodic) metals
  | Electronic free energy        :        -589.33659729 Ha      -16036.66474889 eV

  Derived energy quantities:
  | Kinetic energy                :         590.92971324 Ha       16080.01563944 eV
  | Electrostatic energy          :       -1136.08932215 Ha      -30914.56337148 eV
  | Energy correction for multipole
  | error in Hartree potential    :          -0.00634770 Ha          -0.17272963 eV
  | Sum of eigenvalues per atom                           :       -1143.34342574 eV
  | Total energy (T->0) per atom                          :       -2004.58309361 eV  <-- do not rely on this value for anything but (periodic) metals
  | Electronic free energy per atom                       :       -2004.58309361 eV
  Evaluating new KS density.
  Integration grid: deviation in total charge (<rho> - N_e) =   2.842171E-14

  Self-consistency convergence accuracy:
  | Change of charge density      :  0.1043E-03
  | Change of unmixed KS density  :  0.4462E-04
  | Change of sum of eigenvalues  : -0.1678E-01 eV
  | Change of total energy        : -0.2006E-05 eV


------------------------------------------------------------
  End self-consistency iteration #    10       :  max(cpu_time)    wall_clock(cpu1)
  | Time for this iteration                     :        0.308 s           0.261 s
  | Charge density update                       :        0.007 s           0.008 s
  | Density mixing                              :        0.269 s           0.222 s
  | Hartree multipole update                    :        0.002 s           0.002 s
  | Hartree multipole summation                 :        0.008 s           0.008 s
  | Integration                                 :        0.017 s           0.017 s
  | Solution of K.-S. eqns.                     :        0.004 s           0.004 s
  | Total energy evaluation                     :        0.000 s           0.000 s

  Partial memory accounting:
  | Current value for overall tracked memory usage:
  |   Minimum:        1.512 MB (on task 35)
  |   Maximum:        1.637 MB (on task  7)
  |   Average:        1.546 MB
  | Peak value for overall tracked memory usage:
  |   Minimum:        4.002 MB (on task 51 after allocating wave)
  |   Maximum:        4.135 MB (on task  7 after allocating wave)
  |   Average:        4.044 MB
  | Largest tracked array allocation so far:
  |   Minimum:        0.756 MB (gradient_basis_wave_store on task 51)
  |   Maximum:        0.761 MB (gradient_basis_wave_store on task  0)
  |   Average:        0.761 MB
  Note:  These values currently only include a subset of arrays which are explicitly tracked.
  The "true" memory usage will be greater.
------------------------------------------------------------

------------------------------------------------------------
          Begin self-consistency iteration #   11

  Date     :  20260805, Time     :  170921.332
------------------------------------------------------------
  Pulay mixing of updated and previous charge densities.
  Available memory per node after mixing [GB]:   1006.83
  Renormalizing the density to the exact electron count on the 3D integration grid.
  | Formal number of electrons (from input files) :      34.0000000000
  | Integrated number of electrons on 3D grid     :      34.0000000000
  | Charge integration error                      :       0.0000000000
  | Normalization factor for density and gradient :       1.0000000000

  Evaluating partitioned Hartree potential by multipole expansion.
  | Original multipole sum: apparent total charge =  -0.978375E-14
  | Sum of charges compensated after spline to logarithmic grids =  -0.142355E-05
  | Analytical far-field extrapolation by fixed multipoles:
  | Hartree multipole sum: apparent total charge =  -0.895358E-14
  Summing up the Hartree potential.
  Time summed over all CPUs for potential: real work        0.006 s, elapsed        0.007 s
  | RMS charge density error from multipole expansion :   0.679019E-02

  Integrating Hamiltonian matrix: batch-based integration.
  Time summed over all CPUs for integration: real work        0.956 s, elapsed        1.096 s

  Updating Kohn-Sham eigenvalues and eigenvectors using ELSI and the ELPA eigensolver.
  Starting ELPA eigensolver
  Finished transformation to standard eigenproblem
  | Time :     0.000 s
  Finished solving standard eigenproblem
  | Time :     0.003 s
  Finished back-transformation of eigenvectors
  | Time :     0.000 s

  Obtaining occupation numbers and electronic chemical potential using ELSI.
  | Note that, for insulating systems, the printed 'chemical potential' value is not uniquely defined.
  | It can be anywhere in the energy gap, as long as it correctly separates occupied and unoccupied states.
  | In systems with a gap, the physically relevant chemical potential is the VBM or HOMO.

  | Chemical potential (Fermi level):    -3.85774367 eV
  Highest occupied state (VBM) at     -6.91958587 eV
  | Occupation number:      2.00000000

  Lowest unoccupied state (CBM) at    -0.79590147 eV
  | Occupation number:      0.00000000

  Overall HOMO-LUMO gap:      6.12368440 eV.

  Total energy components:
  | Sum of eigenvalues            :        -336.13629379 Ha       -9146.73393471 eV
  | XC energy correction          :         -44.17707415 Ha       -1202.11935067 eV
  | XC potential correction       :          60.18984163 Ha        1637.84892362 eV
  | Free-atom electrostatic energy:        -266.62643124 Ha       -7255.27433828 eV
  | Hartree energy correction     :          -2.58663975 Ha         -70.38604879 eV
  | Entropy correction            :          -0.00000000 Ha          -0.00000000 eV
  | ---------------------------
  | Total energy                  :        -589.33659729 Ha      -16036.66474883 eV
  | Total energy, T -> 0          :        -589.33659729 Ha      -16036.66474883 eV  <-- do not rely on this value for anything but (periodic) metals
  | Electronic free energy        :        -589.33659729 Ha      -16036.66474883 eV

  Derived energy quantities:
  | Kinetic energy                :         590.93003079 Ha       16080.02428035 eV
  | Electrostatic energy          :       -1136.08955393 Ha      -30914.56967851 eV
  | Energy correction for multipole
  | error in Hartree potential    :          -0.00635097 Ha          -0.17281881 eV
  | Sum of eigenvalues per atom                           :       -1143.34174184 eV
  | Total energy (T->0) per atom                          :       -2004.58309360 eV  <-- do not rely on this value for anything but (periodic) metals
  | Electronic free energy per atom                       :       -2004.58309360 eV
  Evaluating new KS density.
  Integration grid: deviation in total charge (<rho> - N_e) =   4.263256E-14

  Self-consistency convergence accuracy:
  | Change of charge density      :  0.6326E-04
  | Change of unmixed KS density  :  0.3961E-04
  | Change of sum of eigenvalues  :  0.1347E-01 eV
  | Change of total energy        :  0.5494E-07 eV


------------------------------------------------------------
  End self-consistency iteration #    11       :  max(cpu_time)    wall_clock(cpu1)
  | Time for this iteration                     :        0.325 s           0.287 s
  | Charge density update                       :        0.007 s           0.007 s
  | Density mixing                              :        0.286 s           0.248 s
  | Hartree multipole update                    :        0.002 s           0.002 s
  | Hartree multipole summation                 :        0.008 s           0.008 s
  | Integration                                 :        0.018 s           0.018 s
  | Solution of K.-S. eqns.                     :        0.004 s           0.004 s
  | Total energy evaluation                     :        0.000 s           0.000 s

  Partial memory accounting:
  | Current value for overall tracked memory usage:
  |   Minimum:        1.512 MB (on task 35)
  |   Maximum:        1.637 MB (on task  7)
  |   Average:        1.546 MB
  | Peak value for overall tracked memory usage:
  |   Minimum:        4.002 MB (on task 51 after allocating wave)
  |   Maximum:        4.135 MB (on task  7 after allocating wave)
  |   Average:        4.044 MB
  | Largest tracked array allocation so far:
  |   Minimum:        0.756 MB (gradient_basis_wave_store on task 51)
  |   Maximum:        0.761 MB (gradient_basis_wave_store on task  0)
  |   Average:        0.761 MB
  Note:  These values currently only include a subset of arrays which are explicitly tracked.
  The "true" memory usage will be greater.
------------------------------------------------------------

------------------------------------------------------------
          Begin self-consistency iteration #   12

  Date     :  20260805, Time     :  170921.654
------------------------------------------------------------
  Pulay mixing of updated and previous charge densities.
  Available memory per node after mixing [GB]:   1006.83
  Renormalizing the density to the exact electron count on the 3D integration grid.
  | Formal number of electrons (from input files) :      34.0000000000
  | Integrated number of electrons on 3D grid     :      34.0000000000
  | Charge integration error                      :       0.0000000000
  | Normalization factor for density and gradient :       1.0000000000

  Evaluating partitioned Hartree potential by multipole expansion.
  | Original multipole sum: apparent total charge =  -0.843702E-14
  | Sum of charges compensated after spline to logarithmic grids =  -0.142354E-05
  | Analytical far-field extrapolation by fixed multipoles:
  | Hartree multipole sum: apparent total charge =  -0.870760E-14
  Summing up the Hartree potential.
  Time summed over all CPUs for potential: real work        0.007 s, elapsed        0.007 s
  | RMS charge density error from multipole expansion :   0.679021E-02

  Integrating Hamiltonian matrix: batch-based integration.
  Time summed over all CPUs for integration: real work        0.962 s, elapsed        1.087 s

  Updating Kohn-Sham eigenvalues and eigenvectors using ELSI and the ELPA eigensolver.
  Starting ELPA eigensolver
  Finished transformation to standard eigenproblem
  | Time :     0.000 s
  Finished solving standard eigenproblem
  | Time :     0.004 s
  Finished back-transformation of eigenvectors
  | Time :     0.000 s

  Obtaining occupation numbers and electronic chemical potential using ELSI.
  | Note that, for insulating systems, the printed 'chemical potential' value is not uniquely defined.
  | It can be anywhere in the energy gap, as long as it correctly separates occupied and unoccupied states.
  | In systems with a gap, the physically relevant chemical potential is the VBM or HOMO.

  | Chemical potential (Fermi level):    -3.85776374 eV
  Highest occupied state (VBM) at     -6.91960772 eV
  | Occupation number:      2.00000000

  Lowest unoccupied state (CBM) at    -0.79591975 eV
  | Occupation number:      0.00000000

  Overall HOMO-LUMO gap:      6.12368797 eV.

  Total energy components:
  | Sum of eigenvalues            :        -336.13633486 Ha       -9146.73505225 eV
  | XC energy correction          :         -44.17706986 Ha       -1202.11923417 eV
  | XC potential correction       :          60.18983582 Ha        1637.84876551 eV
  | Free-atom electrostatic energy:        -266.62643124 Ha       -7255.27433828 eV
  | Hartree energy correction     :          -2.58659715 Ha         -70.38488968 eV
  | Entropy correction            :          -0.00000000 Ha          -0.00000000 eV
  | ---------------------------
  | Total energy                  :        -589.33659729 Ha      -16036.66474888 eV
  | Total energy, T -> 0          :        -589.33659729 Ha      -16036.66474888 eV  <-- do not rely on this value for anything but (periodic) metals
  | Electronic free energy        :        -589.33659729 Ha      -16036.66474888 eV

  Derived energy quantities:
  | Kinetic energy                :         590.93000682 Ha       16080.02362808 eV
  | Electrostatic energy          :       -1136.08953425 Ha      -30914.56914278 eV
  | Energy correction for multipole
  | error in Hartree potential    :          -0.00635100 Ha          -0.17281956 eV
  | Sum of eigenvalues per atom                           :       -1143.34188153 eV
  | Total energy (T->0) per atom                          :       -2004.58309361 eV  <-- do not rely on this value for anything but (periodic) metals
  | Electronic free energy per atom                       :       -2004.58309361 eV
  Evaluating new KS density.
  Integration grid: deviation in total charge (<rho> - N_e) =   7.105427E-15

  Self-consistency convergence accuracy:
  | Change of charge density      :  0.5558E-05
  | Change of unmixed KS density  :  0.1437E-04
  | Change of sum of eigenvalues  : -0.1118E-02 eV
  | Change of total energy        : -0.4484E-07 eV


------------------------------------------------------------
  End self-consistency iteration #    12       :  max(cpu_time)    wall_clock(cpu1)
  | Time for this iteration                     :        0.366 s           0.343 s
  | Charge density update                       :        0.007 s           0.007 s
  | Density mixing                              :        0.327 s           0.304 s
  | Hartree multipole update                    :        0.002 s           0.002 s
  | Hartree multipole summation                 :        0.008 s           0.008 s
  | Integration                                 :        0.018 s           0.018 s
  | Solution of K.-S. eqns.                     :        0.004 s           0.004 s
  | Total energy evaluation                     :        0.000 s           0.000 s

  Partial memory accounting:
  | Current value for overall tracked memory usage:
  |   Minimum:        1.512 MB (on task 35)
  |   Maximum:        1.637 MB (on task  7)
  |   Average:        1.546 MB
  | Peak value for overall tracked memory usage:
  |   Minimum:        4.002 MB (on task 51 after allocating wave)
  |   Maximum:        4.135 MB (on task  7 after allocating wave)
  |   Average:        4.044 MB
  | Largest tracked array allocation so far:
  |   Minimum:        0.756 MB (gradient_basis_wave_store on task 51)
  |   Maximum:        0.761 MB (gradient_basis_wave_store on task  0)
  |   Average:        0.761 MB
  Note:  These values currently only include a subset of arrays which are explicitly tracked.
  The "true" memory usage will be greater.
------------------------------------------------------------

------------------------------------------------------------
          Begin self-consistency iteration #   13

  Date     :  20260805, Time     :  170922.253
------------------------------------------------------------
  Pulay mixing of updated and previous charge densities.
  Available memory per node after mixing [GB]:   1006.83
  Renormalizing the density to the exact electron count on the 3D integration grid.
  | Formal number of electrons (from input files) :      34.0000000000
  | Integrated number of electrons on 3D grid     :      34.0000000000
  | Charge integration error                      :       0.0000000000
  | Normalization factor for density and gradient :       1.0000000000

  Evaluating partitioned Hartree potential by multipole expansion.
  | Original multipole sum: apparent total charge =  -0.357897E-14
  | Sum of charges compensated after spline to logarithmic grids =  -0.142357E-05
  | Analytical far-field extrapolation by fixed multipoles:
  | Hartree multipole sum: apparent total charge =  -0.311776E-14
  Summing up the Hartree potential.
  Time summed over all CPUs for potential: real work        0.006 s, elapsed        0.007 s
  | RMS charge density error from multipole expansion :   0.679026E-02

  Integrating Hamiltonian matrix: batch-based integration.
  Time summed over all CPUs for integration: real work        0.955 s, elapsed        1.166 s

  Updating Kohn-Sham eigenvalues and eigenvectors using ELSI and the ELPA eigensolver.
  Starting ELPA eigensolver
  Finished transformation to standard eigenproblem
  | Time :     0.001 s
  Finished solving standard eigenproblem
  | Time :     0.003 s
  Finished back-transformation of eigenvectors
  | Time :     0.000 s

  Obtaining occupation numbers and electronic chemical potential using ELSI.
  | Note that, for insulating systems, the printed 'chemical potential' value is not uniquely defined.
  | It can be anywhere in the energy gap, as long as it correctly separates occupied and unoccupied states.
  | In systems with a gap, the physically relevant chemical potential is the VBM or HOMO.

  | Chemical potential (Fermi level):    -3.85776090 eV
  Highest occupied state (VBM) at     -6.91961164 eV
  | Occupation number:      2.00000000

  Lowest unoccupied state (CBM) at    -0.79591017 eV
  | Occupation number:      0.00000000

  Overall HOMO-LUMO gap:      6.12370147 eV.

  Total energy components:
  | Sum of eigenvalues            :        -336.13635460 Ha       -9146.73558943 eV
  | XC energy correction          :         -44.17706921 Ha       -1202.11921642 eV
  | XC potential correction       :          60.18983460 Ha        1637.84873217 eV
  | Free-atom electrostatic energy:        -266.62643124 Ha       -7255.27433828 eV
  | Hartree energy correction     :          -2.58657684 Ha         -70.38433699 eV
  | Entropy correction            :          -0.00000000 Ha          -0.00000000 eV
  | ---------------------------
  | Total energy                  :        -589.33659730 Ha      -16036.66474895 eV
  | Total energy, T -> 0          :        -589.33659730 Ha      -16036.66474895 eV  <-- do not rely on this value for anything but (periodic) metals
  | Electronic free energy        :        -589.33659730 Ha      -16036.66474895 eV

  Derived energy quantities:
  | Kinetic energy                :         590.92998428 Ha       16080.02301487 eV
  | Electrostatic energy          :       -1136.08951237 Ha      -30914.56854739 eV
  | Energy correction for multipole
  | error in Hartree potential    :          -0.00635119 Ha          -0.17282462 eV
  | Sum of eigenvalues per atom                           :       -1143.34194868 eV
  | Total energy (T->0) per atom                          :       -2004.58309362 eV  <-- do not rely on this value for anything but (periodic) metals
  | Electronic free energy per atom                       :       -2004.58309362 eV
  Evaluating new KS density.
  Integration grid: deviation in total charge (<rho> - N_e) =   1.421085E-14

  Self-consistency convergence accuracy:
  | Change of charge density      :  0.4665E-05
  | Change of unmixed KS density  :  0.5678E-06
  | Change of sum of eigenvalues  : -0.5372E-03 eV
  | Change of total energy        : -0.6659E-07 eV


------------------------------------------------------------
  End self-consistency iteration #    13       :  max(cpu_time)    wall_clock(cpu1)
  | Time for this iteration                     :        0.298 s           0.055 s
  | Charge density update                       :        0.007 s           0.007 s
  | Density mixing                              :        0.258 s           0.015 s
  | Hartree multipole update                    :        0.002 s           0.002 s
  | Hartree multipole summation                 :        0.008 s           0.008 s
  | Integration                                 :        0.019 s           0.018 s
  | Solution of K.-S. eqns.                     :        0.004 s           0.004 s
  | Total energy evaluation                     :        0.000 s           0.001 s

  Partial memory accounting:
  | Current value for overall tracked memory usage:
  |   Minimum:        1.512 MB (on task 35)
  |   Maximum:        1.637 MB (on task  7)
  |   Average:        1.546 MB
  | Peak value for overall tracked memory usage:
  |   Minimum:        4.002 MB (on task 51 after allocating wave)
  |   Maximum:        4.135 MB (on task  7 after allocating wave)
  |   Average:        4.044 MB
  | Largest tracked array allocation so far:
  |   Minimum:        0.756 MB (gradient_basis_wave_store on task 51)
  |   Maximum:        0.761 MB (gradient_basis_wave_store on task  0)
  |   Average:        0.761 MB
  Note:  These values currently only include a subset of arrays which are explicitly tracked.
  The "true" memory usage will be greater.
------------------------------------------------------------

------------------------------------------------------------
          Begin self-consistency iteration #   14

  Date     :  20260805, Time     :  170922.389
------------------------------------------------------------
  Pulay mixing of updated and previous charge densities.
  Available memory per node after mixing [GB]:   1006.83
  Renormalizing the density to the exact electron count on the 3D integration grid.
  | Formal number of electrons (from input files) :      34.0000000000
  | Integrated number of electrons on 3D grid     :      34.0000000000
  | Charge integration error                      :       0.0000000000
  | Normalization factor for density and gradient :       1.0000000000

  Evaluating partitioned Hartree potential by multipole expansion.
  | Original multipole sum: apparent total charge =  -0.182515E-13
  | Sum of charges compensated after spline to logarithmic grids =  -0.142357E-05
  | Analytical far-field extrapolation by fixed multipoles:
  | Hartree multipole sum: apparent total charge =  -0.193892E-13
  Summing up the Hartree potential.
  Time summed over all CPUs for potential: real work        0.006 s, elapsed        0.007 s
  | RMS charge density error from multipole expansion :   0.679026E-02

  Integrating Hamiltonian matrix: batch-based integration.
  Time summed over all CPUs for integration: real work        0.969 s, elapsed        1.079 s

  Updating Kohn-Sham eigenvalues and eigenvectors using ELSI and the ELPA eigensolver.
  Starting ELPA eigensolver
  Finished transformation to standard eigenproblem
  | Time :     0.000 s
  Finished solving standard eigenproblem
  | Time :     0.003 s
  Finished back-transformation of eigenvectors
  | Time :     0.001 s

  Obtaining occupation numbers and electronic chemical potential using ELSI.
  | Note that, for insulating systems, the printed 'chemical potential' value is not uniquely defined.
  | It can be anywhere in the energy gap, as long as it correctly separates occupied and unoccupied states.
  | In systems with a gap, the physically relevant chemical potential is the VBM or HOMO.

  | Chemical potential (Fermi level):    -3.85776265 eV
  Highest occupied state (VBM) at     -6.91961064 eV
  | Occupation number:      2.00000000

  Lowest unoccupied state (CBM) at    -0.79591466 eV
  | Occupation number:      0.00000000

  Overall HOMO-LUMO gap:      6.12369598 eV.

  Total energy components:
  | Sum of eigenvalues            :        -336.13635134 Ha       -9146.73550075 eV
  | XC energy correction          :         -44.17706917 Ha       -1202.11921523 eV
  | XC potential correction       :          60.18983456 Ha        1637.84873121 eV
  | Free-atom electrostatic energy:        -266.62643124 Ha       -7255.27433828 eV
  | Hartree energy correction     :          -2.58658011 Ha         -70.38442592 eV
  | Entropy correction            :          -0.00000000 Ha          -0.00000000 eV
  | ---------------------------
  | Total energy                  :        -589.33659730 Ha      -16036.66474897 eV
  | Total energy, T -> 0          :        -589.33659730 Ha      -16036.66474897 eV  <-- do not rely on this value for anything but (periodic) metals
  | Electronic free energy        :        -589.33659730 Ha      -16036.66474897 eV

  Derived energy quantities:
  | Kinetic energy                :         590.92998883 Ha       16080.02313852 eV
  | Electrostatic energy          :       -1136.08951695 Ha      -30914.56867226 eV
  | Energy correction for multipole
  | error in Hartree potential    :          -0.00635124 Ha          -0.17282609 eV
  | Sum of eigenvalues per atom                           :       -1143.34193759 eV
  | Total energy (T->0) per atom                          :       -2004.58309362 eV  <-- do not rely on this value for anything but (periodic) metals
  | Electronic free energy per atom                       :       -2004.58309362 eV
  Evaluating new KS density.
  Integration grid: deviation in total charge (<rho> - N_e) =   7.105427E-15

  Self-consistency convergence accuracy:
  | Change of charge density      :  0.1047E-05
  | Change of unmixed KS density  :  0.1482E-05
  | Change of sum of eigenvalues  :  0.8867E-04 eV
  | Change of total energy        : -0.2269E-07 eV


------------------------------------------------------------
  End self-consistency iteration #    14       :  max(cpu_time)    wall_clock(cpu1)
  | Time for this iteration                     :        0.302 s           0.229 s
  | Charge density update                       :        0.007 s           0.007 s
  | Density mixing                              :        0.263 s           0.190 s
  | Hartree multipole update                    :        0.002 s           0.002 s
  | Hartree multipole summation                 :        0.008 s           0.008 s
  | Integration                                 :        0.017 s           0.018 s
  | Solution of K.-S. eqns.                     :        0.004 s           0.004 s
  | Total energy evaluation                     :        0.000 s           0.000 s

  Partial memory accounting:
  | Current value for overall tracked memory usage:
  |   Minimum:        1.512 MB (on task 35)
  |   Maximum:        1.637 MB (on task  7)
  |   Average:        1.546 MB
  | Peak value for overall tracked memory usage:
  |   Minimum:        4.002 MB (on task 51 after allocating wave)
  |   Maximum:        4.135 MB (on task  7 after allocating wave)
  |   Average:        4.044 MB
  | Largest tracked array allocation so far:
  |   Minimum:        0.756 MB (gradient_basis_wave_store on task 51)
  |   Maximum:        0.761 MB (gradient_basis_wave_store on task  0)
  |   Average:        0.761 MB
  Note:  These values currently only include a subset of arrays which are explicitly tracked.
  The "true" memory usage will be greater.
------------------------------------------------------------

------------------------------------------------------------
          Begin self-consistency iteration #   15

  Date     :  20260805, Time     :  170922.629
------------------------------------------------------------
  Pulay mixing of updated and previous charge densities.
  Available memory per node after mixing [GB]:   1006.83
  Renormalizing the density to the exact electron count on the 3D integration grid.
  | Formal number of electrons (from input files) :      34.0000000000
  | Integrated number of electrons on 3D grid     :      34.0000000000
  | Charge integration error                      :       0.0000000000
  | Normalization factor for density and gradient :       1.0000000000

  Evaluating partitioned Hartree potential by multipole expansion.
  | Original multipole sum: apparent total charge =  -0.179563E-13
  | Sum of charges compensated after spline to logarithmic grids =  -0.142356E-05
  | Analytical far-field extrapolation by fixed multipoles:
  | Hartree multipole sum: apparent total charge =  -0.179563E-13
  Summing up the Hartree potential.
  Time summed over all CPUs for potential: real work        0.006 s, elapsed        0.007 s
  | RMS charge density error from multipole expansion :   0.679025E-02

  Integrating Hamiltonian matrix: batch-based integration.
  Time summed over all CPUs for integration: real work        0.974 s, elapsed        1.085 s

  Updating Kohn-Sham eigenvalues and eigenvectors using ELSI and the ELPA eigensolver.
  Starting ELPA eigensolver
  Finished transformation to standard eigenproblem
  | Time :     0.000 s
  Finished solving standard eigenproblem
  | Time :     0.003 s
  Finished back-transformation of eigenvectors
  | Time :     0.001 s

  Obtaining occupation numbers and electronic chemical potential using ELSI.
  | Note that, for insulating systems, the printed 'chemical potential' value is not uniquely defined.
  | It can be anywhere in the energy gap, as long as it correctly separates occupied and unoccupied states.
  | In systems with a gap, the physically relevant chemical potential is the VBM or HOMO.

  | Chemical potential (Fermi level):    -3.85776253 eV
  Highest occupied state (VBM) at     -6.91961040 eV
  | Occupation number:      2.00000000

  Lowest unoccupied state (CBM) at    -0.79591466 eV
  | Occupation number:      0.00000000

  Overall HOMO-LUMO gap:      6.12369574 eV.

  Total energy components:
  | Sum of eigenvalues            :        -336.13635048 Ha       -9146.73547727 eV
  | XC energy correction          :         -44.17706924 Ha       -1202.11921706 eV
  | XC potential correction       :          60.18983466 Ha        1637.84873389 eV
  | Free-atom electrostatic energy:        -266.62643124 Ha       -7255.27433828 eV
  | Hartree energy correction     :          -2.58658100 Ha         -70.38445024 eV
  | Entropy correction            :          -0.00000000 Ha          -0.00000000 eV
  | ---------------------------
  | Total energy                  :        -589.33659730 Ha      -16036.66474897 eV
  | Total energy, T -> 0          :        -589.33659730 Ha      -16036.66474897 eV  <-- do not rely on this value for anything but (periodic) metals
  | Electronic free energy        :        -589.33659730 Ha      -16036.66474897 eV

  Derived energy quantities:
  | Kinetic energy                :         590.92998967 Ha       16080.02316140 eV
  | Electrostatic energy          :       -1136.08951773 Ha      -30914.56869331 eV
  | Energy correction for multipole
  | error in Hartree potential    :          -0.00635124 Ha          -0.17282609 eV
  | Sum of eigenvalues per atom                           :       -1143.34193466 eV
  | Total energy (T->0) per atom                          :       -2004.58309362 eV  <-- do not rely on this value for anything but (periodic) metals
  | Electronic free energy per atom                       :       -2004.58309362 eV

  Self-consistency convergence accuracy:
  | Change of charge density      :  0.1718E-06
  | Change of unmixed KS density  :  0.2529E-06
  | Change of sum of eigenvalues  :  0.2348E-04 eV
  | Change of total energy        :  0.1188E-08 eV

  Writing Kohn-Sham eigenvalues.

  State    Occupation    Eigenvalue [Ha]    Eigenvalue [eV]
      1       2.00000         -77.224642        -2101.38942
      2       2.00000         -55.935644        -1522.08633
      3       2.00000          -6.551116         -178.26493
      4       2.00000          -4.658379         -126.76095
      5       2.00000          -4.658376         -126.76085
      6       2.00000          -4.654443         -126.65384
      7       2.00000          -4.042190         -109.99359
      8       2.00000          -2.565548          -69.81212
      9       2.00000          -2.557321          -69.58823
     10       2.00000          -2.557320          -69.58823
     11       2.00000          -0.660807          -17.98148
     12       2.00000          -0.410542          -11.17143
     13       2.00000          -0.410541          -11.17139
     14       2.00000          -0.380816          -10.36254
     15       2.00000          -0.291904           -7.94311
     16       2.00000          -0.254294           -6.91969
     17       2.00000          -0.254291           -6.91961
     18       0.00000          -0.029249           -0.79591
     19       0.00000          -0.029240           -0.79565
     20       0.00000          -0.025380           -0.69062
     21       0.00000           0.014265            0.38816
     22       0.00000           0.043850            1.19322
     23       0.00000           0.053897            1.46661
     24       0.00000           0.053904            1.46680
     25       0.00000           0.074570            2.02915
     26       0.00000           0.074588            2.02965
     27       0.00000           0.101249            2.75513
     28       0.00000           0.120457            3.27781
     29       0.00000           0.120463            3.27795
     30       0.00000           0.127373            3.46598
     31       0.00000           0.127386            3.46635
     32       0.00000           0.136663            3.71880

  Highest occupied state (VBM) at     -6.91961040 eV
  | Occupation number:      2.00000000

  Lowest unoccupied state (CBM) at    -0.79591466 eV
  | Occupation number:      0.00000000

  Overall HOMO-LUMO gap:      6.12369574 eV.

  | Chemical Potential                          :    -3.85776253 eV
  | Note that, for insulating systems, the printed 'chemical potential' value is not uniquely defined.
  | It can be anywhere in the energy gap, as long as it correctly separates occupied and unoccupied states.
  | In systems with a gap, the physically relevant chemical potential is the VBM or HOMO.

  Self-consistency cycle converged.


------------------------------------------------------------
  End self-consistency iteration #    15       :  max(cpu_time)    wall_clock(cpu1)
  | Time for this iteration                     :        0.335 s           0.335 s
  | Charge density update                       :        0.000 s           0.000 s
  | Density mixing                              :        0.303 s           0.303 s
  | Hartree multipole update                    :        0.002 s           0.002 s
  | Hartree multipole summation                 :        0.008 s           0.008 s
  | Integration                                 :        0.018 s           0.018 s
  | Solution of K.-S. eqns.                     :        0.004 s           0.004 s
  | Total energy evaluation                     :        0.000 s           0.000 s

  Partial memory accounting:
  | Current value for overall tracked memory usage:
  |   Minimum:        1.512 MB (on task 35)
  |   Maximum:        1.637 MB (on task  7)
  |   Average:        1.546 MB
  | Peak value for overall tracked memory usage:
  |   Minimum:        4.002 MB (on task 51 after allocating wave)
  |   Maximum:        4.135 MB (on task  7 after allocating wave)
  |   Average:        4.044 MB
  | Largest tracked array allocation so far:
  |   Minimum:        0.756 MB (gradient_basis_wave_store on task 51)
  |   Maximum:        0.761 MB (gradient_basis_wave_store on task  0)
  |   Average:        0.761 MB
  Note:  These values currently only include a subset of arrays which are explicitly tracked.
  The "true" memory usage will be greater.
------------------------------------------------------------

  Energy and forces in a compact form:
  | Total energy uncorrected      :         -0.160366647489666E+05 eV
  | Total energy corrected        :         -0.160366647489666E+05 eV  <-- do not rely on this value for anything but (periodic) metals
  | Electronic free energy        :         -0.160366647489666E+05 eV

  ------------------------------------ 
  Start decomposition of the XC Energy 
  ------------------------------------ 
  X and C from original XC functional choice 
  Hartree-Fock Energy :          0.000000000 Ha              0.000000000 eV
  X Energy            :        -43.020609824 Ha          -1170.650355348 eV
  C Energy            :         -1.156459412 Ha            -31.468861715 eV
  XC Energy w/o HF    :        -44.177069236 Ha          -1202.119217064 eV
  Total XC Energy     :        -44.177069236 Ha          -1202.119217064 eV
  ------------------------------------ 
  LDA X and C from self-consistent density 
  X Energy LDA        :        -39.397230417 Ha          -1072.053185102 eV
  C Energy LDA        :         -2.425955709 Ha            -66.013613586 eV
  ------------------------------------ 
  End decomposition of the XC Energy 
  ------------------------------------ 

------------------------------------------------------------

------------------------------------------------------------------------------
  Final output of selected total energy values:

  The following output summarizes some interesting total energy values
  at the end of a run (AFTER all relaxation, molecular dynamics, etc.).

  | Total energy of the DFT / Hartree-Fock s.c.f. calculation      :         -16036.664748967 eV
  | Final zero-broadening corrected energy (caution - metals only) :         -16036.664748967 eV
  | For reference only, the value of 1 Hartree used in FHI-aims is :             27.211384500 eV

  Before relying on these values, please be sure to understand exactly which
  total energy value is referred to by a given number. Different objects may
  all carry the same name 'total energy'. Definitions:

  Total energy of the DFT / Hartree-Fock s.c.f. calculation:
  | Note that this energy does not include ANY quantities calculated after the
  | s.c.f. cycle, in particular not ANY RPA, MP2, etc. many-body perturbation terms.

  Final zero-broadening corrected energy:
  | For metallic systems only, a broadening of the occupation numbers at the Fermi
  | level can be extrapolated back to zero broadening by an electron-gas inspired
  | formula. For all systems that are not real metals, this value can be
  | meaningless and should be avoided.

------------------------------------------------------------------------------
  Methods described in the following list of references were used in this FHI-aims run.
  If you publish the results, please make sure to cite these reference if they apply.
  FHI-aims is an academic code, and for our developers (often, Ph.D. students
  and postdocs), scientific credit in the community is essential.
  Thank you for helping us!

  For any use of FHI-aims, please cite:

    Volker Blum, Ralf Gehrke, Felix Hanke, Paula Havu, Ville Havu,
    Xinguo Ren, Karsten Reuter, and Matthias Scheffler
    'Ab initio molecular simulations with numeric atom-centered orbitals'
    Computer Physics Communications 180, 2175-2196 (2009)
    http://doi.org/10.1016/j.cpc.2009.06.022


  The ELSI infrastructure was used in your run to solve the Kohn-Sham electronic structure.
  Please check out https://wordpress.elsi-interchange.org to learn more.
  If scalability is important for your project, please acknowledge ELSI by citing:

    V. W-z. Yu, F. Corsetti, A. Garcia, W. P. Huhn, M. Jacquelin, W. Jia,
    B. Lange, L. Lin, J. Lu, W. Mi, A. Seifitokaldani, A. Vazquez-Mayagoitia,
    C. Yang, H. Yang, and V. Blum
    'ELSI: A unified software interface for Kohn-Sham electronic structure solvers'
    Computer Physics Communications 222, 267-285 (2018).
    http://doi.org/10.1016/j.cpc.2017.09.007


  For the real-space grid partitioning and parallelization used in this calculation, please cite:

    Ville Havu, Volker Blum, Paula Havu, and Matthias Scheffler,
    'Efficient O(N) integration for all-electron electronic structure calculation'
    'using numerically tabulated basis functions'
    Journal of Computational Physics 228, 8367-8379 (2009).
    http://doi.org/10.1016/j.jcp.2009.08.008

  Of course, there are many other important community references, e.g., those cited in the
  above references. Our list is limited to references that describe implementations in the
  FHI-aims code. The reason is purely practical (length of this list) - please credit others as well.
------------------------------------------------------------
Warnings summary:

At least    2 warnings were raised during execution.

------------------------------------------------------------
          Leaving FHI-aims.
          Date     :  20260805, Time     :  170923.237

          Computational steps:
          | Number of self-consistency cycles          :           15
          | Number of SCF (re)initializations          :            1

          Detailed time accounting                     :  max(cpu_time)    wall_clock(cpu1)
          | Total time                                  :        4.828 s           6.180 s
          | Preparation time                            :        0.261 s           0.671 s
          | Boundary condition initalization            :        0.002 s           0.001 s
          | Grid partitioning                           :        0.038 s           0.037 s
          | Preloading free-atom quantities on grid     :        0.008 s           0.008 s
          | Free-atom superposition energy              :        0.002 s           0.002 s
          | Total time for integrations                 :        0.293 s           0.291 s
          | Total time for solution of K.-S. equations  :        0.310 s           0.338 s
          | Total time for density update               :        0.105 s           0.107 s
          | Total time for mixing                       :        3.871 s           2.783 s
          | Total time for Hartree multipole update     :        0.032 s           0.031 s
          | Total time for Hartree multipole sum        :        0.116 s           0.120 s
          | Total time for total energy evaluation      :        0.001 s           0.001 s
          | Total time for scaled ZORA corrections      :        0.000 s           0.000 s

          Partial memory accounting:
          | Residual value for overall tracked memory usage across tasks:     0.000000 MB (should be 0.000000 MB)
          | Peak values for overall tracked memory usage:
          |   Minimum:        4.002 MB (on task 51 after allocating wave)
          |   Maximum:        4.135 MB (on task  7 after allocating wave)
          |   Average:        4.044 MB
          | Largest tracked array allocation:
          |   Minimum:        0.756 MB (gradient_basis_wave_store on task 51)
          |   Maximum:        0.761 MB (gradient_basis_wave_store on task  0)
          |   Average:        0.761 MB
          Note:  These values currently only include a subset of arrays which are explicitly tracked.
          The "true" memory usage will be greater.

          Have a nice day.
------------------------------------------------------------
