8
Lattice="5.785480000000001 0.0 0.0 0.0 5.785480000000001 0.0 0.0 0.0 5.785480000000001" Properties=species:S:1:pos:R:3:forces:R:3 calculation_type=solid calculation_label=AlP/scale_1.060 d4_functional=r2SCAN d4_method=r2scan d4_energy_eV=-0.8048057351818786 source_geometry=/mnt/ceph/users/cwoodson/dft_calc/latbulk/eos_jobs/AlP/scale_1.060/geometry.in energy=-0.8048057351818786 free_energy=-0.8048057351818786 stress="0.0038299617282216984 -1.1151802351330628e-19 -1.549833500291556e-19 -1.1151802351330628e-19 0.0038299617282217552 -1.265146415190789e-19 -1.549833500291556e-19 -1.265146415190789e-19 0.003829961728221797" pbc="T T T"
Al       0.00000000       0.00000000       0.00000000       0.00000000       0.00000000       0.00000000
P        1.44637000       1.44637000       1.44637000       0.00000000       0.00000000       0.00000000
Al       0.00000000       2.89274000       2.89274000       0.00000000      -0.00000000      -0.00000000
P        1.44637000       4.33911000       4.33911000      -0.00000000      -0.00000000      -0.00000000
Al       2.89274000       0.00000000       2.89274000      -0.00000000       0.00000000      -0.00000000
P        4.33911000       1.44637000       4.33911000      -0.00000000       0.00000000       0.00000000
Al       2.89274000       2.89274000       0.00000000      -0.00000000      -0.00000000       0.00000000
P        4.33911000       4.33911000       1.44637000      -0.00000000      -0.00000000       0.00000000
