8
Lattice="5.21239 0.0 0.0 0.0 5.21239 0.0 0.0 0.0 5.21239" Properties=species:S:1:pos:R:3:forces:R:3 calculation_type=solid calculation_label=AlP/scale_0.955 d4_functional=r2SCAN d4_method=r2scan d4_energy_eV=-1.0694053834016595 source_geometry=/mnt/ceph/users/cwoodson/dft_calc/latbulk/eos_jobs/AlP/scale_0.955/geometry.in energy=-1.0694053834016595 free_energy=-1.0694053834016595 stress="0.0067574878165481906 -2.4259927038859366e-20 -6.867301707885847e-20 -2.4259927038859366e-20 0.006757487816548166 9.144777577559628e-20 -6.867301707885847e-20 9.144777577559628e-20 0.0067574878165481585" pbc="T T T"
Al       0.00000000       0.00000000       0.00000000      -0.00000000       0.00000000      -0.00000000
P        1.30309750       1.30309750       1.30309750      -0.00000000      -0.00000000       0.00000000
Al       0.00000000       2.60619500       2.60619500      -0.00000000       0.00000000       0.00000000
P        1.30309750       3.90929250       3.90929250       0.00000000      -0.00000000      -0.00000000
Al       2.60619500       0.00000000       2.60619500      -0.00000000      -0.00000000       0.00000000
P        3.90929250       1.30309750       3.90929250      -0.00000000      -0.00000000      -0.00000000
Al       2.60619500       2.60619500       0.00000000      -0.00000000       0.00000000      -0.00000000
P        3.90929250       3.90929250       1.30309750      -0.00000000       0.00000000       0.00000000
