8
Lattice="5.62174 0.0 0.0 0.0 5.62174 0.0 0.0 0.0 5.62174" Properties=species:S:1:pos:R:3:forces:R:3 calculation_type=solid calculation_label=AlP/scale_1.030 d4_functional=r2SCAN d4_method=r2scan d4_energy_eV=-0.8709875475138086 source_geometry=/mnt/ceph/users/cwoodson/dft_calc/latbulk/eos_jobs/AlP/scale_1.030/geometry.in energy=-0.8709875475138086 free_energy=-0.8709875475138086 stress="0.004474034684903436 3.2102026443165343e-21 5.981869467602559e-20 3.2102026443165343e-21 0.004474034684903432 4.34683776815903e-22 5.981869467602559e-20 4.34683776815903e-22 0.004474034684903444" pbc="T T T"
Al       0.00000000       0.00000000       0.00000000      -0.00000000      -0.00000000      -0.00000000
P        1.40543500       1.40543500       1.40543500       0.00000000       0.00000000      -0.00000000
Al       0.00000000       2.81087000       2.81087000      -0.00000000       0.00000000       0.00000000
P        1.40543500       4.21630500       4.21630500       0.00000000      -0.00000000       0.00000000
Al       2.81087000       0.00000000       2.81087000       0.00000000      -0.00000000       0.00000000
P        4.21630500       1.40543500       4.21630500      -0.00000000       0.00000000       0.00000000
Al       2.81087000       2.81087000       0.00000000       0.00000000       0.00000000      -0.00000000
P        4.21630500       4.21630500       1.40543500      -0.00000000      -0.00000000      -0.00000000
