8
Lattice="5.5398700000000005 0.0 0.0 0.0 5.5398700000000005 0.0 0.0 0.0 5.5398700000000005" Properties=species:S:1:pos:R:3:forces:R:3 calculation_type=solid calculation_label=AlP/scale_1.015 d4_functional=r2SCAN d4_method=r2scan d4_energy_eV=-0.9065461707068029 source_geometry=/mnt/ceph/users/cwoodson/dft_calc/latbulk/eos_jobs/AlP/scale_1.015/geometry.in energy=-0.9065461707068029 free_energy=-0.9065461707068029 stress="0.0048454762859425965 -7.076518325467557e-20 -6.073405976923342e-20 -7.076518325467557e-20 0.004845476285942592 1.8098364550140976e-20 -6.073405976923342e-20 1.8098364550140976e-20 0.004845476285942603" pbc="T T T"
Al       0.00000000       0.00000000       0.00000000      -0.00000000      -0.00000000      -0.00000000
P        1.38496750       1.38496750       1.38496750       0.00000000       0.00000000      -0.00000000
Al       0.00000000       2.76993500       2.76993500      -0.00000000      -0.00000000      -0.00000000
P        1.38496750       4.15490250       4.15490250       0.00000000      -0.00000000       0.00000000
Al       2.76993500       0.00000000       2.76993500       0.00000000       0.00000000      -0.00000000
P        4.15490250       1.38496750       4.15490250      -0.00000000       0.00000000       0.00000000
Al       2.76993500       2.76993500       0.00000000       0.00000000      -0.00000000      -0.00000000
P        4.15490250       4.15490250       1.38496750      -0.00000000       0.00000000      -0.00000000
