8
Lattice="5.13052 0.0 0.0 0.0 5.13052 0.0 0.0 0.0 5.13052" Properties=species:S:1:pos:R:3:forces:R:3 calculation_type=solid calculation_label=AlP/scale_0.940 d4_functional=r2SCAN d4_method=r2scan d4_energy_eV=-1.115769619319798 source_geometry=/mnt/ceph/users/cwoodson/dft_calc/latbulk/eos_jobs/AlP/scale_0.940/geometry.in energy=-1.115769619319798 free_energy=-1.115769619319798 stress="0.007351446885198999 -4.642192567823649e-20 1.4490334367333362e-19 -4.642192567823649e-20 0.0073514468851990315 1.377352010920613e-19 1.4490334367333362e-19 1.377352010920613e-19 0.0073514468851990315" pbc="T T T"
Al       0.00000000       0.00000000       0.00000000       0.00000000       0.00000000       0.00000000
P        1.28263000       1.28263000       1.28263000      -0.00000000      -0.00000000       0.00000000
Al       0.00000000       2.56526000       2.56526000       0.00000000      -0.00000000      -0.00000000
P        1.28263000       3.84789000       3.84789000      -0.00000000       0.00000000      -0.00000000
Al       2.56526000       0.00000000       2.56526000      -0.00000000      -0.00000000      -0.00000000
P        3.84789000       1.28263000       3.84789000       0.00000000      -0.00000000      -0.00000000
Al       2.56526000       2.56526000       0.00000000      -0.00000000       0.00000000       0.00000000
P        3.84789000       3.84789000       1.28263000      -0.00000000       0.00000000       0.00000000
