8
Lattice="3.607 0.0 0.0 0.0 3.607 0.0 0.0 0.0 3.607" Properties=species:S:1:pos:R:3:forces:R:3 calculation_type=solid calculation_label=BN/scale_1.000 d4_functional=r2SCAN d4_method=r2scan d4_energy_eV=-0.7863703283166399 source_geometry=/mnt/ceph/users/cwoodson/dft_calc/latbulk/eos_jobs/BN/scale_1.000/geometry.in energy=-0.7863703283166399 free_energy=-0.7863703283166399 stress="0.014161131054353496 2.7629982476671675e-19 -7.287128037362718e-19 2.7629982476671675e-19 0.014161130946147843 5.849350417849496e-16 -7.287128037362718e-19 5.849350417849496e-16 0.014161130837941705" pbc="T T T"
B        0.00000000       0.00000000       0.00000000      -0.00000000       0.00000000       0.00000000
N        0.90175000       0.90175000       0.90175000      -0.00000000       0.00000000       0.00000000
B        0.00000000       1.80350000       1.80350000       0.00000000      -0.00000000      -0.00000000
N        0.90175000       2.70525000       2.70525000      -0.00000000      -0.00000000      -0.00000000
B        1.80350000       0.00000000       1.80350000       0.00000000      -0.00000000       0.00000000
N        2.70525000       0.90175000       2.70525000       0.00000000       0.00000000      -0.00000000
B        1.80350000       1.80350000       0.00000000       0.00000000       0.00000000      -0.00000000
N        2.70525000       2.70525000       0.90175000       0.00000000      -0.00000000       0.00000000
