8
Lattice="3.6611050000000005 0.0 0.0 0.0 3.6611050000000005 0.0 0.0 0.0 3.6611050000000005" Properties=species:S:1:pos:R:3:forces:R:3 calculation_type=solid calculation_label=BN/scale_1.015 d4_functional=r2SCAN d4_method=r2scan d4_energy_eV=-0.7569637460532708 source_geometry=/mnt/ceph/users/cwoodson/dft_calc/latbulk/eos_jobs/BN/scale_1.015/geometry.in energy=-0.7569637460532708 free_energy=-0.7569637460532708 stress="0.0132599715121902 -1.8471721446531185e-19 -4.759270928555036e-19 -1.8471721446531185e-19 0.01325997144311402 2.660712925529153e-16 -4.759270928555036e-19 2.660712925529153e-16 0.013259971374037437" pbc="T T T"
B        0.00000000       0.00000000       0.00000000      -0.00000000      -0.00000000      -0.00000000
N        0.91527625       0.91527625       0.91527625       0.00000000      -0.00000000       0.00000000
B        0.00000000       1.83055250       1.83055250      -0.00000000       0.00000000      -0.00000000
N        0.91527625       2.74582875       2.74582875       0.00000000       0.00000000       0.00000000
B        1.83055250       0.00000000       1.83055250       0.00000000      -0.00000000      -0.00000000
N        2.74582875       0.91527625       2.74582875      -0.00000000      -0.00000000       0.00000000
B        1.83055250       1.83055250       0.00000000      -0.00000000      -0.00000000      -0.00000000
N        2.74582875       2.74582875       0.91527625      -0.00000000       0.00000000      -0.00000000
