8
Lattice="3.7152100000000003 0.0 0.0 0.0 3.7152100000000003 0.0 0.0 0.0 3.7152100000000003" Properties=species:S:1:pos:R:3:forces:R:3 calculation_type=solid calculation_label=BN/scale_1.030 d4_functional=r2SCAN d4_method=r2scan d4_energy_eV=-0.7286723159988732 source_geometry=/mnt/ceph/users/cwoodson/dft_calc/latbulk/eos_jobs/BN/scale_1.030/geometry.in energy=-0.7286723159988732 free_energy=-0.7286723159988732 stress="0.012343043920049597 -3.505190677732911e-19 -1.0780518061950397e-19 -3.505190677732911e-19 0.01234304387562894 1.215262367239096e-16 -1.0780518061950397e-19 1.215262367239096e-16 0.012343043831208525" pbc="T T T"
B        0.00000000       0.00000000       0.00000000      -0.00000000      -0.00000000      -0.00000000
N        0.92880250       0.92880250       0.92880250       0.00000000      -0.00000000       0.00000000
B        0.00000000       1.85760500       1.85760500      -0.00000000       0.00000000       0.00000000
N        0.92880250       2.78640750       2.78640750       0.00000000       0.00000000      -0.00000000
B        1.85760500       0.00000000       1.85760500       0.00000000      -0.00000000       0.00000000
N        2.78640750       0.92880250       2.78640750      -0.00000000      -0.00000000      -0.00000000
B        1.85760500       1.85760500       0.00000000       0.00000000       0.00000000      -0.00000000
N        2.78640750       2.78640750       0.92880250      -0.00000000       0.00000000       0.00000000
