8
Lattice="4.606070000000001 0.0 0.0 0.0 4.606070000000001 0.0 0.0 0.0 4.606070000000001" Properties=species:S:1:pos:R:3:forces:R:3 calculation_type=solid calculation_label=BP/scale_1.015 d4_functional=r2SCAN d4_method=r2scan d4_energy_eV=-1.0218276096914434 source_geometry=/mnt/ceph/users/cwoodson/dft_calc/latbulk/eos_jobs/BP/scale_1.015/geometry.in energy=-1.0218276096914434 free_energy=-1.0218276096914434 stress="0.010046930361662368 1.0657508714949948e-19 8.071329071458487e-20 1.0657508714949948e-19 0.010046930361394105 -1.6436271571135827e-19 8.071329071458487e-20 -1.6436271571135827e-19 0.010046930361126128" pbc="T T T"
B        0.00000000       0.00000000       0.00000000      -0.00000000       0.00000000       0.00000000
P        1.15151750       1.15151750       1.15151750       0.00000000       0.00000000      -0.00000000
B        0.00000000       2.30303500       2.30303500      -0.00000000       0.00000000       0.00000000
P        1.15151750       3.45455250       3.45455250       0.00000000      -0.00000000       0.00000000
B        2.30303500       0.00000000       2.30303500       0.00000000      -0.00000000      -0.00000000
P        3.45455250       1.15151750       3.45455250      -0.00000000       0.00000000       0.00000000
B        2.30303500       2.30303500       0.00000000       0.00000000       0.00000000       0.00000000
P        3.45455250       3.45455250       1.15151750      -0.00000000      -0.00000000      -0.00000000
