8
Lattice="4.3337900000000005 0.0 0.0 0.0 4.3337900000000005 0.0 0.0 0.0 4.3337900000000005" Properties=species:S:1:pos:R:3:forces:R:3 calculation_type=solid calculation_label=BP/scale_0.955 d4_functional=r2SCAN d4_method=r2scan d4_energy_eV=-1.2204692179884014 source_geometry=/mnt/ceph/users/cwoodson/dft_calc/latbulk/eos_jobs/BP/scale_0.955/geometry.in energy=-1.2204692179884014 free_energy=-1.2204692179884014 stress="0.0143388524903982 4.965088546161147e-19 -4.763218482048664e-19 4.965088546161147e-19 0.014338852484038952 1.426879248929929e-19 -4.763218482048664e-19 1.426879248929929e-19 0.014338852477679352" pbc="T T T"
B        0.00000000       0.00000000       0.00000000      -0.00000000      -0.00000000       0.00000000
P        1.08344750       1.08344750       1.08344750      -0.00000000       0.00000000       0.00000000
B        0.00000000       2.16689500       2.16689500      -0.00000000       0.00000000      -0.00000000
P        1.08344750       3.25034250       3.25034250      -0.00000000       0.00000000      -0.00000000
B        2.16689500       0.00000000       2.16689500       0.00000000      -0.00000000      -0.00000000
P        3.25034250       1.08344750       3.25034250       0.00000000       0.00000000      -0.00000000
B        2.16689500       2.16689500       0.00000000       0.00000000       0.00000000       0.00000000
P        3.25034250       3.25034250       1.08344750       0.00000000       0.00000000       0.00000000
