8
Lattice="4.40186 0.0 0.0 0.0 4.40186 0.0 0.0 0.0 4.40186" Properties=species:S:1:pos:R:3:forces:R:3 calculation_type=solid calculation_label=BP/scale_0.970 d4_functional=r2SCAN d4_method=r2scan d4_energy_eV=-1.1666311083345184 source_geometry=/mnt/ceph/users/cwoodson/dft_calc/latbulk/eos_jobs/BP/scale_0.970/geometry.in energy=-1.1666311083345184 free_energy=-1.1666311083345184 stress="0.013313990021168598 -3.454316600916193e-19 -4.1422078292515313e-20 -3.454316600916193e-19 0.013313990018191568 5.757956378529994e-19 -4.1422078292515313e-20 5.757956378529994e-19 0.013313990015214626" pbc="T T T"
B        0.00000000       0.00000000       0.00000000      -0.00000000       0.00000000       0.00000000
P        1.10046500       1.10046500       1.10046500      -0.00000000       0.00000000      -0.00000000
B        0.00000000       2.20093000       2.20093000      -0.00000000      -0.00000000      -0.00000000
P        1.10046500       3.30139500       3.30139500       0.00000000      -0.00000000       0.00000000
B        2.20093000       0.00000000       2.20093000       0.00000000       0.00000000      -0.00000000
P        3.30139500       1.10046500       3.30139500      -0.00000000       0.00000000       0.00000000
B        2.20093000       2.20093000       0.00000000       0.00000000      -0.00000000      -0.00000000
P        3.30139500       3.30139500       1.10046500      -0.00000000       0.00000000      -0.00000000
