8
Lattice="4.26572 0.0 0.0 0.0 4.26572 0.0 0.0 0.0 4.26572" Properties=species:S:1:pos:R:3:forces:R:3 calculation_type=solid calculation_label=BP/scale_0.940 d4_functional=r2SCAN d4_method=r2scan d4_energy_eV=-1.276365279609873 source_geometry=/mnt/ceph/users/cwoodson/dft_calc/latbulk/eos_jobs/BP/scale_0.940/geometry.in energy=-1.276365279609873 free_energy=-1.276365279609873 stress="0.01527024244653041 2.2869489152940885e-19 5.95419625477195e-19 2.2869489152940885e-19 0.015270242433448995 2.525981548617492e-19 5.95419625477195e-19 2.525981548617492e-19 0.015270242420367335" pbc="T T T"
B        0.00000000       0.00000000       0.00000000       0.00000000      -0.00000000       0.00000000
P        1.06643000       1.06643000       1.06643000       0.00000000      -0.00000000      -0.00000000
B        0.00000000       2.13286000       2.13286000       0.00000000       0.00000000      -0.00000000
P        1.06643000       3.19929000       3.19929000       0.00000000       0.00000000       0.00000000
B        2.13286000       0.00000000       2.13286000      -0.00000000      -0.00000000      -0.00000000
P        3.19929000       1.06643000       3.19929000      -0.00000000      -0.00000000       0.00000000
B        2.13286000       2.13286000       0.00000000      -0.00000000       0.00000000       0.00000000
P        3.19929000       3.19929000       1.06643000      -0.00000000       0.00000000      -0.00000000
