8
Lattice="3.6205050000000005 0.0 0.0 0.0 3.6205050000000005 0.0 0.0 0.0 3.6205050000000005" Properties=species:S:1:pos:R:3:forces:R:3 calculation_type=solid calculation_label=C/scale_1.015 d4_functional=r2SCAN d4_method=r2scan d4_energy_eV=-0.6790488488563843 source_geometry=/mnt/ceph/users/cwoodson/dft_calc/latbulk/eos_jobs/C/scale_1.015/geometry.in energy=-0.6790488488563843 free_energy=-0.6790488488563843 stress="0.012395498600881485 -4.708746432900435e-19 -3.3646261535045426e-19 -4.708746432900435e-19 0.012395498600881412 6.739790197180666e-19 -3.3646261535045426e-19 6.739790197180666e-19 0.012395498600881566" pbc="T T T"
C        0.00000000       0.00000000       0.00000000      -0.00000000       0.00000000      -0.00000000
C        0.90512625       0.90512625       0.90512625      -0.00000000      -0.00000000      -0.00000000
C        0.00000000       1.81025250       1.81025250      -0.00000000      -0.00000000       0.00000000
C        0.90512625       2.71537875       2.71537875       0.00000000       0.00000000       0.00000000
C        1.81025250       0.00000000       1.81025250      -0.00000000       0.00000000       0.00000000
C        2.71537875       0.90512625       2.71537875       0.00000000       0.00000000       0.00000000
C        1.81025250       1.81025250       0.00000000       0.00000000      -0.00000000      -0.00000000
C        2.71537875       2.71537875       0.90512625      -0.00000000       0.00000000      -0.00000000
