8
Lattice="3.7810200000000003 0.0 0.0 0.0 3.7810200000000003 0.0 0.0 0.0 3.7810200000000003" Properties=species:S:1:pos:R:3:forces:R:3 calculation_type=solid calculation_label=C/scale_1.060 d4_functional=r2SCAN d4_method=r2scan d4_energy_eV=-0.6061842816601725 source_geometry=/mnt/ceph/users/cwoodson/dft_calc/latbulk/eos_jobs/C/scale_1.060/geometry.in energy=-0.6061842816601725 free_energy=-0.6061842816601725 stress="0.009767426422516759 -8.548946124297664e-19 -2.8035883123535675e-19 -8.548946124297664e-19 0.00976742642251671 -5.24770990024516e-19 -2.8035883123535675e-19 -5.24770990024516e-19 0.009767426422516795" pbc="T T T"
C        0.00000000       0.00000000       0.00000000       0.00000000       0.00000000      -0.00000000
C        0.94525500       0.94525500       0.94525500      -0.00000000      -0.00000000       0.00000000
C        0.00000000       1.89051000       1.89051000       0.00000000      -0.00000000       0.00000000
C        0.94525500       2.83576500       2.83576500       0.00000000       0.00000000       0.00000000
C        1.89051000       0.00000000       1.89051000      -0.00000000       0.00000000       0.00000000
C        2.83576500       0.94525500       2.83576500      -0.00000000      -0.00000000       0.00000000
C        1.89051000       1.89051000       0.00000000      -0.00000000      -0.00000000      -0.00000000
C        2.83576500       2.83576500       0.94525500      -0.00000000       0.00000000       0.00000000
