8
Lattice="4.95282 0.0 0.0 0.0 4.95282 0.0 0.0 0.0 4.95282" Properties=species:S:1:pos:R:3:forces:R:3 calculation_type=solid calculation_label=LiCl/scale_0.970 d4_functional=r2SCAN d4_method=r2scan d4_energy_eV=-0.4213567846674759 source_geometry=/mnt/ceph/users/cwoodson/dft_calc/latbulk/eos_jobs/LiCl/scale_0.970/geometry.in energy=-0.4213567846674759 free_energy=-0.4213567846674759 stress="0.003208505802776274 -1.7907667092151158e-20 1.7866195531570522e-20 -1.7907667092151158e-20 0.003208505802776281 3.734870975873227e-21 1.7866195531570522e-20 3.734870975873227e-21 0.003208505802776283" pbc="T T T"
Li       0.00000000       0.00000000       0.00000000       0.00000000       0.00000000       0.00000000
Cl       2.47641000       0.00000000       0.00000000      -0.00000000       0.00000000      -0.00000000
Li       0.00000000       2.47641000       2.47641000       0.00000000       0.00000000       0.00000000
Cl       2.47641000       2.47641000       2.47641000      -0.00000000      -0.00000000       0.00000000
Li       2.47641000       0.00000000       2.47641000       0.00000000       0.00000000       0.00000000
Cl       0.00000000       0.00000000       2.47641000       0.00000000       0.00000000      -0.00000000
Li       2.47641000       2.47641000       0.00000000       0.00000000       0.00000000      -0.00000000
Cl       0.00000000       2.47641000       0.00000000       0.00000000      -0.00000000       0.00000000
