8
Lattice="5.4123600000000005 0.0 0.0 0.0 5.4123600000000005 0.0 0.0 0.0 5.4123600000000005" Properties=species:S:1:pos:R:3:forces:R:3 calculation_type=solid calculation_label=LiCl/scale_1.060 d4_functional=r2SCAN d4_method=r2scan d4_energy_eV=-0.3300061590246288 source_geometry=/mnt/ceph/users/cwoodson/dft_calc/latbulk/eos_jobs/LiCl/scale_1.060/geometry.in energy=-0.3300061590246288 free_energy=-0.3300061590246288 stress="0.0018950133431500317 -6.866035913108051e-21 -1.4485929110143485e-21 -6.866035913108051e-21 0.001895013343150025 1.0526761694362833e-20 -1.4485929110143485e-21 1.0526761694362833e-20 0.001895013343150022" pbc="T T T"
Li       0.00000000       0.00000000       0.00000000       0.00000000       0.00000000       0.00000000
Cl       2.70618000       0.00000000       0.00000000      -0.00000000       0.00000000       0.00000000
Li       0.00000000       2.70618000       2.70618000       0.00000000      -0.00000000      -0.00000000
Cl       2.70618000       2.70618000       2.70618000       0.00000000      -0.00000000      -0.00000000
Li       2.70618000       0.00000000       2.70618000      -0.00000000      -0.00000000      -0.00000000
Cl       0.00000000       0.00000000       2.70618000      -0.00000000       0.00000000      -0.00000000
Li       2.70618000       2.70618000       0.00000000      -0.00000000       0.00000000       0.00000000
Cl       0.00000000       2.70618000       0.00000000       0.00000000      -0.00000000       0.00000000
