8
Lattice="4.45942 0.0 0.0 0.0 4.45942 0.0 0.0 0.0 4.45942" Properties=species:S:1:pos:R:3:forces:R:3 calculation_type=solid calculation_label=MgO/scale_1.060 d4_functional=r2SCAN d4_method=r2scan d4_energy_eV=-0.4405238535781582 source_geometry=/mnt/ceph/users/cwoodson/dft_calc/latbulk/eos_jobs/MgO/scale_1.060/geometry.in energy=-0.4405238535781582 free_energy=-0.4405238535781582 stress="0.005112891493378884 1.9493564690440595e-20 2.1114877238391346e-22 1.9493564690440595e-20 0.005112891493378917 -5.167351531112121e-21 2.1114877238391346e-22 -5.167351531112121e-21 0.0051128914933789415" pbc="T T T"
Mg       0.00000000       0.00000000       0.00000000      -0.00000000      -0.00000000       0.00000000
O        2.22971000       0.00000000       0.00000000       0.00000000      -0.00000000      -0.00000000
Mg       0.00000000       2.22971000       2.22971000      -0.00000000      -0.00000000       0.00000000
O        2.22971000       2.22971000       2.22971000      -0.00000000       0.00000000      -0.00000000
Mg       2.22971000       0.00000000       2.22971000       0.00000000      -0.00000000       0.00000000
O        0.00000000       0.00000000       2.22971000      -0.00000000      -0.00000000       0.00000000
Mg       2.22971000       2.22971000       0.00000000      -0.00000000      -0.00000000      -0.00000000
O        0.00000000       2.22971000       0.00000000      -0.00000000       0.00000000      -0.00000000
