8
Lattice="4.017684999999999 0.0 0.0 0.0 4.017684999999999 0.0 0.0 0.0 4.017684999999999" Properties=species:S:1:pos:R:3:forces:R:3 calculation_type=solid calculation_label=MgO/scale_0.955 d4_functional=r2SCAN d4_method=r2scan d4_energy_eV=-0.6184474765362391 source_geometry=/mnt/ceph/users/cwoodson/dft_calc/latbulk/eos_jobs/MgO/scale_0.955/geometry.in energy=-0.6184474765362391 free_energy=-0.6184474765362391 stress="0.010820091842463669 1.0003642030679467e-19 2.065669270379947e-20 1.0003642030679467e-19 0.010820091842463705 5.533385646019493e-20 2.065669270379947e-20 5.533385646019493e-20 0.010820091842463754" pbc="T T T"
Mg       0.00000000       0.00000000       0.00000000      -0.00000000       0.00000000      -0.00000000
O        2.00884250       0.00000000       0.00000000       0.00000000       0.00000000      -0.00000000
Mg       0.00000000       2.00884250       2.00884250       0.00000000      -0.00000000       0.00000000
O        2.00884250       2.00884250       2.00884250       0.00000000       0.00000000       0.00000000
Mg       2.00884250       0.00000000       2.00884250       0.00000000       0.00000000      -0.00000000
O        0.00000000       0.00000000       2.00884250       0.00000000       0.00000000       0.00000000
Mg       2.00884250       2.00884250       0.00000000       0.00000000      -0.00000000       0.00000000
O        0.00000000       2.00884250       0.00000000      -0.00000000      -0.00000000      -0.00000000
