8
Lattice="4.270105 0.0 0.0 0.0 4.270105 0.0 0.0 0.0 4.270105" Properties=species:S:1:pos:R:3:forces:R:3 calculation_type=solid calculation_label=MgO/scale_1.015 d4_functional=r2SCAN d4_method=r2scan d4_energy_eV=-0.5052921130427941 source_geometry=/mnt/ceph/users/cwoodson/dft_calc/latbulk/eos_jobs/MgO/scale_1.015/geometry.in energy=-0.5052921130427941 free_energy=-0.5052921130427941 stress="0.006974707725918341 -1.095940351270802e-20 1.1355175987950651e-20 -1.095940351270802e-20 0.006974707725918371 4.885356733462109e-20 1.1355175987950651e-20 4.885356733462109e-20 0.006974707725918366" pbc="T T T"
Mg       0.00000000       0.00000000       0.00000000       0.00000000       0.00000000       0.00000000
O        2.13505250       0.00000000       0.00000000       0.00000000      -0.00000000       0.00000000
Mg       0.00000000       2.13505250       2.13505250      -0.00000000       0.00000000      -0.00000000
O        2.13505250       2.13505250       2.13505250      -0.00000000      -0.00000000      -0.00000000
Mg       2.13505250       0.00000000       2.13505250       0.00000000      -0.00000000      -0.00000000
O        0.00000000       0.00000000       2.13505250      -0.00000000      -0.00000000       0.00000000
Mg       2.13505250       2.13505250       0.00000000      -0.00000000       0.00000000      -0.00000000
O        0.00000000       2.13505250       0.00000000      -0.00000000       0.00000000       0.00000000
