8
Lattice="4.3963149999999995 0.0 0.0 0.0 4.3963149999999995 0.0 0.0 0.0 4.3963149999999995" Properties=species:S:1:pos:R:3:forces:R:3 calculation_type=solid calculation_label=MgO/scale_1.045 d4_functional=r2SCAN d4_method=r2scan d4_energy_eV=-0.4605318379624035 source_geometry=/mnt/ceph/users/cwoodson/dft_calc/latbulk/eos_jobs/MgO/scale_1.045/geometry.in energy=-0.4605318379624035 free_energy=-0.4605318379624035 stress="0.00566373041003398 1.9698697611625292e-20 1.5535324039666584e-20 1.9698697611625292e-20 0.005663730410033922 1.7640685931922243e-20 1.5535324039666584e-20 1.7640685931922243e-20 0.005663730410033931" pbc="T T T"
Mg       0.00000000       0.00000000       0.00000000      -0.00000000      -0.00000000      -0.00000000
O        2.19815750       0.00000000       0.00000000       0.00000000      -0.00000000      -0.00000000
Mg       0.00000000       2.19815750       2.19815750      -0.00000000       0.00000000       0.00000000
O        2.19815750       2.19815750       2.19815750       0.00000000       0.00000000       0.00000000
Mg       2.19815750       0.00000000       2.19815750       0.00000000      -0.00000000       0.00000000
O        0.00000000       0.00000000       2.19815750      -0.00000000      -0.00000000       0.00000000
Mg       2.19815750       2.19815750       0.00000000       0.00000000       0.00000000      -0.00000000
O        0.00000000       2.19815750       0.00000000      -0.00000000       0.00000000      -0.00000000
