8
Lattice="5.12397 0.0 0.0 0.0 5.12397 0.0 0.0 0.0 5.12397" Properties=species:S:1:pos:R:3:forces:R:3 calculation_type=solid calculation_label=MgS/scale_0.985 d4_functional=r2SCAN d4_method=r2scan d4_energy_eV=-0.8958778011696537 source_geometry=/mnt/ceph/users/cwoodson/dft_calc/latbulk/eos_jobs/MgS/scale_0.985/geometry.in energy=-0.8958778011696537 free_energy=-0.8958778011696537 stress="0.0061613238978604585 -3.847329821915344e-20 1.4225871293283795e-20 -3.847329821915344e-20 0.006161323897860487 -8.240421503133562e-21 1.4225871293283795e-20 -8.240421503133562e-21 0.006161323897860497" pbc="T T T"
Mg       0.00000000       0.00000000       0.00000000      -0.00000000       0.00000000       0.00000000
S        2.56198500       0.00000000       0.00000000      -0.00000000       0.00000000       0.00000000
Mg       0.00000000       2.56198500       2.56198500       0.00000000       0.00000000      -0.00000000
S        2.56198500       2.56198500       2.56198500      -0.00000000      -0.00000000      -0.00000000
Mg       2.56198500       0.00000000       2.56198500      -0.00000000      -0.00000000      -0.00000000
S        0.00000000       0.00000000       2.56198500       0.00000000       0.00000000       0.00000000
Mg       2.56198500       2.56198500       0.00000000      -0.00000000       0.00000000       0.00000000
S        0.00000000       2.56198500       0.00000000       0.00000000       0.00000000       0.00000000
