8
Lattice="4.88988 0.0 0.0 0.0 4.88988 0.0 0.0 0.0 4.88988" Properties=species:S:1:pos:R:3:forces:R:3 calculation_type=solid calculation_label=MgS/scale_0.940 d4_functional=r2SCAN d4_method=r2scan d4_energy_eV=-0.8312930244606404 source_geometry=/mnt/ceph/users/cwoodson/dft_calc/latbulk/eos_jobs/MgS/scale_0.940/geometry.in energy=-0.8312930244606404 free_energy=-0.8312930244606404 stress="0.006832627081407588 6.90224962297273e-20 -1.733111243808017e-20 6.90224962297273e-20 0.0068326270814076965 -1.2543437455487122e-20 -1.733111243808017e-20 -1.2543437455487122e-20 0.006832627081407699" pbc="T T T"
Mg       0.00000000       0.00000000       0.00000000       0.00000000       0.00000000      -0.00000000
S        2.44494000       0.00000000       0.00000000       0.00000000      -0.00000000      -0.00000000
Mg       0.00000000       2.44494000       2.44494000       0.00000000      -0.00000000      -0.00000000
S        2.44494000       2.44494000       2.44494000       0.00000000      -0.00000000      -0.00000000
Mg       2.44494000       0.00000000       2.44494000       0.00000000       0.00000000       0.00000000
S        0.00000000       0.00000000       2.44494000      -0.00000000      -0.00000000       0.00000000
Mg       2.44494000       2.44494000       0.00000000      -0.00000000      -0.00000000      -0.00000000
S        0.00000000       2.44494000       0.00000000      -0.00000000       0.00000000      -0.00000000
