8
Lattice="5.280030000000001 0.0 0.0 0.0 5.280030000000001 0.0 0.0 0.0 5.280030000000001" Properties=species:S:1:pos:R:3:forces:R:3 calculation_type=solid calculation_label=MgS/scale_1.015 d4_functional=r2SCAN d4_method=r2scan d4_energy_eV=-0.824395347290508 source_geometry=/mnt/ceph/users/cwoodson/dft_calc/latbulk/eos_jobs/MgS/scale_1.015/geometry.in energy=-0.824395347290508 free_energy=-0.824395347290508 stress="0.005153594495598777 -1.8671275608305168e-20 1.7479795526157442e-20 -1.8671275608305168e-20 0.0051535944955987435 4.3032496873541143e-20 1.7479795526157442e-20 4.3032496873541143e-20 0.005153594495598746" pbc="T T T"
Mg       0.00000000       0.00000000       0.00000000      -0.00000000       0.00000000      -0.00000000
S        2.64001500       0.00000000       0.00000000      -0.00000000      -0.00000000       0.00000000
Mg       0.00000000       2.64001500       2.64001500       0.00000000       0.00000000       0.00000000
S        2.64001500       2.64001500       2.64001500      -0.00000000       0.00000000      -0.00000000
Mg       2.64001500       0.00000000       2.64001500      -0.00000000      -0.00000000      -0.00000000
S        0.00000000       0.00000000       2.64001500       0.00000000       0.00000000       0.00000000
Mg       2.64001500       2.64001500       0.00000000      -0.00000000       0.00000000      -0.00000000
S        0.00000000       2.64001500       0.00000000       0.00000000      -0.00000000       0.00000000
