8
Lattice="5.35806 0.0 0.0 0.0 5.35806 0.0 0.0 0.0 5.35806" Properties=species:S:1:pos:R:3:forces:R:3 calculation_type=solid calculation_label=MgS/scale_1.030 d4_functional=r2SCAN d4_method=r2scan d4_energy_eV=-0.7916303547866147 source_geometry=/mnt/ceph/users/cwoodson/dft_calc/latbulk/eos_jobs/MgS/scale_1.030/geometry.in energy=-0.7916303547866147 free_energy=-0.7916303547866147 stress="0.004734002103587366 -6.490455780374831e-20 3.417263706659747e-20 -6.490455780374831e-20 0.004734002103587424 -1.754156683239664e-20 3.417263706659747e-20 -1.754156683239664e-20 0.004734002103587432" pbc="T T T"
Mg       0.00000000       0.00000000       0.00000000       0.00000000      -0.00000000      -0.00000000
S        2.67903000       0.00000000       0.00000000      -0.00000000       0.00000000      -0.00000000
Mg       0.00000000       2.67903000       2.67903000       0.00000000       0.00000000       0.00000000
S        2.67903000       2.67903000       2.67903000       0.00000000      -0.00000000       0.00000000
Mg       2.67903000       0.00000000       2.67903000      -0.00000000      -0.00000000       0.00000000
S        0.00000000       0.00000000       2.67903000      -0.00000000       0.00000000       0.00000000
Mg       2.67903000       2.67903000       0.00000000       0.00000000       0.00000000      -0.00000000
S        0.00000000       2.67903000       0.00000000      -0.00000000       0.00000000      -0.00000000
