8
Lattice="5.6789250000000004 0.0 0.0 0.0 5.6789250000000004 0.0 0.0 0.0 5.6789250000000004" Properties=species:S:1:pos:R:3:forces:R:3 calculation_type=solid calculation_label=NaCl/scale_1.015 d4_functional=r2SCAN d4_method=r2scan d4_energy_eV=-0.3094188980037528 source_geometry=/mnt/ceph/users/cwoodson/dft_calc/latbulk/eos_jobs/NaCl/scale_1.015/geometry.in energy=-0.3094188980037528 free_energy=-0.3094188980037528 stress="0.0015678578431621319 4.045217454412769e-21 4.963140565545419e-23 4.045217454412769e-21 0.001567857843162151 1.3331458336893846e-21 4.963140565545419e-23 1.3331458336893846e-21 0.0015678578431621544" pbc="T T T"
Na       0.00000000       0.00000000       0.00000000       0.00000000       0.00000000       0.00000000
Cl       2.83946250       0.00000000       0.00000000      -0.00000000      -0.00000000      -0.00000000
Na       0.00000000       2.83946250       2.83946250       0.00000000      -0.00000000      -0.00000000
Cl       2.83946250       2.83946250       2.83946250      -0.00000000       0.00000000       0.00000000
Na       2.83946250       0.00000000       2.83946250      -0.00000000       0.00000000       0.00000000
Cl       0.00000000       0.00000000       2.83946250       0.00000000      -0.00000000      -0.00000000
Na       2.83946250       2.83946250       0.00000000      -0.00000000      -0.00000000       0.00000000
Cl       0.00000000       2.83946250       0.00000000       0.00000000       0.00000000      -0.00000000
