8
Lattice="4.096519999999999 0.0 0.0 0.0 4.096519999999999 0.0 0.0 0.0 4.096519999999999" Properties=species:S:1:pos:R:3:forces:R:3 calculation_type=solid calculation_label=SiC/scale_0.940 d4_functional=r2SCAN d4_method=r2scan d4_energy_eV=-1.1428223392369226 source_geometry=/mnt/ceph/users/cwoodson/dft_calc/latbulk/eos_jobs/SiC/scale_0.940/geometry.in energy=-1.1428223392369226 free_energy=-1.1428223392369226 stress="0.013533497324428864 3.8613628647462603e-19 1.1722143953616095e-19 3.8613628647462603e-19 0.013533497324428713 1.623612865017504e-19 1.1722143953616095e-19 1.623612865017504e-19 0.013533497324428743" pbc="T T T"
Si       0.00000000       0.00000000       0.00000000      -0.00000000       0.00000000      -0.00000000
C        1.02413000       1.02413000       1.02413000      -0.00000000       0.00000000       0.00000000
Si       0.00000000       2.04826000       2.04826000      -0.00000000      -0.00000000       0.00000000
C        1.02413000       3.07239000       3.07239000       0.00000000       0.00000000       0.00000000
Si       2.04826000       0.00000000       2.04826000       0.00000000       0.00000000       0.00000000
C        3.07239000       1.02413000       3.07239000       0.00000000       0.00000000       0.00000000
Si       2.04826000       2.04826000       0.00000000       0.00000000      -0.00000000      -0.00000000
C        3.07239000       3.07239000       1.02413000       0.00000000       0.00000000       0.00000000
