8
Lattice="5.785480000000001 0.0 0.0 0.0 5.785480000000001 0.0 0.0 0.0 5.785480000000001" Properties=species:S:1:pos:R:3:forces:R:3 energy=-2.164543920140203 free_energy=-2.164543920140203 stress="0.012238693830563531 7.481637550777667e-19 9.728355203536917e-19 7.481637550777667e-19 0.012238693830563582 7.176602594975311e-19 9.728355203536917e-19 7.176602594975311e-19 0.012238693830563665" pbc="T T T"
Al       0.00000000       0.00000000       0.00000000       0.00000000       0.00000000       0.00000000
P        1.44637000       1.44637000       1.44637000       0.00000000      -0.00000000      -0.00000000
Al       0.00000000       2.89274000       2.89274000       0.00000000      -0.00000000      -0.00000000
P        1.44637000       4.33911000       4.33911000       0.00000000       0.00000000       0.00000000
Al       2.89274000       0.00000000       2.89274000      -0.00000000       0.00000000      -0.00000000
P        4.33911000       1.44637000       4.33911000       0.00000000       0.00000000       0.00000000
Al       2.89274000       2.89274000       0.00000000      -0.00000000      -0.00000000       0.00000000
P        4.33911000       4.33911000       1.44637000       0.00000000       0.00000000      -0.00000000
