8
Lattice="5.29426 0.0 0.0 0.0 5.29426 0.0 0.0 0.0 5.29426" Properties=species:S:1:pos:R:3:forces:R:3 energy=-2.8640987829797324 free_energy=-2.8640987829797324 stress="0.019375773241011605 8.766430954898142e-19 4.914363697621412e-19 8.766430954898142e-19 0.019375773241011585 -3.7509334702101536e-18 4.914363697621412e-19 -3.7509334702101536e-18 0.019375773241011567" pbc="T T T"
Al       0.00000000       0.00000000       0.00000000       0.00000000       0.00000000       0.00000000
P        1.32356500       1.32356500       1.32356500      -0.00000000      -0.00000000       0.00000000
Al       0.00000000       2.64713000       2.64713000       0.00000000      -0.00000000       0.00000000
P        1.32356500       3.97069500       3.97069500      -0.00000000       0.00000000      -0.00000000
Al       2.64713000       0.00000000       2.64713000      -0.00000000       0.00000000       0.00000000
P        3.97069500       1.32356500       3.97069500       0.00000000      -0.00000000      -0.00000000
Al       2.64713000       2.64713000       0.00000000      -0.00000000      -0.00000000       0.00000000
P        3.97069500       3.97069500       1.32356500       0.00000000       0.00000000       0.00000000
