8
Lattice="3.6740100000000004 0.0 0.0 0.0 3.6740100000000004 0.0 0.0 0.0 3.6740100000000004" Properties=species:S:1:pos:R:3:forces:R:3 energy=-1.576840644740363 free_energy=-1.576840644740363 stress="0.028018236133818587 7.489069145654082e-19 -3.074947003130016e-19 7.489069145654082e-19 0.028018236133818278 -1.3797300970109252e-19 -3.074947003130016e-19 -1.3797300970109252e-19 0.028018236133818476" pbc="T T T"
C        0.00000000       0.00000000       0.00000000       0.00000000       0.00000000      -0.00000000
C        0.91850250       0.91850250       0.91850250       0.00000000      -0.00000000      -0.00000000
C        0.00000000       1.83700500       1.83700500       0.00000000      -0.00000000       0.00000000
C        0.91850250       2.75550750       2.75550750       0.00000000       0.00000000       0.00000000
C        1.83700500       0.00000000       1.83700500      -0.00000000       0.00000000       0.00000000
C        2.75550750       0.91850250       2.75550750      -0.00000000      -0.00000000       0.00000000
C        1.83700500       1.83700500       0.00000000      -0.00000000       0.00000000      -0.00000000
C        2.75550750       2.75550750       0.91850250      -0.00000000      -0.00000000      -0.00000000
