8
Lattice="3.567 0.0 0.0 0.0 3.567 0.0 0.0 0.0 3.567" Properties=species:S:1:pos:R:3:forces:R:3 energy=-1.7047901435534667 free_energy=-1.7047901435534667 stress="0.032941186775555166 -4.66947368010729e-19 9.14355040768212e-19 -4.66947368010729e-19 0.032941186775556054 1.296274093781179e-19 9.14355040768212e-19 1.296274093781179e-19 0.032941186775556075" pbc="T T T"
C        0.00000000       0.00000000       0.00000000       0.00000000       0.00000000       0.00000000
C        0.89175000       0.89175000       0.89175000      -0.00000000      -0.00000000       0.00000000
C        0.00000000       1.78350000       1.78350000      -0.00000000      -0.00000000      -0.00000000
C        0.89175000       2.67525000       2.67525000      -0.00000000       0.00000000      -0.00000000
C        1.78350000       0.00000000       1.78350000      -0.00000000      -0.00000000      -0.00000000
C        2.67525000       0.89175000       2.67525000       0.00000000      -0.00000000      -0.00000000
C        1.78350000       1.78350000       0.00000000      -0.00000000      -0.00000000      -0.00000000
C        2.67525000       2.67525000       0.89175000       0.00000000       0.00000000       0.00000000
