8
Lattice="4.87623 0.0 0.0 0.0 4.87623 0.0 0.0 0.0 4.87623" Properties=species:S:1:pos:R:3:forces:R:3 energy=-1.1356840448849939 free_energy=-1.1356840448849939 stress="0.00964857822763497 2.9779720878001803e-20 8.940375577181203e-20 2.9779720878001803e-20 0.009648578227634767 -3.685523175324061e-20 8.940375577181203e-20 -3.685523175324061e-20 0.009648578227634888" pbc="T T T"
Li       0.00000000       0.00000000       0.00000000      -0.00000000      -0.00000000       0.00000000
Cl       2.43811500       0.00000000       0.00000000       0.00000000       0.00000000      -0.00000000
Li       0.00000000       2.43811500       2.43811500      -0.00000000       0.00000000      -0.00000000
Cl       2.43811500       2.43811500       2.43811500       0.00000000      -0.00000000      -0.00000000
Li       2.43811500       0.00000000       2.43811500       0.00000000      -0.00000000       0.00000000
Cl       0.00000000       0.00000000       2.43811500      -0.00000000       0.00000000       0.00000000
Li       2.43811500       2.43811500       0.00000000      -0.00000000       0.00000000       0.00000000
Cl       0.00000000       2.43811500       0.00000000      -0.00000000       0.00000000      -0.00000000
