8
Lattice="4.01 0.0 0.0 0.0 4.01 0.0 0.0 0.0 4.01" Properties=species:S:1:pos:R:3:forces:R:3 energy=-0.5085382438781956 free_energy=-0.5085382438781956 stress="0.007953342563255738 -4.4668336751309516e-20 4.686012626907514e-20 -4.4668336751309516e-20 0.007953342563255694 4.2096462262738626e-20 4.686012626907514e-20 4.2096462262738626e-20 0.007953342563255698" pbc="T T T"
Li       0.00000000       0.00000000       0.00000000       0.00000000      -0.00000000       0.00000000
F        2.00500000       0.00000000       0.00000000       0.00000000      -0.00000000      -0.00000000
Li       0.00000000       2.00500000       2.00500000       0.00000000       0.00000000      -0.00000000
F        2.00500000       2.00500000       2.00500000      -0.00000000      -0.00000000       0.00000000
Li       2.00500000       0.00000000       2.00500000       0.00000000       0.00000000      -0.00000000
F        0.00000000       0.00000000       2.00500000       0.00000000       0.00000000       0.00000000
Li       2.00500000       2.00500000       0.00000000       0.00000000      -0.00000000       0.00000000
F        0.00000000       2.00500000       0.00000000      -0.00000000       0.00000000      -0.00000000
