8
Lattice="4.3963149999999995 0.0 0.0 0.0 4.3963149999999995 0.0 0.0 0.0 4.3963149999999995" Properties=species:S:1:pos:R:3:forces:R:3 energy=-1.1503430245532016 free_energy=-1.1503430245532016 stress="0.014537096472437835 -7.93718451019007e-20 -7.259645147035596e-20 -7.93718451019007e-20 0.014537096472437547 3.847265754403044e-20 -7.259645147035596e-20 3.847265754403044e-20 0.014537096472437575" pbc="T T T"
Mg       0.00000000       0.00000000       0.00000000      -0.00000000      -0.00000000      -0.00000000
O        2.19815750       0.00000000       0.00000000       0.00000000      -0.00000000      -0.00000000
Mg       0.00000000       2.19815750       2.19815750      -0.00000000       0.00000000       0.00000000
O        2.19815750       2.19815750       2.19815750       0.00000000       0.00000000       0.00000000
Mg       2.19815750       0.00000000       2.19815750       0.00000000      -0.00000000       0.00000000
O        0.00000000       0.00000000       2.19815750      -0.00000000      -0.00000000       0.00000000
Mg       2.19815750       2.19815750       0.00000000       0.00000000       0.00000000      -0.00000000
O        0.00000000       2.19815750       0.00000000      -0.00000000       0.00000000      -0.00000000
