8
Lattice="5.35806 0.0 0.0 0.0 5.35806 0.0 0.0 0.0 5.35806" Properties=species:S:1:pos:R:3:forces:R:3 energy=-2.126004850547756 free_energy=-2.126004850547756 stress="0.013723086852463526 4.1627187758420186e-20 -3.717919752619091e-21 4.1627187758420186e-20 0.013723086852463477 -2.5614874793177682e-20 -3.717919752619091e-21 -2.5614874793177682e-20 0.013723086852463443" pbc="T T T"
Mg       0.00000000       0.00000000       0.00000000      -0.00000000      -0.00000000      -0.00000000
S        2.67903000       0.00000000       0.00000000       0.00000000       0.00000000      -0.00000000
Mg       0.00000000       2.67903000       2.67903000      -0.00000000       0.00000000       0.00000000
S        2.67903000       2.67903000       2.67903000      -0.00000000       0.00000000       0.00000000
Mg       2.67903000       0.00000000       2.67903000       0.00000000      -0.00000000       0.00000000
S        0.00000000       0.00000000       2.67903000      -0.00000000       0.00000000       0.00000000
Mg       2.67903000       2.67903000       0.00000000       0.00000000       0.00000000      -0.00000000
S        0.00000000       2.67903000       0.00000000      -0.00000000      -0.00000000      -0.00000000
