8
Lattice="5.280030000000001 0.0 0.0 0.0 5.280030000000001 0.0 0.0 0.0 5.280030000000001" Properties=species:S:1:pos:R:3:forces:R:3 energy=-2.220666619314077 free_energy=-2.220666619314077 stress="0.014869960965817513 -1.0413395878203504e-19 -3.977615567408101e-20 -1.0413395878203504e-19 0.014869960965817648 -3.424347820410084e-20 -3.977615567408101e-20 -3.424347820410084e-20 0.014869960965817663" pbc="T T T"
Mg       0.00000000       0.00000000       0.00000000       0.00000000      -0.00000000       0.00000000
S        2.64001500       0.00000000       0.00000000      -0.00000000      -0.00000000       0.00000000
Mg       0.00000000       2.64001500       2.64001500       0.00000000       0.00000000       0.00000000
S        2.64001500       2.64001500       2.64001500      -0.00000000       0.00000000       0.00000000
Mg       2.64001500       0.00000000       2.64001500      -0.00000000      -0.00000000      -0.00000000
S        0.00000000       0.00000000       2.64001500       0.00000000      -0.00000000      -0.00000000
Mg       2.64001500       2.64001500       0.00000000      -0.00000000       0.00000000      -0.00000000
S        0.00000000       2.64001500       0.00000000       0.00000000       0.00000000       0.00000000
