8
Lattice="4.88988 0.0 0.0 0.0 4.88988 0.0 0.0 0.0 4.88988" Properties=species:S:1:pos:R:3:forces:R:3 energy=-2.2377744798814856 free_energy=-2.2377744798814856 stress="0.01891215340364669 -1.24380182244568e-19 6.423970718198976e-20 -1.24380182244568e-19 0.01891215340364645 -2.21946573559269e-20 6.423970718198976e-20 -2.21946573559269e-20 0.018912153403646586" pbc="T T T"
Mg       0.00000000       0.00000000       0.00000000       0.00000000       0.00000000      -0.00000000
S        2.44494000       0.00000000       0.00000000       0.00000000       0.00000000      -0.00000000
Mg       0.00000000       2.44494000       2.44494000       0.00000000      -0.00000000      -0.00000000
S        2.44494000       2.44494000       2.44494000       0.00000000      -0.00000000      -0.00000000
Mg       2.44494000       0.00000000       2.44494000       0.00000000      -0.00000000       0.00000000
S        0.00000000       0.00000000       2.44494000      -0.00000000       0.00000000       0.00000000
Mg       2.44494000       2.44494000       0.00000000       0.00000000       0.00000000       0.00000000
S        0.00000000       2.44494000       0.00000000      -0.00000000       0.00000000      -0.00000000
