8
Lattice="4.539865 0.0 0.0 0.0 4.539865 0.0 0.0 0.0 4.539865" Properties=species:S:1:pos:R:3:forces:R:3 energy=-0.44238838555520604 free_energy=-0.44238838555520604 stress="0.005109988324714646 2.0400659511319334e-20 1.7863621359343585e-20 2.0400659511319334e-20 0.0051099883247146295 -3.707017294611181e-21 1.7863621359343585e-20 -3.707017294611181e-21 0.005109988324714631" pbc="T T T"
Na       0.00000000       0.00000000       0.00000000       0.00000000      -0.00000000       0.00000000
F        2.26993250       0.00000000       0.00000000      -0.00000000      -0.00000000       0.00000000
Na       0.00000000       2.26993250       2.26993250       0.00000000       0.00000000       0.00000000
F        2.26993250       2.26993250       2.26993250      -0.00000000       0.00000000       0.00000000
Na       2.26993250       0.00000000       2.26993250      -0.00000000      -0.00000000      -0.00000000
F        0.00000000       0.00000000       2.26993250       0.00000000       0.00000000      -0.00000000
Na       2.26993250       2.26993250       0.00000000      -0.00000000      -0.00000000       0.00000000
F        0.00000000       2.26993250       0.00000000       0.00000000      -0.00000000       0.00000000
