8
Lattice="5.5929 0.0 0.0 0.0 5.5929 0.0 0.0 0.0 5.5929" Properties=species:S:1:pos:R:3:forces:R:3 energy=-2.442344629738895 free_energy=-2.442344629738895 stress="0.01164197613105524 -1.6473868868223008e-18 -1.914042243349271e-18 -1.6473868868223008e-18 0.011641976131055033 -7.104042308885795e-19 -1.914042243349271e-18 -7.104042308885795e-19 0.011641976131055047" pbc="T T T"
Si       0.00000000       0.00000000       0.00000000       0.00000000       0.00000000      -0.00000000
Si       1.39822500       1.39822500       1.39822500      -0.00000000      -0.00000000       0.00000000
Si       0.00000000       2.79645000       2.79645000       0.00000000      -0.00000000       0.00000000
Si       1.39822500       4.19467500       4.19467500      -0.00000000       0.00000000      -0.00000000
Si       2.79645000       0.00000000       2.79645000      -0.00000000       0.00000000       0.00000000
Si       4.19467500       1.39822500       4.19467500       0.00000000      -0.00000000      -0.00000000
Si       2.79645000       2.79645000       0.00000000      -0.00000000      -0.00000000      -0.00000000
Si       4.19467500       4.19467500       1.39822500       0.00000000       0.00000000       0.00000000
