8
Lattice="5.43 0.0 0.0 0.0 5.43 0.0 0.0 0.0 5.43" Properties=species:S:1:pos:R:3:forces:R:3 energy=-2.6546620815249087 free_energy=-2.6546620815249087 stress="0.01630661410302014 3.4470059801671606e-19 5.324286071188151e-19 3.4470059801671606e-19 0.01630661410301998 -4.459063308603196e-18 5.324286071188151e-19 -4.459063308603196e-18 0.016306614103019975" pbc="T T T"
Si       0.00000000       0.00000000       0.00000000       0.00000000      -0.00000000      -0.00000000
Si       1.35750000       1.35750000       1.35750000      -0.00000000      -0.00000000       0.00000000
Si       0.00000000       2.71500000       2.71500000       0.00000000       0.00000000       0.00000000
Si       1.35750000       4.07250000       4.07250000       0.00000000       0.00000000      -0.00000000
Si       2.71500000       0.00000000       2.71500000      -0.00000000      -0.00000000       0.00000000
Si       4.07250000       1.35750000       4.07250000       0.00000000      -0.00000000      -0.00000000
Si       2.71500000       2.71500000       0.00000000      -0.00000000       0.00000000      -0.00000000
Si       4.07250000       4.07250000       1.35750000       0.00000000       0.00000000       0.00000000
