8
Lattice="5.67435 0.0 0.0 0.0 5.67435 0.0 0.0 0.0 5.67435" Properties=species:S:1:pos:R:3:forces:R:3 energy=-2.372021008244556 free_energy=-2.372021008244556 stress="0.005687743710761416 3.7923178180506434e-18 4.04664520812046e-18 3.7923178180506434e-18 0.005687743710761457 1.412035478855134e-18 4.04664520812046e-18 1.412035478855134e-18 0.00568774371076146" pbc="T T T"
Si       0.00000000       0.00000000       0.00000000      -0.00000000      -0.00000000       0.00000000
Si       1.41858750       1.41858750       1.41858750       0.00000000       0.00000000       0.00000000
Si       0.00000000       2.83717500       2.83717500      -0.00000000       0.00000000      -0.00000000
Si       1.41858750       4.25576250       4.25576250       0.00000000      -0.00000000      -0.00000000
Si       2.83717500       0.00000000       2.83717500       0.00000000      -0.00000000      -0.00000000
Si       4.25576250       1.41858750       4.25576250      -0.00000000       0.00000000      -0.00000000
Si       2.83717500       2.83717500       0.00000000       0.00000000       0.00000000       0.00000000
Si       4.25576250       4.25576250       1.41858750      -0.00000000      -0.00000000       0.00000000
