------------------------------------------------------------
          Invoking FHI-aims ...

          When using FHI-aims, please cite the following reference:

            Volker Blum, Ralf Gehrke, Felix Hanke, Paula Havu,
            Ville Havu, Xinguo Ren, Karsten Reuter, and Matthias Scheffler,
            'Ab Initio Molecular Simulations with Numeric Atom-Centered Orbitals',
            Computer Physics Communications 180, 2175-2196 (2009)

          In addition, many other developments in FHI-aims are likely important for
          your particular application. If so, please cite them. A partial list of references
          is written at the end of this file. Thank you for giving credit to the authors
          of these developments.

          For general information about FHI-aims please find us at

            https://fhi-aims.org

          Online tutorials can be found at

            https://fhi-aims-club.gitlab.io/tutorials/tutorials-overview/

          For any questions about FHI-aims, please visit our slack channel at

            https://fhi-aims.slack.com

          and our main development and support site at

            https://aims-git.rz-berlin.mpg.de .

          The latter site, in particular, has a wiki to collect information, as well
          as an issue tracker to log discussions, suggest improvements, and report issues
          or bugs. https://aims-git.rz-berlin.mpg.de is also the main development site
          of the project and all new and updated code versions can be obtained there.
          Please send an email to aims-coordinators@ms1p.org and we will add
          you to these sites. They are for you and everyone is welcome there.

------------------------------------------------------------



  Date     :  20260722, Time     :  145239.142
  Time zero on CPU 1             :   0.185013000000000E+00  s.
  Internal wall clock time zero  :           553963959.142  s.

  FHI-aims created a unique identifier for this run for later identification
  aims_uuid : 08E37A00-AAAB-4E86-AD75-1A8D3491D572

  Build configuration of the current instance of FHI-aims
  -------------------------------------------------------
  FHI-aims version      : 260331
  Commit number         : GITDIR-NOTFOUND
  CMake host system     : Linux-4.18.0-553.97.1.el8_10.x86_64
  CMake version         : 3.31.6
  OS Distribution       : Rocky Linux 8.10 (Green Obsidian)
  Built on              : Intel(R) Xeon(R) w5-3435X
  Fortran compiler      : /mnt/sw/nix/store/pa59vldasm7gxpr7dkijhk09q5qq63q1-openmpi-4.1.8/bin/mpifort (GNU) version 13.3.0
  Fortran compiler flags: -O2 -fallow-argument-mismatch -ffree-line-length-none
  C compiler            : /mnt/sw/nix/store/pa59vldasm7gxpr7dkijhk09q5qq63q1-openmpi-4.1.8/bin/mpicc (GNU) version 13.3.0
  C compiler flags      : -O2
  C++ compiler          : /mnt/sw/nix/store/pa59vldasm7gxpr7dkijhk09q5qq63q1-openmpi-4.1.8/bin/mpicxx (GNU) version 13.3.0
  C++ compiler flags    : -O2
  HIP compiler          :
  HIP compiler flags    :
  HIP GPU arch          :
  Using MPI
  Using ScaLAPACK
  Using LibXC
  Using i-PI
  Using RLSY
  Using GREENX
  Linking against: /mnt/sw/nix/store/dwd607jzx9m5bdd100br72s3b6g05zrf-intel-oneapi-mkl-2024.2.2/mkl/2024.2/lib/libmkl_intel_lp64.so
                   /mnt/sw/nix/store/dwd607jzx9m5bdd100br72s3b6g05zrf-intel-oneapi-mkl-2024.2.2/mkl/2024.2/lib/libmkl_sequential.so
                   /mnt/sw/nix/store/dwd607jzx9m5bdd100br72s3b6g05zrf-intel-oneapi-mkl-2024.2.2/mkl/2024.2/lib/libmkl_core.so
                   /mnt/sw/nix/store/dwd607jzx9m5bdd100br72s3b6g05zrf-intel-oneapi-mkl-2024.2.2/mkl/2024.2/lib/libmkl_blacs_openmpi_lp64.so
                   /mnt/sw/nix/store/dwd607jzx9m5bdd100br72s3b6g05zrf-intel-oneapi-mkl-2024.2.2/mkl/2024.2/lib/libmkl_scalapack_lp64.so

  Using        4 parallel tasks.
  Task        0 on host worker6092 reporting.
  Task        1 on host worker6092 reporting.
  Task        2 on host worker6092 reporting.
  Task        3 on host worker6092 reporting.

  Obtaining array dimensions for all initial allocations:
  
  -----------------------------------------------------------------------
  Parsing control.in (first pass over file, find array dimensions only).
  The contents of control.in will be repeated verbatim below
  unless switched off by setting 'verbatim_writeout .false.' .
  in the first line of control.in .
  -----------------------------------------------------------------------
  
  override_warning_libxc             True
  xc                                 blyp
  spin                               collinear
  charge                             0
  relativistic                       atomic_zora scalar
  atomic_solver_xc                   pbe
  ionic_solver_xc                    pbe
  
  occupation_type                    gaussian 0.0000001
  
  sc_accuracy_rho                    1e-05
  sc_accuracy_eev                    1e-03
  sc_accuracy_etot                   1e-06
  
  charge_mix_param                   0.1
  n_max_pulay                        8
  occupation_acc                     1e-9
  max_zeroin                         20000
  
  default_initial_moment             1.0
  
  
  # ============================================================
  # Tight species defaults for Na: 11_Na_default
  # ============================================================
  ################################################################################
  #
  #  FHI-aims code project
  #  Volker Blum, Fritz Haber Institute Berlin, 2009
  #
  #  Suggested "tight" defaults for Na atom (to be pasted into control.in file)
  #
  #  2016/03/28 Added full tier 2 to default "tight" settings. This is done to
  #             remain consistent with Li and Mg. It is quite possible that a
  #             simple tier 1 will do very well for Na at much reduced cost
  #             especially for hybrid functionals.
  #
  ################################################################################
    species        Na
  #     global species definitions
      nucleus             11
      mass                22.98976928
  #
      l_hartree           6
  #
      cut_pot             5.0          2.0  1.0
      basis_dep_cutoff    1e-4
  #
      radial_base         40 7.0
      radial_multiplier   2
      angular_grids       specified
        division   0.5925  110
        division   0.7843  194
        division   1.0201  302
        division   1.1879  434
  #      division   1.3799  590
  #      division   1.4503  770
  #      division   7.0005  974
  #      outer_grid  974
        outer_grid  434
  ################################################################################
  #
  #  Definition of "minimal" basis
  #
  ################################################################################
  #     valence basis states
      valence      3  s   1.
      valence      2  p   6.
  #     ion occupancy
      ion_occ      2  s   2.
      ion_occ      2  p   6.
  ################################################################################
  #
  #  Suggested additional basis functions. For production calculations,
  #  uncomment them one after another (the most important basis functions are
  #  listed first).
  #
  #  Constructed for dimers: 2.0 A, 2.5 A, 3.0 A, 3.75 A, 4.5 A
  #
  ################################################################################
  #  "First tier" - improvements: -60.09 meV to -10.02 meV
       hydro 2 p 1.2
       hydro 3 s 1.8
       hydro 3 d 3.8
  #  "Second tier" - improvements: -2.94 meV to -1.27 meV
       hydro 4 p 3.1
       hydro 3 s 10
       hydro 4 f 6.2
       hydro 4 d 1.3
  #  "Third tier" - improvements: -0.83 meV to -0.07 meV
  #     hydro 3 d 7.8
  #     hydro 3 p 2.3
  #     hydro 5 g 9.6
  #     hydro 4 p 0.85
  #     hydro 5 f 1.8
  #     hydro 2 s 0.6
  #  Further basis functions that fell out of the optimization - noise level...
  #     hydro 5 g 0.1
  #     hydro 4 d 3.4
  #     hydro 4 s 0.1
  
  ################################################################################
  #
  # For methods that use the localized form of the "resolution of identity" for
  # the two-electron Coulomb operator (RI_method LVL), particularly Hartree-Fock and
  # hybrid density functional calculations, the highest accuracy can be obtained by
  # uncommenting the line beginning with "for_aux"  below, thus adding an extra g radial
  # function to the construction of the product basis set for the expansion.
  # See Ref. New J. Phys. 17, 093020 (2015) for more information, particularly Figs. 1 and 6.
  #
  ################################################################################
  #
  # for_aux hydro 5 g 6.0
  
  -----------------------------------------------------------------------
  Completed first pass over input file control.in .
  -----------------------------------------------------------------------
  
  
  -----------------------------------------------------------------------
  Parsing geometry.in (first pass over file, find array dimensions only).
  The contents of geometry.in will be repeated verbatim below
  unless switched off by setting 'verbatim_writeout .false.' .
  in the first line of geometry.in .
  -----------------------------------------------------------------------
  
  atom 0.0000000000 0.0000000000 0.0000000000 Na
  
  -----------------------------------------------------------------------
  Completed first pass over input file geometry.in .
  -----------------------------------------------------------------------
  

  Basic array size parameters:
  | Number of species                 :        1
  | Number of atoms                   :        1
  | Max. basis fn. angular momentum   :        3
  | Max. atomic/ionic basis occupied n:        3
  | Max. number of basis fn. types    :        2
  | Max. radial fns per species/type  :        7
  | Max. logarithmic grid size        :     1327
  | Max. radial integration grid size :       81
  | Max. angular integration grid size:      434
  | Max. angular grid division number :        8
  | Radial grid for Hartree potential :     1327
  | Number of spin channels           :        2

  Definition of standardized fundamental physical constants in this FHI-aims run:
  | Using the set of values used in FHI-aims up to 2024, which combines values from
  | different CODATA sets - see constants.f90.
  | Use the 'codata' keyword in control.in to change this selection.

  Memory overcommitment is allowed on your operating system.

------------------------------------------------------------
          Reading file control.in.
------------------------------------------------------------
  XC: Using BLYP gradient-corrected functional.
  Spin treatment: Spin density functional theory - collinear spins.
  Charge =   0.000000E+00: Neutral system requested explicitly.
  Scalar relativistic treatment of kinetic energy: on-site free-atom approximation to ZORA.
  Atomic Solver XC: Using user-defined functional for generating the minimal NAO basis functions.
  Note that only the following functionals are available: kli, pz-lda, pw-lda, vwn, vwn-gauss, pw91_gga, pbe, rpbe, revpbe, pbeint, pbesol, blyp.
  Ionic Solver XC: Using user-defined functional for generating the minimal NAO basis functions.
  Note that only the following functionals are available: kli, pz-lda, pw-lda, vwn, vwn-gauss, pw91_gga, pbe, rpbe, revpbe, pbeint, pbesol, blyp.
  Occupation type: Gaussian broadening, width =   0.100000E-06 eV.
  Convergence accuracy of self-consistent charge density:  0.1000E-04
  Convergence accuracy of sum of eigenvalues:  0.1000E-02
  Convergence accuracy of total energy:  0.1000E-05
  Charge density mixing - mixing parameter:     0.1000
  Pulay mixing - number of memorized iterations:    8
  Accuracy of occupation numbers  :  0.1000E-08
  Maximum # of zeroin steps  : ****
  Initial spin moment per atom:   1.0000

  Reading configuration options for species Na                  .
  | Found nuclear charge :  11.0000
  | Found atomic mass :    22.989769280000001      amu
  | Found l_max for Hartree potential  :   6
  | Found cutoff potl. onset [A], width [A], scale factor :    5.00000    2.00000    1.00000
  | Threshold for basis-dependent cutoff potential is   0.100000E-03
  | Found data for basic radial integration grid :    40 points, outermost radius =    7.000 A
  | Found multiplier for basic radial grid :   2
  | Found angular grid specification: user-specified.
  | Specified grid contains     5 separate shells.
  | Check grid settings after all constraints further below.
  | Found free-atom valence shell :  3 s   1.000
  | Found free-atom valence shell :  2 p   6.000
  | No ionic wave fns used. Skipping ion_occ.
  | No ionic wave fns used. Skipping ion_occ.
  | Found hydrogenic basis function :  2 p   1.200
  | Found hydrogenic basis function :  3 s   1.800
  | Found hydrogenic basis function :  3 d   3.800
  | Found hydrogenic basis function :  4 p   3.100
  | Found hydrogenic basis function :  3 s  10.000
  | Found hydrogenic basis function :  4 f   6.200
  | Found hydrogenic basis function :  4 d   1.300
  Species Na                  : Missing cutoff potential type.
  Defaulting to exp(1/x)/(1-x)^2 type cutoff potential.
  Species Na: No 'logarithmic' tag. Using default grid for free atom:
  | Default logarithmic grid data [bohr] : 0.1000E-03 0.1000E+03 0.1012E+01
  Species Na: On-site basis accuracy parameter (for Gram-Schmidt orthonormalisation) not specified.
  Using default value basis_acc =  0.1000000E-03.
  Species Na                  : Using default innermost maximum threshold i_radial=  2 for radial functions.
  Species Na                  : Default cutoff onset for free atom density etc. : 0.50000000E+01 AA.
  Species Na                  : Basic radial grid will be enhanced according to radial_multiplier =   2, to contain    81 grid points.

  Finished reading input file 'control.in'.

------------------------------------------------------------


------------------------------------------------------------
          Reading geometry description geometry.in.
------------------------------------------------------------
  | Isolated single atom, no quantum-mechanical atoms close by.
  Input structure read successfully.
  The structure contains        1 atoms,  and a total of         11.000 electrons.

  Input geometry:
  | No unit cell requested.
  | Atomic structure:
  |       Atom                x [A]            y [A]            z [A]
  |    1: Species Na            0.00000000        0.00000000        0.00000000

  Initial moments and charges:
  |  Atom   Moment         Charge        Species
  |     1   0.100000E+01   0.000000E+00   Na

  Slab Identifier: This is not a periodic structure.

  Finished reading input file 'geometry.in'.



  Consistency checks for stacksize environment parameter are next.

  | Maximum stacksize for task 0: unlimited
  | Maximum stacksize for task 1: unlimited
  | Maximum stacksize for task 2: unlimited
  | Maximum stacksize for task 3: unlimited
  | Current stacksize for task 0: unlimited
  | Current stacksize for task 1: unlimited
  | Current stacksize for task 2: unlimited
  | Current stacksize for task 3: unlimited

  Consistency checks for the contents of control.in are next.

  MPI_IN_PLACE appears to work with this MPI implementation.
  | Keeping use_mpi_in_place .true. (see manual).
  Target number of points in a grid batch is not set. Defaulting to  100
  Method for grid partitioning is not set. Defaulting to parallel hash+maxmin partitioning.
  Batch size limit is not set. Defaulting to    200
  By default, will store active basis functions for each batch.
  If in need of memory, prune_basis_once .false. can be used to disable this option.
  communication_type for Hartree potential was not specified.
  Defaulting to calc_hartree .
  Defaulting to Pulay charge density mixer.
  Pulay mixer: Number of initial linear mixing iterations not set.
  Defaulting to    0 iterations.
  Work space size for distributed Hartree potential not set.
  Defaulting to   0.200000E+03 MB.
  Mixing parameter for spin density mixing has not been set.
  Using charge_mix_param as default:     0.1000.
  Algorithm-dependent basis array size parameters:
  | n_max_pulay                         :        8
  Maximum number of self-consistency iterations not provided.
  Presetting  1000 iterations.
  Presetting      1001 iterations before the initial mixing cycle
  is restarted anyway using the sc_init_iter criterion / keyword.
  Presetting a factor      1.000 between actual scf density residual
  and density convergence criterion sc_accuracy_rho below which sc_init_iter
  takes no effect.
  Calculation of forces was not defined in control.in. No forces will be calculated.
  Geometry relaxation not requested: no relaxation will be performed.
  No accuracy limit for integral partition fn. given. Defaulting to  0.1000E-14.
  No threshold value for u(r) in integrations given. Defaulting to  0.1000E-05.
  No threshold value for occupation numbers given. Defaulting to  0.0000E+00.
  No accuracy for fermi level given. Defaulting to  0.1000E-19.
  Preferred method for the eigenvalue solver ('KS_method') not specified in 'control.in'.
  Calling BLACS routine to test compilation state
  Since ScaLAPACK support is enabled, defaulting to ELPA (via ELSI).
  Threshold for basis singularities not set.
  Default threshold for basis singularities:  0.1000E-04
  partition_type (choice of integration weights) for integrals was not specified.
  | Using a version of the partition function of Stratmann and coworkers ('stratmann_sparse').
  | At each grid point, the set of atoms used to build the partition table is smoothly restricted to
  | only those atoms whose free-atom density would be non-zero at that grid point.
  Partitioning for Hartree potential was not defined. Using partition_type for integrals.
  | Adjusted default value of keyword multip_moments_threshold to:       0.10000000E-11
  | This value may affect high angular momentum components of the Hartree potential in periodic systems.
  No q(lm)/r^(l+1) cutoff set for long-range Hartree potential.
  | Using default value of  0.100000E-09 .
  | Verify using the multipole_threshold keyword.
  Defaulting to new monopole extrapolation.
  Density update method: automatic selection selected.
  Charge integration errors on the 3D integration grid will be compensated
  by explicit normalization and distribution of residual charges.
  Use the "compensate_multipole_errors" flag to change this behaviour.
  Set 'collect_eigenvectors' to be '.true.' for use_density_matrix .false.
  Found potential conflicts with setting 'use_local_index' for this calculation. Will not set it.

  Consistency checks for the contents of geometry.in are next.

  Number of empty states per atom not set in control.in - providing a guess from actual geometry.
  | Total number of empty states used during s.c.f. cycle:        3
  If you use a very high smearing, use empty_states (per atom!) in control.in to increase this value.

  Structure-dependent array size parameters: 
  | Number of distinct atom types in initial rho :        1
  | Maximum number of distinct radial functions  :       11
  | Maximum number of basis functions            :       31
  | Number of Kohn-Sham states (occupied + empty):        9
------------------------------------------------------------
  After read_input_data [GB]:    998.11

  Performing system and environment tests:
  | Environment variable OMP_NUM_THREADS correctly set to 1.
  | Checking for ScaLAPACK...
  | Testing pdtran()...
  | All pdtran() tests passed.
  | Testing CPU compatibility for run-time vs. build-time.
  | Reading /proc/cpuinfo for CPU information ...
  | Built for  : Intel(R) Xeon(R) w5-3435X
  *** WARNING: CPU mismatch detected for Node worker6092 : Intel(R) Xeon(R) Platinum 8362 CPU @ 2.80GHz                                                 
** WARNING:
  | WARNING: This FHI-aims executable was built on a different
  CPU type than the CPUs used in this run.

  | Running on different hardware than that on which a code was compiled
  | can produce incorrect results (wrong numbers) due to architecture-specific
  | optimizations made by the compiler. Those wrong numbers may occur only spuriously.
  | They are therefore very difficult to rule out even by tests ahead of time.

** END OF WARNING
  | Running on : Intel(R) Xeon(R) Platinum 8362 CPU @ 2.80GHz
  | Runtime CPU compatibility verified.
  
  After prepare_system [GB]:    998.10

------------------------------------------------------------
          Preparing all fixed parts of the calculation.
------------------------------------------------------------
  Determining machine precision:
     2.2250738585072014E-308
  Setting up grids for atomic and cluster calculations.

  Creating wave function, potential, and density for free atoms.
  Runtime choices for atomic solver:
  | atomic solver xc        : PBE
  | compute density gradient: 1
  | compute kinetic density : F

  Species: Na

  List of occupied orbitals and eigenvalues:
    n    l              occ      energy [Ha]    energy [eV]
    1    0           2.0000       -38.034936     -1034.9833
    2    0           2.0000        -2.081399       -56.6377
    3    0           1.0000        -0.097724        -2.6592
    2    1           6.0000        -1.049345       -28.5541

  Spin-polarized or charged system:
  Charge density initialized according to selected moments and charges.

  Creating spin-polarized density from free atoms.

  Species: Na
  Charge:   0.000000
  Moment:   1.000000

  List of occupied orbitals and eigenvalues:
    n    l      energy [Ha]    energy [eV]    occupation
  Spin-up
    1    0       -38.048753     -1035.3592     1.00000000
    2    0        -2.060761       -56.0762     1.00000000
    3    0        -0.102539        -2.7902     1.00000000
    2    1        -1.034291       -28.1445     3.00000000
  Spin-down
    1    0       -38.047522     -1035.3258     1.00000000
    2    0        -2.058408       -56.0121     1.00000000
    3    0        -0.062486        -1.7003     0.00000000
    2    1        -1.031425       -28.0665     3.00000000


  Adding cutoff potential to free-atom effective potential.
  Creating fixed part of basis set: Ionic, confined, hydrogenic.

  Na                   hydrogenic:

  List of hydrogenic basis orbitals: 
    n    l      effective z      eigenvalue [eV]  inner max. [A]     outer max. [A]     outer radius [A]   
    2    1         1.200000        -4.8636           1.741750           1.741750           6.442804
    3    0         1.800000        -4.3244           0.217979           3.539338           6.522051
    3    2         3.800000       -21.8293           1.252092           1.252092           5.771541
    4    1         3.100000        -7.5452           0.482520           3.762428           6.522051
    3    0        10.000000      -151.1743           0.039366           0.687834           3.170581
    4    3         6.200000       -32.6874           1.363958           1.363958           5.563704
    4    2         1.300000         2.5435           1.944326           4.464755           6.522051

  Creating atomic-like basis functions for current effective potential.

  Species Na                  :

  List of atomic basis orbitals and eigenvalues:
    n    l      energy [Ha]    energy [eV]    outer radius [A]
    1    0       -38.034936     -1034.9833       1.017136
    2    0        -2.081399       -56.6377       4.251681
    3    0        -0.097724        -2.6592       6.442804
    2    1        -1.049345       -28.5541       5.496102

  Assembling full basis from fixed parts.
  | Species Na :   atomic orbital   1 s accepted.
  | Species Na :    hydro orbital   3 s accepted.
  | Species Na :   atomic orbital   2 s accepted.
  | Species Na :   atomic orbital   3 s accepted.
  | Species Na :    hydro orbital   3 s accepted.
  | Species Na :   atomic orbital   2 p accepted.
  | Species Na :    hydro orbital   2 p accepted.
  | Species Na :    hydro orbital   4 p accepted.
  | Species Na :    hydro orbital   3 d accepted.
  | Species Na :    hydro orbital   4 d accepted.
  | Species Na :    hydro orbital   4 f accepted.

  Basis size parameters after reduction:
  | Total number of radial functions:       11
  | Total number of basis functions :       31

  Per-task memory consumption for arrays in subroutine allocate_ext:
  |           3.738152MB.
  Testing on-site integration grid accuracy.
  |  Species  Function  <phi|h_atom|phi> (log., in eV)  <phi|h_atom|phi> (rad., in eV)
           1        1              -1034.9832809642              -1034.9832689337
           1        2                 35.0424099465                 35.0423065920
           1        3                -46.6183147006                -46.6183800126
           1        4                  3.4914316841                  3.4912093156
           1        5                 10.1991361766                 10.1980425968
           1        6                -28.5541301943                -28.5541301509
           1        7                  0.1022857395                  0.1020647590
           1        8                  5.6444254243                  5.6427131138
           1        9                 10.2082620462                 10.2082500060
           1       10                  7.4165305588                  7.4282730662
           1       11                 23.2555289252                 23.2555370964

  Preparing densities etc. for the partition functions (integrals / Hartree potential).

  Preparations completed.
  max(cpu_time)          :      0.102 s.
  Wall clock time (cpu1) :      0.102 s.
------------------------------------------------------------
  After prepare_scf [GB]:    998.03

  Initializing index lists of integration centers etc. from given atomic structure:
  | Number of centers in hartree potential                       :         1
  | Number of centers in hartree multipole                       :         1
  | Number of centers in electron density summation              :         1
  | Number of centers in basis integrals                         :         1
  | Number of centers in integrals                               :         1
  | Number of centers in hamiltonian                             :         1
  | Number of centers in partition table from touching 0-cell    :         1
  | Number of centers in partition table total                   :         1
  After initialize_bc_dependent_lists [GB]:    998.03

------------------------------------------------------------
          Begin self-consistency loop: Initialization.

          Date     :  20260722, Time     :  145239.366
------------------------------------------------------------
  Available memory per node after initialize_hartree_non_periodic_ewald [GB]:    998.03
  Available memory per node after initialize_recip_hartree_potential [GB]:    998.03
  * Using 4 tasks for Scalapack Eigenvalue solver.
  Detailed listing of tasks and assigned k-points:
  (for non-periodic systems, the "k-point" denotes an internal label only)
   Task     0 k-point     1 on worker6092
   Task     1 k-point     1 on worker6092
   Task     2 k-point     1 on worker6092
   Task     3 k-point     1 on worker6092
  Tasks:     4 split into      2 X      2 BLACS grid
  Calculating block size based on n_basis =           31  max_nprow =            2  max_npcol =            2
  ScaLAPACK block size set to:            8
  Allocating        0.002 MB for ovlp
  Allocating        0.004 MB for ham
  Allocating        0.004 MB for eigenvec
  Required Scalapack workspace - INTEGER:            1  REAL:             1
  Available memory per node after initialize_scalapack [GB]:    998.03
  Available memory per node after aims_elsi_init_scf [GB]:    998.03
  Available memory per node after initialize_fixed_grids [GB]:    998.03
  Partitioning the integration grid into batches with parallel hashing+maxmin method.
  | Number of batches:      256
  | Maximal batch size:      95
  | Minimal batch size:      68
  | Average batch size:      80.695
  | Standard deviation of batch sizes:       7.983

  Integration load balanced across     4 MPI tasks.
  Work distribution over tasks is as follows:
  Task     0 has       5203 integration points.
  Task     1 has       5163 integration points.
  Task     2 has       5162 integration points.
  Task     3 has       5130 integration points.
  Available memory per node after partition_grid [GB]:    998.03
  Initializing partition tables, free-atom densities, potentials, etc. across the integration grid (initialize_grid_storage).
  | initialize_grid_storage: Actual outermost partition radius vs. multipole_radius_free
  | (-- VB: in principle, multipole_radius_free should be larger, hence this output)
  | Species        1: Confinement radius =              7.000000000000000 AA, multipole_radius_free =              7.018424581658096 AA.
  | Species        1: outer_partition_radius set to              7.018424581658096 AA .
  | The sparse table of interatomic distances needs          0.01 kbyte instead of         0.01 kbyte of memory.
  | Net number of integration points:    20658
  | of which are non-zero points    :    20658
  Available memory per node after initialize_grid_storage_p1 [GB]:    998.03
  Renormalizing the initial density to the exact electron count on the 3D integration grid.
  | Initial density: Formal number of electrons (from input files) :      11.0000000000
  | Integrated number of electrons on 3D grid     :      10.9999995032
  | Charge integration error                      :      -0.0000004968
  | Normalization factor for density and gradient :       1.0000000452
  Renormalizing the free-atom superposition density to the exact electron count on the 3D integration grid.
  | Formal number of electrons (from input files) :      11.0000000000
  | Integrated number of electrons on 3D grid     :      10.9999992484
  | Charge integration error                      :      -0.0000007516
  | Normalization factor for density and gradient :       1.0000000683
  Obtaining max. number of non-zero basis functions in each batch (get_n_compute_maxes).
  | Maximal number of non-zero basis functions:       31 in task     0
  | Maximal number of non-zero basis functions:       31 in task     1
  | Maximal number of non-zero basis functions:       31 in task     2
  | Maximal number of non-zero basis functions:       31 in task     3
  Selecting the method for density update.
  Loop over occupied states selected for charge density update.
  Available memory per node after get_n_compute_maxes_p1 [GB]:    998.03
  Initialize hartree_potential_storage
  Max. number of atoms included in rho_multipole:            1

  Evaluating partitioned Hartree potential by multipole expansion.
  | Original multipole sum: apparent total charge =  -0.315342E-14
  | Sum of charges compensated after spline to logarithmic grids =  -0.803347E-06
  | Analytical far-field extrapolation by fixed multipoles:
  | Hartree multipole sum: apparent total charge =  -0.316323E-14
  Summing up the Hartree potential.
  Time summed over all CPUs for potential: real work        0.001 s, elapsed        0.001 s
  | RMS charge density error from multipole expansion :   0.199743E-15

  Allocating        0.004 MB for KS_eigenvector
  Available memory per node after allocate_matrices [GB]:    998.03
  Available memory per node after init_comm_sparse_local_matrix_scalapack [GB]:    998.03
  Integrating Hamiltonian matrix: batch-based integration.
  Time summed over all CPUs for integration: real work        0.035 s, elapsed        0.036 s
  Available memory per node after integrate hamiltonian matrix [GB]:    998.02
  Integrating overlap matrix.
  Time summed over all CPUs for integration: real work        0.007 s, elapsed        0.007 s
  Available memory per node after integrate ovlp matrix [GB]:    998.02
  Deallocating overlap matrix.
  Available memory per node after save_overlap_scalapack [GB]:    998.02

  Updating Kohn-Sham eigenvalues and eigenvectors using ELSI and the ELPA eigensolver.
  Overlap matrix is not singular
  | Lowest and highest eigenvalues :  0.1000E+01,  0.1000E+01
  Finished singularity check of overlap matrix
  | Time :     0.001 s
  Starting ELPA eigensolver
  Finished Cholesky decomposition
  | Time :     0.000 s
  Finished transformation to standard eigenproblem
  | Time :     0.000 s
  Finished solving standard eigenproblem
  | Time :     0.001 s
  Finished back-transformation of eigenvectors
  | Time :     0.000 s
  Starting ELPA eigensolver
  Finished transformation to standard eigenproblem
  | Time :     0.000 s
  Finished solving standard eigenproblem
  | Time :     0.001 s
  Finished back-transformation of eigenvectors
  | Time :     0.000 s

  Obtaining occupation numbers and electronic chemical potential using ELSI.
  | Note that, for insulating systems, the printed 'chemical potential' value is not uniquely defined.
  | It can be anywhere in the energy gap, as long as it correctly separates occupied and unoccupied states.
  | In systems with a gap, the physically relevant chemical potential is the VBM or HOMO.

  | Chemical potential (Fermi level):    -2.40797478 eV
  Available memory per node after advance_KS_solution [GB]:    998.02
  Writing Kohn-Sham eigenvalues.

  Spin-up eigenvalues:

  State    Occupation    Eigenvalue [Ha]    Eigenvalue [eV]
      1       1.00000         -38.061827        -1035.71500
      2       1.00000          -2.068766          -56.29400
      3       1.00000          -1.042716          -28.37374
      4       1.00000          -1.042716          -28.37374
      5       1.00000          -1.042716          -28.37374
      6       1.00000          -0.105214           -2.86301
      7       0.00000          -0.004743           -0.12908
      8       0.00000          -0.004743           -0.12908
      9       0.00000          -0.004743           -0.12908

  Spin-down eigenvalues:

  State    Occupation    Eigenvalue [Ha]    Eigenvalue [eV]
      1       1.00000         -38.060648        -1035.68292
      2       1.00000          -2.066912          -56.24354
      3       1.00000          -1.040714          -28.31926
      4       1.00000          -1.040714          -28.31926
      5       1.00000          -1.040714          -28.31926
      6       0.00000          -0.071769           -1.95294
      7       0.00000           0.027892            0.75897
      8       0.00000           0.027892            0.75897
      9       0.00000           0.027892            0.75897

  Current spin moment of the entire structure :
  | N = N_up - N_down :    1.00
  | S                 :    0.50
  | J                 :    2.00

  Highest occupied state (VBM) at     -2.86300991 eV
  | Occupation number:      1.00000000
  | Spin channel:        1

  Lowest unoccupied state (CBM) at    -1.95293964 eV
  | Occupation number:      0.00000000
  | Spin channel:        2

  Overall HOMO-LUMO gap:      0.91007027 eV.
  Calculating total energy contributions from superposition of free atom densities.

  Total energy components:
  | Sum of eigenvalues            :         -86.61365448 Ha       -2356.87745510 eV
  | XC energy correction          :         -14.45218018 Ha        -393.26383164 eV
  | XC potential correction       :          18.55698717 Ha         504.96131305 eV
  | Free-atom electrostatic energy:         -80.00768629 Ha       -2177.11991464 eV
  | Hartree energy correction     :          -0.11355376 Ha          -3.08995512 eV
  | Entropy correction            :          -0.00000000 Ha          -0.00000000 eV
  | ---------------------------
  | Total energy                  :        -162.63008754 Ha       -4425.38984344 eV
  | Total energy, T -> 0          :        -162.63008754 Ha       -4425.38984344 eV  <-- do not rely on this value for anything but (periodic) metals
  | Electronic free energy        :        -162.63008754 Ha       -4425.38984344 eV

  Derived energy quantities:
  | Kinetic energy                :         162.77931116 Ha        4429.45042452 eV
  | Electrostatic energy          :        -310.95721852 Ha       -8461.57643633 eV
  | Energy correction for multipole
  | error in Hartree potential    :           0.00000000 Ha           0.00000000 eV
  | Sum of eigenvalues per atom                           :       -2356.87745510 eV
  | Total energy (T->0) per atom                          :       -4425.38984344 eV  <-- do not rely on this value for anything but (periodic) metals
  | Electronic free energy per atom                       :       -4425.38984344 eV

  End scf initialization - timings             :  max(cpu_time)    wall_clock(cpu1)
  | Time for scf. initialization                :        0.031 s           0.031 s
  | Boundary condition initialization           :        0.001 s           0.001 s
  | Integration                                 :        0.011 s           0.011 s
  | Solution of K.-S. eqns.                     :        0.003 s           0.003 s
  | Grid partitioning                           :        0.005 s           0.006 s
  | Preloading free-atom quantities on grid     :        0.006 s           0.006 s
  | Free-atom superposition energy              :        0.005 s           0.005 s
  | Total energy evaluation                     :        0.000 s           0.000 s

  Partial memory accounting:
  | Current value for overall tracked memory usage:
  |   Minimum:        0.021 MB (on task 3)
  |   Maximum:        0.022 MB (on task 0)
  |   Average:        0.021 MB
  | Peak value for overall tracked memory usage:
  |   Minimum:        0.163 MB (on task 3 after allocating grid_partition)
  |   Maximum:        0.213 MB (on task 0 after allocating grid_partition)
  |   Average:        0.187 MB
  | Largest tracked array allocation so far:
  |   Minimum:        0.103 MB (all_coords on task 3)
  |   Maximum:        0.135 MB (all_coords on task 0)
  |   Average:        0.118 MB
  Note:  These values currently only include a subset of arrays which are explicitly tracked.
  The "true" memory usage will be greater.
------------------------------------------------------------
  Available memory after initialize_scf [GB]:    998.02
  Available memory after allocating mixing [GB]:    998.02
  Evaluating new KS density.
  Integration grid: deviation in total charge (<rho> - N_e) =   2.131628E-14
  | <rho_up-rho_dn> = N_up-N_dn =      1.0000; <|rho_up-rho_dn|> =      1.0001

  Time for density update prior                :  max(cpu_time)    wall_clock(cpu1)
  | self-consistency iterative process          :        0.005 s           0.005 s
  Available memory before start of SCF loop [GB]:    998.02

------------------------------------------------------------
          Begin self-consistency iteration #    1

  Date     :  20260722, Time     :  145239.402
------------------------------------------------------------
  Pulay mixing of updated and previous charge densities.
  Available memory per node after mixing [GB]:    998.01
  Renormalizing the density to the exact electron count on the 3D integration grid.
  | Formal number of electrons (from input files) :      11.0000000000
  | Integrated number of electrons on 3D grid     :      11.0000000000
  | Charge integration error                      :       0.0000000000
  | Normalization factor for density and gradient :       1.0000000000

  Evaluating partitioned Hartree potential by multipole expansion.
  | Original multipole sum: apparent total charge =  -0.166287E-14
  | Sum of charges compensated after spline to logarithmic grids =  -0.813198E-06
  | Analytical far-field extrapolation by fixed multipoles:
  | Hartree multipole sum: apparent total charge =  -0.167773E-14
  Summing up the Hartree potential.
  Time summed over all CPUs for potential: real work        0.001 s, elapsed        0.001 s
  | RMS charge density error from multipole expansion :   0.112600E-14

  Integrating Hamiltonian matrix: batch-based integration.
  Time summed over all CPUs for integration: real work        0.034 s, elapsed        0.035 s

  Updating Kohn-Sham eigenvalues and eigenvectors using ELSI and the ELPA eigensolver.
  Starting ELPA eigensolver
  Finished transformation to standard eigenproblem
  | Time :     0.000 s
  Finished solving standard eigenproblem
  | Time :     0.001 s
  Finished back-transformation of eigenvectors
  | Time :     0.000 s
  Starting ELPA eigensolver
  Finished transformation to standard eigenproblem
  | Time :     0.000 s
  Finished solving standard eigenproblem
  | Time :     0.000 s
  Finished back-transformation of eigenvectors
  | Time :     0.000 s

  Obtaining occupation numbers and electronic chemical potential using ELSI.
  | Note that, for insulating systems, the printed 'chemical potential' value is not uniquely defined.
  | It can be anywhere in the energy gap, as long as it correctly separates occupied and unoccupied states.
  | In systems with a gap, the physically relevant chemical potential is the VBM or HOMO.

  | Chemical potential (Fermi level):    -2.40696513 eV
  Writing Kohn-Sham eigenvalues.

  Spin-up eigenvalues:

  State    Occupation    Eigenvalue [Ha]    Eigenvalue [eV]
      1       1.00000         -38.063934        -1035.77234
      2       1.00000          -2.069207          -56.30598
      3       1.00000          -1.043202          -28.38698
      4       1.00000          -1.043202          -28.38698
      5       1.00000          -1.043202          -28.38698
      6       1.00000          -0.105162           -2.86161
      7       0.00000          -0.004710           -0.12818
      8       0.00000          -0.004710           -0.12818
      9       0.00000          -0.004710           -0.12818

  Spin-down eigenvalues:

  State    Occupation    Eigenvalue [Ha]    Eigenvalue [eV]
      1       1.00000         -38.062729        -1035.73954
      2       1.00000          -2.067316          -56.25453
      3       1.00000          -1.041163          -28.33150
      4       1.00000          -1.041163          -28.33150
      5       1.00000          -1.041163          -28.33150
      6       0.00000          -0.071746           -1.95232
      7       0.00000           0.027925            0.75988
      8       0.00000           0.027925            0.75988
      9       0.00000           0.027925            0.75988

  Current spin moment of the entire structure :
  | N = N_up - N_down :    1.00
  | S                 :    0.50
  | J                 :    2.00

  Highest occupied state (VBM) at     -2.86161054 eV
  | Occupation number:      1.00000000
  | Spin channel:        1

  Lowest unoccupied state (CBM) at    -1.95231972 eV
  | Occupation number:      0.00000000
  | Spin channel:        2

  Overall HOMO-LUMO gap:      0.90929083 eV.

  Total energy components:
  | Sum of eigenvalues            :         -86.62144481 Ha       -2357.08944065 eV
  | XC energy correction          :         -14.45103203 Ha        -393.23258885 eV
  | XC potential correction       :          18.55549440 Ha         504.92069282 eV
  | Free-atom electrostatic energy:         -80.00768629 Ha       -2177.11991464 eV
  | Hartree energy correction     :          -0.10540671 Ha          -2.86826251 eV
  | Entropy correction            :          -0.00000000 Ha          -0.00000000 eV
  | ---------------------------
  | Total energy                  :        -162.63007543 Ha       -4425.38951383 eV
  | Total energy, T -> 0          :        -162.63007543 Ha       -4425.38951383 eV  <-- do not rely on this value for anything but (periodic) metals
  | Electronic free energy        :        -162.63007543 Ha       -4425.38951383 eV

  Derived energy quantities:
  | Kinetic energy                :         162.75807565 Ha        4428.87257702 eV
  | Electrostatic energy          :        -310.93711906 Ha       -8461.02950199 eV
  | Energy correction for multipole
  | error in Hartree potential    :          -0.00000000 Ha          -0.00000000 eV
  | Sum of eigenvalues per atom                           :       -2357.08944065 eV
  | Total energy (T->0) per atom                          :       -4425.38951383 eV  <-- do not rely on this value for anything but (periodic) metals
  | Electronic free energy per atom                       :       -4425.38951383 eV
  Evaluating new KS density.
  Integration grid: deviation in total charge (<rho> - N_e) =   1.776357E-14
  | <rho_up-rho_dn> = N_up-N_dn =      1.0000; <|rho_up-rho_dn|> =      1.0001

  Self-consistency convergence accuracy:
  | Change of charge/spin density :  0.1647E-01  0.3001E-02
  | Change of unmixed KS charge/spin density :  0.1537E+02  0.4250E-01
  | Change of sum of eigenvalues  : -0.2120E+00 eV
  | Change of total energy        :  0.3296E-03 eV


------------------------------------------------------------
  End self-consistency iteration #     1       :  max(cpu_time)    wall_clock(cpu1)
  | Time for this iteration                     :        0.018 s           0.018 s
  | Charge density update                       :        0.004 s           0.004 s
  | Density mixing                              :        0.000 s           0.001 s
  | Hartree multipole update                    :        0.001 s           0.001 s
  | Hartree multipole summation                 :        0.002 s           0.001 s
  | Integration                                 :        0.009 s           0.008 s
  | Solution of K.-S. eqns.                     :        0.001 s           0.001 s
  | Total energy evaluation                     :        0.000 s           0.000 s

  Partial memory accounting:
  | Current value for overall tracked memory usage:
  |   Minimum:        5.735 MB (on task 3)
  |   Maximum:        5.818 MB (on task 0)
  |   Average:        5.774 MB
  | Peak value for overall tracked memory usage:
  |   Minimum:        5.855 MB (on task 3 after allocating wave)
  |   Maximum:        5.938 MB (on task 0 after allocating wave)
  |   Average:        5.894 MB
  | Largest tracked array allocation so far:
  |   Minimum:        1.879 MB (previous_rho_gradient_diff on task 3)
  |   Maximum:        1.905 MB (previous_rho_gradient_diff on task 0)
  |   Average:        1.891 MB
  Note:  These values currently only include a subset of arrays which are explicitly tracked.
  The "true" memory usage will be greater.
------------------------------------------------------------

------------------------------------------------------------
          Begin self-consistency iteration #    2

  Date     :  20260722, Time     :  145239.448
------------------------------------------------------------
  Pulay mixing of updated and previous charge densities.
  Available memory per node after mixing [GB]:    998.00
  Renormalizing the density to the exact electron count on the 3D integration grid.
  | Formal number of electrons (from input files) :      11.0000000000
  | Integrated number of electrons on 3D grid     :      11.0000000000
  | Charge integration error                      :      -0.0000000000
  | Normalization factor for density and gradient :       1.0000000000

  Evaluating partitioned Hartree potential by multipole expansion.
  | Original multipole sum: apparent total charge =  -0.149849E-13
  | Sum of charges compensated after spline to logarithmic grids =  -0.890004E-06
  | Analytical far-field extrapolation by fixed multipoles:
  | Hartree multipole sum: apparent total charge =  -0.149769E-13
  Summing up the Hartree potential.
  Time summed over all CPUs for potential: real work        0.001 s, elapsed        0.001 s
  | RMS charge density error from multipole expansion :   0.622587E-14

  Integrating Hamiltonian matrix: batch-based integration.
  Time summed over all CPUs for integration: real work        0.034 s, elapsed        0.035 s

  Updating Kohn-Sham eigenvalues and eigenvectors using ELSI and the ELPA eigensolver.
  Starting ELPA eigensolver
  Finished transformation to standard eigenproblem
  | Time :     0.000 s
  Finished solving standard eigenproblem
  | Time :     0.001 s
  Finished back-transformation of eigenvectors
  | Time :     0.000 s
  Starting ELPA eigensolver
  Finished transformation to standard eigenproblem
  | Time :     0.000 s
  Finished solving standard eigenproblem
  | Time :     0.000 s
  Finished back-transformation of eigenvectors
  | Time :     0.000 s

  Obtaining occupation numbers and electronic chemical potential using ELSI.
  | Note that, for insulating systems, the printed 'chemical potential' value is not uniquely defined.
  | It can be anywhere in the energy gap, as long as it correctly separates occupied and unoccupied states.
  | In systems with a gap, the physically relevant chemical potential is the VBM or HOMO.

  | Chemical potential (Fermi level):    -2.38532155 eV
  Current spin moment of the entire structure :
  | N = N_up - N_down :    1.00
  | S                 :    0.50
  | J                 :    2.00

  Highest occupied state (VBM) at     -2.85038019 eV
  | Occupation number:      1.00000000
  | Spin channel:        1

  Lowest unoccupied state (CBM) at    -1.92026291 eV
  | Occupation number:      0.00000000
  | Spin channel:        2

  Overall HOMO-LUMO gap:      0.93011729 eV.

  Checking to see if s.c.f. parameters should be adjusted.

  Total energy components:
  | Sum of eigenvalues            :         -86.67888732 Ha       -2358.65253094 eV
  | XC energy correction          :         -14.44254598 Ha        -393.00167187 eV
  | XC potential correction       :          18.54446499 Ha         504.62056720 eV
  | Free-atom electrostatic energy:         -80.00768629 Ha       -2177.11991464 eV
  | Hartree energy correction     :          -0.04538200 Ha          -1.23490704 eV
  | Entropy correction            :          -0.00000000 Ha          -0.00000000 eV
  | ---------------------------
  | Total energy                  :        -162.63003660 Ha       -4425.38845729 eV
  | Total energy, T -> 0          :        -162.63003660 Ha       -4425.38845729 eV  <-- do not rely on this value for anything but (periodic) metals
  | Electronic free energy        :        -162.63003660 Ha       -4425.38845729 eV

  Derived energy quantities:
  | Kinetic energy                :         162.59778469 Ha        4424.51083809 eV
  | Electrostatic energy          :        -310.78527531 Ha       -8456.89762351 eV
  | Energy correction for multipole
  | error in Hartree potential    :           0.00000000 Ha           0.00000000 eV
  | Sum of eigenvalues per atom                           :       -2358.65253094 eV
  | Total energy (T->0) per atom                          :       -4425.38845729 eV  <-- do not rely on this value for anything but (periodic) metals
  | Electronic free energy per atom                       :       -4425.38845729 eV
  Evaluating new KS density.
  Integration grid: deviation in total charge (<rho> - N_e) =  -2.131628E-14
  | <rho_up-rho_dn> = N_up-N_dn =      1.0000; <|rho_up-rho_dn|> =      1.0001

  Self-consistency convergence accuracy:
  | Change of charge/spin density :  0.1458E-01  0.2711E-02
  | Change of unmixed KS charge/spin density :  0.3341E-03  0.1122E-04
  | Change of sum of eigenvalues  : -0.1563E+01 eV
  | Change of total energy        :  0.1057E-02 eV


------------------------------------------------------------
  End self-consistency iteration #     2       :  max(cpu_time)    wall_clock(cpu1)
  | Time for this iteration                     :        0.026 s           0.021 s
  | Charge density update                       :        0.004 s           0.005 s
  | Density mixing                              :        0.010 s           0.004 s
  | Hartree multipole update                    :        0.001 s           0.001 s
  | Hartree multipole summation                 :        0.001 s           0.001 s
  | Integration                                 :        0.009 s           0.009 s
  | Solution of K.-S. eqns.                     :        0.001 s           0.001 s
  | Total energy evaluation                     :        0.000 s           0.000 s

  Partial memory accounting:
  | Current value for overall tracked memory usage:
  |   Minimum:        5.736 MB (on task 3)
  |   Maximum:        5.818 MB (on task 0)
  |   Average:        5.775 MB
  | Peak value for overall tracked memory usage:
  |   Minimum:        5.856 MB (on task 3 after allocating wave)
  |   Maximum:        5.939 MB (on task 0 after allocating wave)
  |   Average:        5.895 MB
  | Largest tracked array allocation so far:
  |   Minimum:        1.879 MB (previous_rho_gradient_diff on task 3)
  |   Maximum:        1.905 MB (previous_rho_gradient_diff on task 0)
  |   Average:        1.891 MB
  Note:  These values currently only include a subset of arrays which are explicitly tracked.
  The "true" memory usage will be greater.
------------------------------------------------------------

------------------------------------------------------------
          Begin self-consistency iteration #    3

  Date     :  20260722, Time     :  145239.490
------------------------------------------------------------
  Pulay mixing of updated and previous charge densities.
  Available memory per node after mixing [GB]:    998.00
  Renormalizing the density to the exact electron count on the 3D integration grid.
  | Formal number of electrons (from input files) :      11.0000000000
  | Integrated number of electrons on 3D grid     :      11.0000000000
  | Charge integration error                      :       0.0000000000
  | Normalization factor for density and gradient :       1.0000000000

  Evaluating partitioned Hartree potential by multipole expansion.
  | Original multipole sum: apparent total charge =   0.147361E-13
  | Sum of charges compensated after spline to logarithmic grids =  -0.903953E-06
  | Analytical far-field extrapolation by fixed multipoles:
  | Hartree multipole sum: apparent total charge =   0.147240E-13
  Summing up the Hartree potential.
  Time summed over all CPUs for potential: real work        0.001 s, elapsed        0.001 s
  | RMS charge density error from multipole expansion :   0.710427E-14

  Integrating Hamiltonian matrix: batch-based integration.
  Time summed over all CPUs for integration: real work        0.035 s, elapsed        0.035 s

  Updating Kohn-Sham eigenvalues and eigenvectors using ELSI and the ELPA eigensolver.
  Starting ELPA eigensolver
  Finished transformation to standard eigenproblem
  | Time :     0.000 s
  Finished solving standard eigenproblem
  | Time :     0.001 s
  Finished back-transformation of eigenvectors
  | Time :     0.000 s
  Starting ELPA eigensolver
  Finished transformation to standard eigenproblem
  | Time :     0.000 s
  Finished solving standard eigenproblem
  | Time :     0.000 s
  Finished back-transformation of eigenvectors
  | Time :     0.000 s

  Obtaining occupation numbers and electronic chemical potential using ELSI.
  | Note that, for insulating systems, the printed 'chemical potential' value is not uniquely defined.
  | It can be anywhere in the energy gap, as long as it correctly separates occupied and unoccupied states.
  | In systems with a gap, the physically relevant chemical potential is the VBM or HOMO.

  | Chemical potential (Fermi level):    -2.36894103 eV
  Current spin moment of the entire structure :
  | N = N_up - N_down :    1.00
  | S                 :    0.50
  | J                 :    2.00

  Highest occupied state (VBM) at     -2.84614700 eV
  | Occupation number:      1.00000000
  | Spin channel:        1

  Lowest unoccupied state (CBM) at    -1.89173507 eV
  | Occupation number:      0.00000000
  | Spin channel:        2

  Overall HOMO-LUMO gap:      0.95441193 eV.

  Total energy components:
  | Sum of eigenvalues            :         -86.66635063 Ha       -2358.31139028 eV
  | XC energy correction          :         -14.44415100 Ha        -393.04534674 eV
  | XC potential correction       :          18.54657440 Ha         504.67796717 eV
  | Free-atom electrostatic energy:         -80.00768629 Ha       -2177.11991464 eV
  | Hartree energy correction     :          -0.05842218 Ha          -1.58974852 eV
  | Entropy correction            :          -0.00000000 Ha          -0.00000000 eV
  | ---------------------------
  | Total energy                  :        -162.63003571 Ha       -4425.38843301 eV
  | Total energy, T -> 0          :        -162.63003571 Ha       -4425.38843301 eV  <-- do not rely on this value for anything but (periodic) metals
  | Electronic free energy        :        -162.63003571 Ha       -4425.38843301 eV

  Derived energy quantities:
  | Kinetic energy                :         162.60540216 Ha        4424.71811993 eV
  | Electrostatic energy          :        -310.79128687 Ha       -8457.06120620 eV
  | Energy correction for multipole
  | error in Hartree potential    :           0.00000000 Ha           0.00000000 eV
  | Sum of eigenvalues per atom                           :       -2358.31139028 eV
  | Total energy (T->0) per atom                          :       -4425.38843301 eV  <-- do not rely on this value for anything but (periodic) metals
  | Electronic free energy per atom                       :       -4425.38843301 eV
  Evaluating new KS density.
  Integration grid: deviation in total charge (<rho> - N_e) =  -7.105427E-15
  | <rho_up-rho_dn> = N_up-N_dn =      1.0000; <|rho_up-rho_dn|> =      1.0001

  Self-consistency convergence accuracy:
  | Change of charge/spin density :  0.1726E-02  0.4528E-03
  | Change of unmixed KS charge/spin density :  0.2487E-02  0.8260E-04
  | Change of sum of eigenvalues  :  0.3411E+00 eV
  | Change of total energy        :  0.2428E-04 eV


------------------------------------------------------------
  End self-consistency iteration #     3       :  max(cpu_time)    wall_clock(cpu1)
  | Time for this iteration                     :        0.033 s           0.026 s
  | Charge density update                       :        0.004 s           0.005 s
  | Density mixing                              :        0.017 s           0.010 s
  | Hartree multipole update                    :        0.001 s           0.000 s
  | Hartree multipole summation                 :        0.001 s           0.001 s
  | Integration                                 :        0.009 s           0.009 s
  | Solution of K.-S. eqns.                     :        0.001 s           0.001 s
  | Total energy evaluation                     :        0.000 s           0.000 s

  Partial memory accounting:
  | Current value for overall tracked memory usage:
  |   Minimum:        5.736 MB (on task 3)
  |   Maximum:        5.818 MB (on task 0)
  |   Average:        5.775 MB
  | Peak value for overall tracked memory usage:
  |   Minimum:        5.856 MB (on task 3 after allocating wave)
  |   Maximum:        5.939 MB (on task 0 after allocating wave)
  |   Average:        5.895 MB
  | Largest tracked array allocation so far:
  |   Minimum:        1.879 MB (previous_rho_gradient_diff on task 3)
  |   Maximum:        1.905 MB (previous_rho_gradient_diff on task 0)
  |   Average:        1.891 MB
  Note:  These values currently only include a subset of arrays which are explicitly tracked.
  The "true" memory usage will be greater.
------------------------------------------------------------

------------------------------------------------------------
          Begin self-consistency iteration #    4

  Date     :  20260722, Time     :  145239.535
------------------------------------------------------------
  Pulay mixing of updated and previous charge densities.
  Available memory per node after mixing [GB]:    998.00
  Renormalizing the density to the exact electron count on the 3D integration grid.
  | Formal number of electrons (from input files) :      11.0000000000
  | Integrated number of electrons on 3D grid     :      11.0000000000
  | Charge integration error                      :       0.0000000000
  | Normalization factor for density and gradient :       1.0000000000

  Evaluating partitioned Hartree potential by multipole expansion.
  | Original multipole sum: apparent total charge =   0.369933E-13
  | Sum of charges compensated after spline to logarithmic grids =  -0.901829E-06
  | Analytical far-field extrapolation by fixed multipoles:
  | Hartree multipole sum: apparent total charge =   0.369954E-13
  Summing up the Hartree potential.
  Time summed over all CPUs for potential: real work        0.001 s, elapsed        0.001 s
  | RMS charge density error from multipole expansion :   0.701084E-14

  Integrating Hamiltonian matrix: batch-based integration.
  Time summed over all CPUs for integration: real work        0.035 s, elapsed        0.035 s

  Updating Kohn-Sham eigenvalues and eigenvectors using ELSI and the ELPA eigensolver.
  Starting ELPA eigensolver
  Finished transformation to standard eigenproblem
  | Time :     0.000 s
  Finished solving standard eigenproblem
  | Time :     0.000 s
  Finished back-transformation of eigenvectors
  | Time :     0.000 s
  Starting ELPA eigensolver
  Finished transformation to standard eigenproblem
  | Time :     0.000 s
  Finished solving standard eigenproblem
  | Time :     0.001 s
  Finished back-transformation of eigenvectors
  | Time :     0.000 s

  Obtaining occupation numbers and electronic chemical potential using ELSI.
  | Note that, for insulating systems, the printed 'chemical potential' value is not uniquely defined.
  | It can be anywhere in the energy gap, as long as it correctly separates occupied and unoccupied states.
  | In systems with a gap, the physically relevant chemical potential is the VBM or HOMO.

  | Chemical potential (Fermi level):    -2.37139307 eV
  Current spin moment of the entire structure :
  | N = N_up - N_down :    1.00
  | S                 :    0.50
  | J                 :    2.00

  Highest occupied state (VBM) at     -2.84625998 eV
  | Occupation number:      1.00000000
  | Spin channel:        1

  Lowest unoccupied state (CBM) at    -1.89652616 eV
  | Occupation number:      0.00000000
  | Spin channel:        2

  Overall HOMO-LUMO gap:      0.94973382 eV.

  Total energy components:
  | Sum of eigenvalues            :         -86.66582602 Ha       -2358.29711492 eV
  | XC energy correction          :         -14.44424009 Ha        -393.04777098 eV
  | XC potential correction       :          18.54669106 Ha         504.68114150 eV
  | Free-atom electrostatic energy:         -80.00768629 Ha       -2177.11991464 eV
  | Hartree energy correction     :          -0.05897436 Ha          -1.60477401 eV
  | Entropy correction            :          -0.00000000 Ha          -0.00000000 eV
  | ---------------------------
  | Total energy                  :        -162.63003571 Ha       -4425.38843306 eV
  | Total energy, T -> 0          :        -162.63003571 Ha       -4425.38843306 eV  <-- do not rely on this value for anything but (periodic) metals
  | Electronic free energy        :        -162.63003571 Ha       -4425.38843306 eV

  Derived energy quantities:
  | Kinetic energy                :         162.60658256 Ha        4424.75024019 eV
  | Electrostatic energy          :        -310.79237818 Ha       -8457.09090226 eV
  | Energy correction for multipole
  | error in Hartree potential    :           0.00000000 Ha           0.00000000 eV
  | Sum of eigenvalues per atom                           :       -2358.29711492 eV
  | Total energy (T->0) per atom                          :       -4425.38843306 eV  <-- do not rely on this value for anything but (periodic) metals
  | Electronic free energy per atom                       :       -4425.38843306 eV
  Evaluating new KS density.
  Integration grid: deviation in total charge (<rho> - N_e) =  -1.598721E-14
  | <rho_up-rho_dn> = N_up-N_dn =      1.0000; <|rho_up-rho_dn|> =      1.0001

  Self-consistency convergence accuracy:
  | Change of charge/spin density :  0.7300E-04  0.3052E-04
  | Change of unmixed KS charge/spin density :  0.3288E-03  0.2960E-04
  | Change of sum of eigenvalues  :  0.1428E-01 eV
  | Change of total energy        : -0.4822E-07 eV


------------------------------------------------------------
  End self-consistency iteration #     4       :  max(cpu_time)    wall_clock(cpu1)
  | Time for this iteration                     :        0.034 s           0.028 s
  | Charge density update                       :        0.004 s           0.004 s
  | Density mixing                              :        0.018 s           0.012 s
  | Hartree multipole update                    :        0.001 s           0.001 s
  | Hartree multipole summation                 :        0.001 s           0.001 s
  | Integration                                 :        0.009 s           0.009 s
  | Solution of K.-S. eqns.                     :        0.001 s           0.001 s
  | Total energy evaluation                     :        0.000 s           0.000 s

  Partial memory accounting:
  | Current value for overall tracked memory usage:
  |   Minimum:        5.736 MB (on task 3)
  |   Maximum:        5.818 MB (on task 0)
  |   Average:        5.775 MB
  | Peak value for overall tracked memory usage:
  |   Minimum:        5.856 MB (on task 3 after allocating wave)
  |   Maximum:        5.939 MB (on task 0 after allocating wave)
  |   Average:        5.895 MB
  | Largest tracked array allocation so far:
  |   Minimum:        1.879 MB (previous_rho_gradient_diff on task 3)
  |   Maximum:        1.905 MB (previous_rho_gradient_diff on task 0)
  |   Average:        1.891 MB
  Note:  These values currently only include a subset of arrays which are explicitly tracked.
  The "true" memory usage will be greater.
------------------------------------------------------------

------------------------------------------------------------
          Begin self-consistency iteration #    5

  Date     :  20260722, Time     :  145239.585
------------------------------------------------------------
  Pulay mixing of updated and previous charge densities.
  Available memory per node after mixing [GB]:    998.00
  Renormalizing the density to the exact electron count on the 3D integration grid.
  | Formal number of electrons (from input files) :      11.0000000000
  | Integrated number of electrons on 3D grid     :      11.0000000000
  | Charge integration error                      :       0.0000000000
  | Normalization factor for density and gradient :       1.0000000000

  Evaluating partitioned Hartree potential by multipole expansion.
  | Original multipole sum: apparent total charge =   0.305662E-13
  | Sum of charges compensated after spline to logarithmic grids =  -0.893839E-06
  | Analytical far-field extrapolation by fixed multipoles:
  | Hartree multipole sum: apparent total charge =   0.305762E-13
  Summing up the Hartree potential.
  Time summed over all CPUs for potential: real work        0.001 s, elapsed        0.001 s
  | RMS charge density error from multipole expansion :   0.687784E-14

  Integrating Hamiltonian matrix: batch-based integration.
  Time summed over all CPUs for integration: real work        0.035 s, elapsed        0.035 s

  Updating Kohn-Sham eigenvalues and eigenvectors using ELSI and the ELPA eigensolver.
  Starting ELPA eigensolver
  Finished transformation to standard eigenproblem
  | Time :     0.000 s
  Finished solving standard eigenproblem
  | Time :     0.001 s
  Finished back-transformation of eigenvectors
  | Time :     0.000 s
  Starting ELPA eigensolver
  Finished transformation to standard eigenproblem
  | Time :     0.000 s
  Finished solving standard eigenproblem
  | Time :     0.000 s
  Finished back-transformation of eigenvectors
  | Time :     0.000 s

  Obtaining occupation numbers and electronic chemical potential using ELSI.
  | Note that, for insulating systems, the printed 'chemical potential' value is not uniquely defined.
  | It can be anywhere in the energy gap, as long as it correctly separates occupied and unoccupied states.
  | In systems with a gap, the physically relevant chemical potential is the VBM or HOMO.

  | Chemical potential (Fermi level):    -2.37743363 eV
  Current spin moment of the entire structure :
  | N = N_up - N_down :    1.00
  | S                 :    0.50
  | J                 :    2.00

  Highest occupied state (VBM) at     -2.84709251 eV
  | Occupation number:      1.00000000
  | Spin channel:        1

  Lowest unoccupied state (CBM) at    -1.90777475 eV
  | Occupation number:      0.00000000
  | Spin channel:        2

  Overall HOMO-LUMO gap:      0.93931776 eV.

  Total energy components:
  | Sum of eigenvalues            :         -86.66721193 Ha       -2358.33482727 eV
  | XC energy correction          :         -14.44411524 Ha        -393.04437353 eV
  | XC potential correction       :          18.54652806 Ha         504.67670615 eV
  | Free-atom electrostatic energy:         -80.00768629 Ha       -2177.11991464 eV
  | Hartree energy correction     :          -0.05755031 Ha          -1.56602357 eV
  | Entropy correction            :          -0.00000000 Ha          -0.00000000 eV
  | ---------------------------
  | Total energy                  :        -162.63003571 Ha       -4425.38843286 eV
  | Total energy, T -> 0          :        -162.63003571 Ha       -4425.38843286 eV  <-- do not rely on this value for anything but (periodic) metals
  | Electronic free energy        :        -162.63003571 Ha       -4425.38843286 eV

  Derived energy quantities:
  | Kinetic energy                :         162.60610417 Ha        4424.73722248 eV
  | Electrostatic energy          :        -310.79202463 Ha       -8457.08128181 eV
  | Energy correction for multipole
  | error in Hartree potential    :           0.00000000 Ha           0.00000000 eV
  | Sum of eigenvalues per atom                           :       -2358.33482727 eV
  | Total energy (T->0) per atom                          :       -4425.38843286 eV  <-- do not rely on this value for anything but (periodic) metals
  | Electronic free energy per atom                       :       -4425.38843286 eV
  Evaluating new KS density.
  Integration grid: deviation in total charge (<rho> - N_e) =   3.552714E-15
  | <rho_up-rho_dn> = N_up-N_dn =      1.0000; <|rho_up-rho_dn|> =      1.0001

  Self-consistency convergence accuracy:
  | Change of charge/spin density :  0.6481E-04  0.2379E-04
  | Change of unmixed KS charge/spin density :  0.2250E-04  0.7937E-06
  | Change of sum of eigenvalues  : -0.3771E-01 eV
  | Change of total energy        :  0.2009E-06 eV


------------------------------------------------------------
  End self-consistency iteration #     5       :  max(cpu_time)    wall_clock(cpu1)
  | Time for this iteration                     :        0.035 s           0.027 s
  | Charge density update                       :        0.004 s           0.005 s
  | Density mixing                              :        0.018 s           0.009 s
  | Hartree multipole update                    :        0.001 s           0.001 s
  | Hartree multipole summation                 :        0.001 s           0.001 s
  | Integration                                 :        0.009 s           0.009 s
  | Solution of K.-S. eqns.                     :        0.001 s           0.001 s
  | Total energy evaluation                     :        0.000 s           0.000 s

  Partial memory accounting:
  | Current value for overall tracked memory usage:
  |   Minimum:        5.736 MB (on task 3)
  |   Maximum:        5.818 MB (on task 0)
  |   Average:        5.775 MB
  | Peak value for overall tracked memory usage:
  |   Minimum:        5.856 MB (on task 3 after allocating wave)
  |   Maximum:        5.939 MB (on task 0 after allocating wave)
  |   Average:        5.895 MB
  | Largest tracked array allocation so far:
  |   Minimum:        1.879 MB (previous_rho_gradient_diff on task 3)
  |   Maximum:        1.905 MB (previous_rho_gradient_diff on task 0)
  |   Average:        1.891 MB
  Note:  These values currently only include a subset of arrays which are explicitly tracked.
  The "true" memory usage will be greater.
------------------------------------------------------------

------------------------------------------------------------
          Begin self-consistency iteration #    6

  Date     :  20260722, Time     :  145239.631
------------------------------------------------------------
  Pulay mixing of updated and previous charge densities.
  Available memory per node after mixing [GB]:    998.00
  Renormalizing the density to the exact electron count on the 3D integration grid.
  | Formal number of electrons (from input files) :      11.0000000000
  | Integrated number of electrons on 3D grid     :      11.0000000000
  | Charge integration error                      :       0.0000000000
  | Normalization factor for density and gradient :       1.0000000000

  Evaluating partitioned Hartree potential by multipole expansion.
  | Original multipole sum: apparent total charge =   0.318193E-13
  | Sum of charges compensated after spline to logarithmic grids =  -0.894111E-06
  | Analytical far-field extrapolation by fixed multipoles:
  | Hartree multipole sum: apparent total charge =   0.318100E-13
  Summing up the Hartree potential.
  Time summed over all CPUs for potential: real work        0.001 s, elapsed        0.001 s
  | RMS charge density error from multipole expansion :   0.707405E-14

  Integrating Hamiltonian matrix: batch-based integration.
  Time summed over all CPUs for integration: real work        0.035 s, elapsed        0.035 s

  Updating Kohn-Sham eigenvalues and eigenvectors using ELSI and the ELPA eigensolver.
  Starting ELPA eigensolver
  Finished transformation to standard eigenproblem
  | Time :     0.000 s
  Finished solving standard eigenproblem
  | Time :     0.000 s
  Finished back-transformation of eigenvectors
  | Time :     0.000 s
  Starting ELPA eigensolver
  Finished transformation to standard eigenproblem
  | Time :     0.000 s
  Finished solving standard eigenproblem
  | Time :     0.000 s
  Finished back-transformation of eigenvectors
  | Time :     0.000 s

  Obtaining occupation numbers and electronic chemical potential using ELSI.
  | Note that, for insulating systems, the printed 'chemical potential' value is not uniquely defined.
  | It can be anywhere in the energy gap, as long as it correctly separates occupied and unoccupied states.
  | In systems with a gap, the physically relevant chemical potential is the VBM or HOMO.

  | Chemical potential (Fermi level):    -2.37725322 eV
  Current spin moment of the entire structure :
  | N = N_up - N_down :    1.00
  | S                 :    0.50
  | J                 :    2.00

  Highest occupied state (VBM) at     -2.84706163 eV
  | Occupation number:      1.00000000
  | Spin channel:        1

  Lowest unoccupied state (CBM) at    -1.90744482 eV
  | Occupation number:      0.00000000
  | Spin channel:        2

  Overall HOMO-LUMO gap:      0.93961681 eV.

  Total energy components:
  | Sum of eigenvalues            :         -86.66714438 Ha       -2358.33298911 eV
  | XC energy correction          :         -14.44412204 Ha        -393.04455853 eV
  | XC potential correction       :          18.54653692 Ha         504.67694723 eV
  | Free-atom electrostatic energy:         -80.00768629 Ha       -2177.11991464 eV
  | Hartree energy correction     :          -0.05761992 Ha          -1.56791780 eV
  | Entropy correction            :          -0.00000000 Ha          -0.00000000 eV
  | ---------------------------
  | Total energy                  :        -162.63003571 Ha       -4425.38843286 eV
  | Total energy, T -> 0          :        -162.63003571 Ha       -4425.38843286 eV  <-- do not rely on this value for anything but (periodic) metals
  | Electronic free energy        :        -162.63003571 Ha       -4425.38843286 eV

  Derived energy quantities:
  | Kinetic energy                :         162.60615690 Ha        4424.73865759 eV
  | Electrostatic energy          :        -310.79207057 Ha       -8457.08253191 eV
  | Energy correction for multipole
  | error in Hartree potential    :          -0.00000000 Ha          -0.00000000 eV
  | Sum of eigenvalues per atom                           :       -2358.33298911 eV
  | Total energy (T->0) per atom                          :       -4425.38843286 eV  <-- do not rely on this value for anything but (periodic) metals
  | Electronic free energy per atom                       :       -4425.38843286 eV
  Evaluating new KS density.
  Integration grid: deviation in total charge (<rho> - N_e) =   1.421085E-14
  | <rho_up-rho_dn> = N_up-N_dn =      1.0000; <|rho_up-rho_dn|> =      1.0001

  Self-consistency convergence accuracy:
  | Change of charge/spin density :  0.3575E-05  0.3104E-05
  | Change of unmixed KS charge/spin density :  0.2656E-04  0.3864E-05
  | Change of sum of eigenvalues  :  0.1838E-02 eV
  | Change of total energy        :  0.1548E-08 eV


------------------------------------------------------------
  End self-consistency iteration #     6       :  max(cpu_time)    wall_clock(cpu1)
  | Time for this iteration                     :        0.034 s           0.030 s
  | Charge density update                       :        0.004 s           0.004 s
  | Density mixing                              :        0.018 s           0.013 s
  | Hartree multipole update                    :        0.001 s           0.002 s
  | Hartree multipole summation                 :        0.001 s           0.001 s
  | Integration                                 :        0.009 s           0.009 s
  | Solution of K.-S. eqns.                     :        0.001 s           0.000 s
  | Total energy evaluation                     :        0.000 s           0.000 s

  Partial memory accounting:
  | Current value for overall tracked memory usage:
  |   Minimum:        5.736 MB (on task 3)
  |   Maximum:        5.818 MB (on task 0)
  |   Average:        5.775 MB
  | Peak value for overall tracked memory usage:
  |   Minimum:        5.856 MB (on task 3 after allocating wave)
  |   Maximum:        5.939 MB (on task 0 after allocating wave)
  |   Average:        5.895 MB
  | Largest tracked array allocation so far:
  |   Minimum:        1.879 MB (previous_rho_gradient_diff on task 3)
  |   Maximum:        1.905 MB (previous_rho_gradient_diff on task 0)
  |   Average:        1.891 MB
  Note:  These values currently only include a subset of arrays which are explicitly tracked.
  The "true" memory usage will be greater.
------------------------------------------------------------

------------------------------------------------------------
          Begin self-consistency iteration #    7

  Date     :  20260722, Time     :  145239.688
------------------------------------------------------------
  Pulay mixing of updated and previous charge densities.
  Available memory per node after mixing [GB]:    998.00
  Renormalizing the density to the exact electron count on the 3D integration grid.
  | Formal number of electrons (from input files) :      11.0000000000
  | Integrated number of electrons on 3D grid     :      11.0000000000
  | Charge integration error                      :       0.0000000000
  | Normalization factor for density and gradient :       1.0000000000

  Evaluating partitioned Hartree potential by multipole expansion.
  | Original multipole sum: apparent total charge =   0.299685E-13
  | Sum of charges compensated after spline to logarithmic grids =  -0.894028E-06
  | Analytical far-field extrapolation by fixed multipoles:
  | Hartree multipole sum: apparent total charge =   0.299762E-13
  Summing up the Hartree potential.
  Time summed over all CPUs for potential: real work        0.001 s, elapsed        0.001 s
  | RMS charge density error from multipole expansion :   0.721542E-14

  Integrating Hamiltonian matrix: batch-based integration.
  Time summed over all CPUs for integration: real work        0.035 s, elapsed        0.035 s

  Updating Kohn-Sham eigenvalues and eigenvectors using ELSI and the ELPA eigensolver.
  Starting ELPA eigensolver
  Finished transformation to standard eigenproblem
  | Time :     0.001 s
  Finished solving standard eigenproblem
  | Time :     0.000 s
  Finished back-transformation of eigenvectors
  | Time :     0.000 s
  Starting ELPA eigensolver
  Finished transformation to standard eigenproblem
  | Time :     0.000 s
  Finished solving standard eigenproblem
  | Time :     0.000 s
  Finished back-transformation of eigenvectors
  | Time :     0.000 s

  Obtaining occupation numbers and electronic chemical potential using ELSI.
  | Note that, for insulating systems, the printed 'chemical potential' value is not uniquely defined.
  | It can be anywhere in the energy gap, as long as it correctly separates occupied and unoccupied states.
  | In systems with a gap, the physically relevant chemical potential is the VBM or HOMO.

  | Chemical potential (Fermi level):    -2.37756124 eV
  Current spin moment of the entire structure :
  | N = N_up - N_down :    1.00
  | S                 :    0.50
  | J                 :    2.00

  Highest occupied state (VBM) at     -2.84706756 eV
  | Occupation number:      1.00000000
  | Spin channel:        1

  Lowest unoccupied state (CBM) at    -1.90805492 eV
  | Occupation number:      0.00000000
  | Spin channel:        2

  Overall HOMO-LUMO gap:      0.93901264 eV.

  Total energy components:
  | Sum of eigenvalues            :         -86.66715962 Ha       -2358.33340397 eV
  | XC energy correction          :         -14.44412044 Ha        -393.04451493 eV
  | XC potential correction       :          18.54653482 Ha         504.67689025 eV
  | Free-atom electrostatic energy:         -80.00768629 Ha       -2177.11991464 eV
  | Hartree energy correction     :          -0.05760418 Ha          -1.56748957 eV
  | Entropy correction            :          -0.00000000 Ha          -0.00000000 eV
  | ---------------------------
  | Total energy                  :        -162.63003571 Ha       -4425.38843286 eV
  | Total energy, T -> 0          :        -162.63003571 Ha       -4425.38843286 eV  <-- do not rely on this value for anything but (periodic) metals
  | Electronic free energy        :        -162.63003571 Ha       -4425.38843286 eV

  Derived energy quantities:
  | Kinetic energy                :         162.60614161 Ha        4424.73824147 eV
  | Electrostatic energy          :        -310.79205688 Ha       -8457.08215940 eV
  | Energy correction for multipole
  | error in Hartree potential    :          -0.00000000 Ha          -0.00000000 eV
  | Sum of eigenvalues per atom                           :       -2358.33340397 eV
  | Total energy (T->0) per atom                          :       -4425.38843286 eV  <-- do not rely on this value for anything but (periodic) metals
  | Electronic free energy per atom                       :       -4425.38843286 eV

  Self-consistency convergence accuracy:
  | Change of charge/spin density :  0.1466E-05  0.1639E-05
  | Change of unmixed KS charge/spin density :  0.1589E-05  0.1268E-06
  | Change of sum of eigenvalues  : -0.4149E-03 eV
  | Change of total energy        : -0.8005E-09 eV

  Writing Kohn-Sham eigenvalues.

  Spin-up eigenvalues:

  State    Occupation    Eigenvalue [Ha]    Eigenvalue [eV]
      1       1.00000         -38.078344        -1036.16446
      2       1.00000          -2.071313          -56.36330
      3       1.00000          -1.045672          -28.45417
      4       1.00000          -1.045672          -28.45417
      5       1.00000          -1.045672          -28.45417
      6       1.00000          -0.104628           -2.84707
      7       0.00000          -0.004318           -0.11751
      8       0.00000          -0.004318           -0.11751
      9       0.00000          -0.004318           -0.11751

  Spin-down eigenvalues:

  State    Occupation    Eigenvalue [Ha]    Eigenvalue [eV]
      1       1.00000         -38.076894        -1036.12499
      2       1.00000          -2.069087          -56.30273
      3       1.00000          -1.043293          -28.38945
      4       1.00000          -1.043293          -28.38945
      5       1.00000          -1.043293          -28.38945
      6       0.00000          -0.070120           -1.90805
      7       0.00000           0.029899            0.81361
      8       0.00000           0.029899            0.81361
      9       0.00000           0.029899            0.81361

  Current spin moment of the entire structure :
  | N = N_up - N_down :    1.00
  | S                 :    0.50
  | J                 :    2.00

  Highest occupied state (VBM) at     -2.84706756 eV
  | Occupation number:      1.00000000
  | Spin channel:        1

  Lowest unoccupied state (CBM) at    -1.90805492 eV
  | Occupation number:      0.00000000
  | Spin channel:        2

  Overall HOMO-LUMO gap:      0.93901264 eV.

  | Chemical Potential                          :    -2.37756124 eV
  | Note that, for insulating systems, the printed 'chemical potential' value is not uniquely defined.
  | It can be anywhere in the energy gap, as long as it correctly separates occupied and unoccupied states.
  | In systems with a gap, the physically relevant chemical potential is the VBM or HOMO.

  Self-consistency cycle converged.


------------------------------------------------------------
  End self-consistency iteration #     7       :  max(cpu_time)    wall_clock(cpu1)
  | Time for this iteration                     :        0.032 s           0.016 s
  | Charge density update                       :        0.000 s           0.000 s
  | Density mixing                              :        0.021 s           0.005 s
  | Hartree multipole update                    :        0.001 s           0.001 s
  | Hartree multipole summation                 :        0.001 s           0.001 s
  | Integration                                 :        0.009 s           0.008 s
  | Solution of K.-S. eqns.                     :        0.001 s           0.001 s
  | Total energy evaluation                     :        0.000 s           0.000 s

  Partial memory accounting:
  | Current value for overall tracked memory usage:
  |   Minimum:        5.736 MB (on task 3)
  |   Maximum:        5.818 MB (on task 0)
  |   Average:        5.775 MB
  | Peak value for overall tracked memory usage:
  |   Minimum:        5.856 MB (on task 3 after allocating wave)
  |   Maximum:        5.939 MB (on task 0 after allocating wave)
  |   Average:        5.895 MB
  | Largest tracked array allocation so far:
  |   Minimum:        1.879 MB (previous_rho_gradient_diff on task 3)
  |   Maximum:        1.905 MB (previous_rho_gradient_diff on task 0)
  |   Average:        1.891 MB
  Note:  These values currently only include a subset of arrays which are explicitly tracked.
  The "true" memory usage will be greater.
------------------------------------------------------------

  Energy and forces in a compact form:
  | Total energy uncorrected      :         -0.442538843285702E+04 eV
  | Total energy corrected        :         -0.442538843285702E+04 eV  <-- do not rely on this value for anything but (periodic) metals
  | Electronic free energy        :         -0.442538843285702E+04 eV

  ------------------------------------ 
  Start decomposition of the XC Energy 
  ------------------------------------ 
  X and C from original XC functional choice 
  Hartree-Fock Energy :          0.000000000 Ha              0.000000000 eV
  X Energy            :        -14.034352503 Ha           -381.894162165 eV
  C Energy            :         -0.409767932 Ha            -11.150352761 eV
  XC Energy w/o HF    :        -14.444120435 Ha           -393.044514925 eV
  Total XC Energy     :        -14.444120435 Ha           -393.044514925 eV
  ------------------------------------ 
  LDA X and C from self-consistent density 
  X Energy LDA        :        -12.787611363 Ha           -347.968609643 eV
  C Energy LDA        :         -0.801213777 Ha            -21.802136149 eV
  ------------------------------------ 
  End decomposition of the XC Energy 
  ------------------------------------ 

------------------------------------------------------------

------------------------------------------------------------------------------
  Final output of selected total energy values:

  The following output summarizes some interesting total energy values
  at the end of a run (AFTER all relaxation, molecular dynamics, etc.).

  | Total energy of the DFT / Hartree-Fock s.c.f. calculation      :          -4425.388432857 eV
  | Final zero-broadening corrected energy (caution - metals only) :          -4425.388432857 eV
  | For reference only, the value of 1 Hartree used in FHI-aims is :             27.211384500 eV

  Before relying on these values, please be sure to understand exactly which
  total energy value is referred to by a given number. Different objects may
  all carry the same name 'total energy'. Definitions:

  Total energy of the DFT / Hartree-Fock s.c.f. calculation:
  | Note that this energy does not include ANY quantities calculated after the
  | s.c.f. cycle, in particular not ANY RPA, MP2, etc. many-body perturbation terms.

  Final zero-broadening corrected energy:
  | For metallic systems only, a broadening of the occupation numbers at the Fermi
  | level can be extrapolated back to zero broadening by an electron-gas inspired
  | formula. For all systems that are not real metals, this value can be
  | meaningless and should be avoided.

------------------------------------------------------------------------------
  Methods described in the following list of references were used in this FHI-aims run.
  If you publish the results, please make sure to cite these reference if they apply.
  FHI-aims is an academic code, and for our developers (often, Ph.D. students
  and postdocs), scientific credit in the community is essential.
  Thank you for helping us!

  For any use of FHI-aims, please cite:

    Volker Blum, Ralf Gehrke, Felix Hanke, Paula Havu, Ville Havu,
    Xinguo Ren, Karsten Reuter, and Matthias Scheffler
    'Ab initio molecular simulations with numeric atom-centered orbitals'
    Computer Physics Communications 180, 2175-2196 (2009)
    http://doi.org/10.1016/j.cpc.2009.06.022


  The ELSI infrastructure was used in your run to solve the Kohn-Sham electronic structure.
  Please check out https://wordpress.elsi-interchange.org to learn more.
  If scalability is important for your project, please acknowledge ELSI by citing:

    V. W-z. Yu, F. Corsetti, A. Garcia, W. P. Huhn, M. Jacquelin, W. Jia,
    B. Lange, L. Lin, J. Lu, W. Mi, A. Seifitokaldani, A. Vazquez-Mayagoitia,
    C. Yang, H. Yang, and V. Blum
    'ELSI: A unified software interface for Kohn-Sham electronic structure solvers'
    Computer Physics Communications 222, 267-285 (2018).
    http://doi.org/10.1016/j.cpc.2017.09.007


  For the real-space grid partitioning and parallelization used in this calculation, please cite:

    Ville Havu, Volker Blum, Paula Havu, and Matthias Scheffler,
    'Efficient O(N) integration for all-electron electronic structure calculation'
    'using numerically tabulated basis functions'
    Journal of Computational Physics 228, 8367-8379 (2009).
    http://doi.org/10.1016/j.jcp.2009.08.008

  Of course, there are many other important community references, e.g., those cited in the
  above references. Our list is limited to references that describe implementations in the
  FHI-aims code. The reason is purely practical (length of this list) - please credit others as well.
------------------------------------------------------------
Warnings summary:

At least    1 warnings were raised during execution.

------------------------------------------------------------
          Leaving FHI-aims.
          Date     :  20260722, Time     :  145239.742

          Computational steps:
          | Number of self-consistency cycles          :            7
          | Number of SCF (re)initializations          :            1

          Detailed time accounting                     :  max(cpu_time)    wall_clock(cpu1)
          | Total time                                  :        0.367 s           0.600 s
          | Preparation time                            :        0.102 s           0.102 s
          | Boundary condition initalization            :        0.001 s           0.001 s
          | Grid partitioning                           :        0.005 s           0.006 s
          | Preloading free-atom quantities on grid     :        0.006 s           0.006 s
          | Free-atom superposition energy              :        0.005 s           0.005 s
          | Total time for integrations                 :        0.073 s           0.072 s
          | Total time for solution of K.-S. equations  :        0.009 s           0.009 s
          | Total time for density update               :        0.032 s           0.032 s
          | Total time for mixing                       :        0.103 s           0.054 s
          | Total time for Hartree multipole update     :        0.007 s           0.008 s
          | Total time for Hartree multipole sum        :        0.011 s           0.009 s
          | Total time for total energy evaluation      :        0.001 s           0.000 s
          | Total time for scaled ZORA corrections      :        0.000 s           0.000 s

          Partial memory accounting:
          | Residual value for overall tracked memory usage across tasks:     0.000000 MB (should be 0.000000 MB)
          | Peak values for overall tracked memory usage:
          |   Minimum:        5.856 MB (on task 3 after allocating wave)
          |   Maximum:        5.939 MB (on task 0 after allocating wave)
          |   Average:        5.895 MB
          | Largest tracked array allocation:
          |   Minimum:        1.879 MB (previous_rho_gradient_diff on task 3)
          |   Maximum:        1.905 MB (previous_rho_gradient_diff on task 0)
          |   Average:        1.891 MB
          Note:  These values currently only include a subset of arrays which are explicitly tracked.
          The "true" memory usage will be greater.

          Have a nice day.
------------------------------------------------------------
