------------------------------------------------------------
          Invoking FHI-aims ...

          When using FHI-aims, please cite the following reference:

            Volker Blum, Ralf Gehrke, Felix Hanke, Paula Havu,
            Ville Havu, Xinguo Ren, Karsten Reuter, and Matthias Scheffler,
            'Ab Initio Molecular Simulations with Numeric Atom-Centered Orbitals',
            Computer Physics Communications 180, 2175-2196 (2009)

          In addition, many other developments in FHI-aims are likely important for
          your particular application. If so, please cite them. A partial list of references
          is written at the end of this file. Thank you for giving credit to the authors
          of these developments.

          For general information about FHI-aims please find us at

            https://fhi-aims.org

          Online tutorials can be found at

            https://fhi-aims-club.gitlab.io/tutorials/tutorials-overview/

          For any questions about FHI-aims, please visit our slack channel at

            https://fhi-aims.slack.com

          and our main development and support site at

            https://aims-git.rz-berlin.mpg.de .

          The latter site, in particular, has a wiki to collect information, as well
          as an issue tracker to log discussions, suggest improvements, and report issues
          or bugs. https://aims-git.rz-berlin.mpg.de is also the main development site
          of the project and all new and updated code versions can be obtained there.
          Please send an email to aims-coordinators@ms1p.org and we will add
          you to these sites. They are for you and everyone is welcome there.

------------------------------------------------------------



  Date     :  20260722, Time     :  145239.777
  Time zero on CPU 1             :   0.184928000000000E+00  s.
  Internal wall clock time zero  :           553963959.777  s.

  FHI-aims created a unique identifier for this run for later identification
  aims_uuid : C8B6A354-638D-40C5-A8B2-88847863042C

  Build configuration of the current instance of FHI-aims
  -------------------------------------------------------
  FHI-aims version      : 260331
  Commit number         : GITDIR-NOTFOUND
  CMake host system     : Linux-4.18.0-553.97.1.el8_10.x86_64
  CMake version         : 3.31.6
  OS Distribution       : Rocky Linux 8.10 (Green Obsidian)
  Built on              : Intel(R) Xeon(R) w5-3435X
  Fortran compiler      : /mnt/sw/nix/store/pa59vldasm7gxpr7dkijhk09q5qq63q1-openmpi-4.1.8/bin/mpifort (GNU) version 13.3.0
  Fortran compiler flags: -O2 -fallow-argument-mismatch -ffree-line-length-none
  C compiler            : /mnt/sw/nix/store/pa59vldasm7gxpr7dkijhk09q5qq63q1-openmpi-4.1.8/bin/mpicc (GNU) version 13.3.0
  C compiler flags      : -O2
  C++ compiler          : /mnt/sw/nix/store/pa59vldasm7gxpr7dkijhk09q5qq63q1-openmpi-4.1.8/bin/mpicxx (GNU) version 13.3.0
  C++ compiler flags    : -O2
  HIP compiler          :
  HIP compiler flags    :
  HIP GPU arch          :
  Using MPI
  Using ScaLAPACK
  Using LibXC
  Using i-PI
  Using RLSY
  Using GREENX
  Linking against: /mnt/sw/nix/store/dwd607jzx9m5bdd100br72s3b6g05zrf-intel-oneapi-mkl-2024.2.2/mkl/2024.2/lib/libmkl_intel_lp64.so
                   /mnt/sw/nix/store/dwd607jzx9m5bdd100br72s3b6g05zrf-intel-oneapi-mkl-2024.2.2/mkl/2024.2/lib/libmkl_sequential.so
                   /mnt/sw/nix/store/dwd607jzx9m5bdd100br72s3b6g05zrf-intel-oneapi-mkl-2024.2.2/mkl/2024.2/lib/libmkl_core.so
                   /mnt/sw/nix/store/dwd607jzx9m5bdd100br72s3b6g05zrf-intel-oneapi-mkl-2024.2.2/mkl/2024.2/lib/libmkl_blacs_openmpi_lp64.so
                   /mnt/sw/nix/store/dwd607jzx9m5bdd100br72s3b6g05zrf-intel-oneapi-mkl-2024.2.2/mkl/2024.2/lib/libmkl_scalapack_lp64.so

  Using        4 parallel tasks.
  Task        0 on host worker6156 reporting.
  Task        1 on host worker6156 reporting.
  Task        2 on host worker6156 reporting.
  Task        3 on host worker6156 reporting.

  Obtaining array dimensions for all initial allocations:
  
  -----------------------------------------------------------------------
  Parsing control.in (first pass over file, find array dimensions only).
  The contents of control.in will be repeated verbatim below
  unless switched off by setting 'verbatim_writeout .false.' .
  in the first line of control.in .
  -----------------------------------------------------------------------
  
  override_warning_libxc             True
  xc                                 blyp
  spin                               collinear
  charge                             0
  relativistic                       atomic_zora scalar
  atomic_solver_xc                   pbe
  ionic_solver_xc                    pbe
  
  occupation_type                    gaussian 0.0000001
  
  sc_accuracy_rho                    1e-05
  sc_accuracy_eev                    1e-03
  sc_accuracy_etot                   1e-06
  
  charge_mix_param                   0.1
  n_max_pulay                        8
  occupation_acc                     1e-9
  max_zeroin                         20000
  
  default_initial_moment             3.0
  
  
  # ============================================================
  # Tight species defaults for P: 15_P_default
  # ============================================================
  ################################################################################
  #
  #  FHI-aims code project
  #  Volker Blum, Fritz Haber Institute Berlin, 2010
  #
  #  Suggested "tight" defaults for P atom (to be pasted into control.in file)
  #
  #  Revised Jan 04, 2011, following tests (SiC) done by Lydia Nemec:
  #     d function of tier 2 now enabled by default.
  #
  ################################################################################
    species        P
  #     global species definitions
      nucleus             15
      mass                30.973762
  #
      l_hartree           6
  #
      cut_pot             4.0          2.0  1.0
      basis_dep_cutoff    1e-4
  #
      radial_base         43 7.0
      radial_multiplier   2
      angular_grids       specified
        division   0.2995   50
        division   0.5998  110
        division   0.9240  194
        division   1.0921  302
        division   1.2863  434
  #      division   1.3165  590
  #      division   1.4113  770
  #      division   1.5128  974
  #      division   2.4980 1202
        outer_grid  434
  ################################################################################
  #
  #  Definition of "minimal" basis
  #
  ################################################################################
  #     valence basis states
      valence      3  s   2.
      valence      3  p   3.
  #     ion occupancy
      ion_occ      3  s   1.
      ion_occ      3  p   2.
  ################################################################################
  #
  #  Suggested additional basis functions. For production calculations,
  #  uncomment them one after another (the most important basis functions are
  #  listed first).
  #
  #  Constructed for dimers: 1.625 A, 1.875 A, 2.5 A, 3.25 A, 4.0 A
  #
  ################################################################################
  #  "First tier" - improvements: -726.20 meV to -35.91 meV
       ionic 3 d auto
       ionic 3 p auto
       hydro 4 f 6.2
       hydro 5 g 8.6
       ionic 3 s auto
  #  "Second tier" - improvements: -16.02 meV to -1.71 meV
       hydro 4 d 6.2
  #     hydro 4 p 9.2
  #     hydro 5 f 9.8
  #     hydro 1 s 0.7
  #     hydro 5 g 13.2
  #  "Third tier" - improvements: -1.82 meV to -0.20 meV
  #     hydro 3 p 2.5
  #     hydro 4 d 6.4
  #     hydro 5 f 11.2
  #     hydro 2 s 1.5
  #  "Fourth tier" - improvements: -0.91 meV to -0.17 meV
  #     hydro 3 d 16.8
  #     hydro 5 g 18
  #     hydro 4 p 4.5
  #     hydro 3 s 2.1
  #  Further basis functions that fell out of the optimization - < -0.09 meV
  #     hydro 4 p 10.4
  #     hydro 4 d 17.6
  #     hydro 4 s 11.2
  ################################################################################
  #
  # For methods that use the localized form of the "resolution of identity" for
  # the two-electron Coulomb operator (RI_method LVL), particularly Hartree-Fock and
  # hybrid density functional calculations, the highest accuracy can be obtained by
  # uncommenting the line beginning with "for_aux"  below, thus adding an extra g radial
  # function to the construction of the product basis set for the expansion.
  # See Ref. New J. Phys. 17, 093020 (2015) for more information, particularly Figs. 1 and 6.
  #
  ################################################################################
  #
  # for_aux hydro 5 g 6.0
  
  -----------------------------------------------------------------------
  Completed first pass over input file control.in .
  -----------------------------------------------------------------------
  
  
  -----------------------------------------------------------------------
  Parsing geometry.in (first pass over file, find array dimensions only).
  The contents of geometry.in will be repeated verbatim below
  unless switched off by setting 'verbatim_writeout .false.' .
  in the first line of geometry.in .
  -----------------------------------------------------------------------
  
  atom 0.0000000000 0.0000000000 0.0000000000 P
  
  -----------------------------------------------------------------------
  Completed first pass over input file geometry.in .
  -----------------------------------------------------------------------
  

  Basic array size parameters:
  | Number of species                 :        1
  | Number of atoms                   :        1
  | Max. basis fn. angular momentum   :        4
  | Max. atomic/ionic basis occupied n:        3
  | Max. number of basis fn. types    :        3
  | Max. radial fns per species/type  :        5
  | Max. logarithmic grid size        :     1352
  | Max. radial integration grid size :       87
  | Max. angular integration grid size:      434
  | Max. angular grid division number :        8
  | Radial grid for Hartree potential :     1352
  | Number of spin channels           :        2

  Definition of standardized fundamental physical constants in this FHI-aims run:
  | Using the set of values used in FHI-aims up to 2024, which combines values from
  | different CODATA sets - see constants.f90.
  | Use the 'codata' keyword in control.in to change this selection.

  Memory overcommitment is allowed on your operating system.

------------------------------------------------------------
          Reading file control.in.
------------------------------------------------------------
  XC: Using BLYP gradient-corrected functional.
  Spin treatment: Spin density functional theory - collinear spins.
  Charge =   0.000000E+00: Neutral system requested explicitly.
  Scalar relativistic treatment of kinetic energy: on-site free-atom approximation to ZORA.
  Atomic Solver XC: Using user-defined functional for generating the minimal NAO basis functions.
  Note that only the following functionals are available: kli, pz-lda, pw-lda, vwn, vwn-gauss, pw91_gga, pbe, rpbe, revpbe, pbeint, pbesol, blyp.
  Ionic Solver XC: Using user-defined functional for generating the minimal NAO basis functions.
  Note that only the following functionals are available: kli, pz-lda, pw-lda, vwn, vwn-gauss, pw91_gga, pbe, rpbe, revpbe, pbeint, pbesol, blyp.
  Occupation type: Gaussian broadening, width =   0.100000E-06 eV.
  Convergence accuracy of self-consistent charge density:  0.1000E-04
  Convergence accuracy of sum of eigenvalues:  0.1000E-02
  Convergence accuracy of total energy:  0.1000E-05
  Charge density mixing - mixing parameter:     0.1000
  Pulay mixing - number of memorized iterations:    8
  Accuracy of occupation numbers  :  0.1000E-08
  Maximum # of zeroin steps  : ****
  Initial spin moment per atom:   3.0000

  Reading configuration options for species P                   .
  | Found nuclear charge :  15.0000
  | Found atomic mass :    30.973762000000001      amu
  | Found l_max for Hartree potential  :   6
  | Found cutoff potl. onset [A], width [A], scale factor :    4.00000    2.00000    1.00000
  | Threshold for basis-dependent cutoff potential is   0.100000E-03
  | Found data for basic radial integration grid :    43 points, outermost radius =    7.000 A
  | Found multiplier for basic radial grid :   2
  | Found angular grid specification: user-specified.
  | Specified grid contains     6 separate shells.
  | Check grid settings after all constraints further below.
  | Found free-atom valence shell :  3 s   2.000
  | Found free-atom valence shell :  3 p   3.000
  | Found free-ion valence shell :  3 s   1.000
  | Found free-ion valence shell :  3 p   2.000
  | Found ionic basis function :  3 d , default cutoff radius.
  | Found ionic basis function :  3 p , default cutoff radius.
  | Found hydrogenic basis function :  4 f   6.200
  | Found hydrogenic basis function :  5 g   8.600
  | Found ionic basis function :  3 s , default cutoff radius.
  | Found hydrogenic basis function :  4 d   6.200
  Species P                   : Missing cutoff potential type.
  Defaulting to exp(1/x)/(1-x)^2 type cutoff potential.
  Species P : No 'logarithmic' tag. Using default grid for free atom:
  | Default logarithmic grid data [bohr] : 0.1000E-03 0.1000E+03 0.1012E+01
  | Will include ionic basis functions of  2.0-fold positive P                    ion.
  Species P : On-site basis accuracy parameter (for Gram-Schmidt orthonormalisation) not specified.
  Using default value basis_acc =  0.1000000E-03.
  Species P                   : Using default innermost maximum threshold i_radial=  2 for radial functions.
  Species P                   : Default cutoff onset for free atom density etc. : 0.40000000E+01 AA.
  Species P                   : Basic radial grid will be enhanced according to radial_multiplier =   2, to contain    87 grid points.

  Finished reading input file 'control.in'.

------------------------------------------------------------


------------------------------------------------------------
          Reading geometry description geometry.in.
------------------------------------------------------------
  | Isolated single atom, no quantum-mechanical atoms close by.
  Input structure read successfully.
  The structure contains        1 atoms,  and a total of         15.000 electrons.

  Input geometry:
  | No unit cell requested.
  | Atomic structure:
  |       Atom                x [A]            y [A]            z [A]
  |    1: Species P             0.00000000        0.00000000        0.00000000

  Initial moments and charges:
  |  Atom   Moment         Charge        Species
  |     1   0.300000E+01   0.000000E+00   P

  Slab Identifier: This is not a periodic structure.

  Finished reading input file 'geometry.in'.



  Consistency checks for stacksize environment parameter are next.

  | Maximum stacksize for task 0: unlimited
  | Maximum stacksize for task 1: unlimited
  | Maximum stacksize for task 2: unlimited
  | Maximum stacksize for task 3: unlimited
  | Current stacksize for task 0: unlimited
  | Current stacksize for task 1: unlimited
  | Current stacksize for task 2: unlimited
  | Current stacksize for task 3: unlimited

  Consistency checks for the contents of control.in are next.

  MPI_IN_PLACE appears to work with this MPI implementation.
  | Keeping use_mpi_in_place .true. (see manual).
  Target number of points in a grid batch is not set. Defaulting to  100
  Method for grid partitioning is not set. Defaulting to parallel hash+maxmin partitioning.
  Batch size limit is not set. Defaulting to    200
  By default, will store active basis functions for each batch.
  If in need of memory, prune_basis_once .false. can be used to disable this option.
  communication_type for Hartree potential was not specified.
  Defaulting to calc_hartree .
  Defaulting to Pulay charge density mixer.
  Pulay mixer: Number of initial linear mixing iterations not set.
  Defaulting to    0 iterations.
  Work space size for distributed Hartree potential not set.
  Defaulting to   0.200000E+03 MB.
  Mixing parameter for spin density mixing has not been set.
  Using charge_mix_param as default:     0.1000.
  Algorithm-dependent basis array size parameters:
  | n_max_pulay                         :        8
  Maximum number of self-consistency iterations not provided.
  Presetting  1000 iterations.
  Presetting      1001 iterations before the initial mixing cycle
  is restarted anyway using the sc_init_iter criterion / keyword.
  Presetting a factor      1.000 between actual scf density residual
  and density convergence criterion sc_accuracy_rho below which sc_init_iter
  takes no effect.
  Calculation of forces was not defined in control.in. No forces will be calculated.
  Geometry relaxation not requested: no relaxation will be performed.
  No accuracy limit for integral partition fn. given. Defaulting to  0.1000E-14.
  No threshold value for u(r) in integrations given. Defaulting to  0.1000E-05.
  No threshold value for occupation numbers given. Defaulting to  0.0000E+00.
  No accuracy for fermi level given. Defaulting to  0.1000E-19.
  Preferred method for the eigenvalue solver ('KS_method') not specified in 'control.in'.
  Calling BLACS routine to test compilation state
  Since ScaLAPACK support is enabled, defaulting to ELPA (via ELSI).
  Threshold for basis singularities not set.
  Default threshold for basis singularities:  0.1000E-04
  partition_type (choice of integration weights) for integrals was not specified.
  | Using a version of the partition function of Stratmann and coworkers ('stratmann_sparse').
  | At each grid point, the set of atoms used to build the partition table is smoothly restricted to
  | only those atoms whose free-atom density would be non-zero at that grid point.
  Partitioning for Hartree potential was not defined. Using partition_type for integrals.
  | Adjusted default value of keyword multip_moments_threshold to:       0.10000000E-11
  | This value may affect high angular momentum components of the Hartree potential in periodic systems.
  No q(lm)/r^(l+1) cutoff set for long-range Hartree potential.
  | Using default value of  0.100000E-09 .
  | Verify using the multipole_threshold keyword.
  Defaulting to new monopole extrapolation.
  Density update method: automatic selection selected.
  Charge integration errors on the 3D integration grid will be compensated
  by explicit normalization and distribution of residual charges.
  Use the "compensate_multipole_errors" flag to change this behaviour.
  Set 'collect_eigenvectors' to be '.true.' for use_density_matrix .false.
  Found potential conflicts with setting 'use_local_index' for this calculation. Will not set it.

  Consistency checks for the contents of geometry.in are next.

  Number of empty states per atom not set in control.in - providing a guess from actual geometry.
  | Total number of empty states used during s.c.f. cycle:        3
  If you use a very high smearing, use empty_states (per atom!) in control.in to increase this value.

  Structure-dependent array size parameters: 
  | Number of distinct atom types in initial rho :        1
  | Maximum number of distinct radial functions  :       11
  | Maximum number of basis functions            :       39
  | Number of Kohn-Sham states (occupied + empty):       11
------------------------------------------------------------
  After read_input_data [GB]:   1010.79

  Performing system and environment tests:
  | Environment variable OMP_NUM_THREADS correctly set to 1.
  | Checking for ScaLAPACK...
  | Testing pdtran()...
  | All pdtran() tests passed.
  | Testing CPU compatibility for run-time vs. build-time.
  | Reading /proc/cpuinfo for CPU information ...
  | Built for  : Intel(R) Xeon(R) w5-3435X
  *** WARNING: CPU mismatch detected for Node worker6156 : Intel(R) Xeon(R) Platinum 8362 CPU @ 2.80GHz                                                 
** WARNING:
  | WARNING: This FHI-aims executable was built on a different
  CPU type than the CPUs used in this run.

  | Running on different hardware than that on which a code was compiled
  | can produce incorrect results (wrong numbers) due to architecture-specific
  | optimizations made by the compiler. Those wrong numbers may occur only spuriously.
  | They are therefore very difficult to rule out even by tests ahead of time.

** END OF WARNING
  | Running on : Intel(R) Xeon(R) Platinum 8362 CPU @ 2.80GHz
  | Runtime CPU compatibility verified.
  
  After prepare_system [GB]:   1010.77

------------------------------------------------------------
          Preparing all fixed parts of the calculation.
------------------------------------------------------------
  Determining machine precision:
     2.2250738585072014E-308
  Setting up grids for atomic and cluster calculations.

  Creating wave function, potential, and density for free atoms.
  Runtime choices for atomic solver:
  | atomic solver xc        : PBE
  | compute density gradient: 1
  | compute kinetic density : F

  Species: P

  List of occupied orbitals and eigenvalues:
    n    l              occ      energy [Ha]    energy [eV]
    1    0           2.0000       -76.790257     -2089.5692
    2    0           2.0000        -6.393895      -173.9867
    3    0           2.0000        -0.512112       -13.9353
    2    1           6.0000        -4.574086      -124.4672
    3    1           3.0000        -0.201148        -5.4735

  Spin-polarized or charged system:
  Charge density initialized according to selected moments and charges.

  Creating spin-polarized density from free atoms.

  Species: P
  Charge:   0.000000
  Moment:   3.000000

  List of occupied orbitals and eigenvalues:
    n    l      energy [Ha]    energy [eV]    occupation
  Spin-up
    1    0       -76.812122     -2090.1642     1.00000000
    2    0        -6.366001      -173.2277     1.00000000
    3    0        -0.529871       -14.4185     1.00000000
    2    1        -4.555993      -123.9749     3.00000000
    3    1        -0.216071        -5.8796     3.00000000
  Spin-down
    1    0       -76.800185     -2089.8394     1.00000000
    2    0        -6.353973      -172.9004     1.00000000
    3    0        -0.433667       -11.8007     1.00000000
    2    1        -4.539674      -123.5308     3.00000000
    3    1        -0.129385        -3.5207     0.00000000


  Adding cutoff potential to free-atom effective potential.
  Creating fixed part of basis set: Ionic, confined, hydrogenic.

  P                    ion:
  Runtime choices for ionic solver:
  | ionic solver xc        : PBE

  List of free ionic orbitals and eigenvalues:
    n    l      energy [Ha]    energy [eV]
    1    0       -77.734373     -2115.2599
    2    0        -7.310959      -198.9413
    3    0        -1.271460       -34.5982
    2    1        -5.492730      -149.4648
    3    1        -0.913468       -24.8567


  List of ionic basis orbitals and eigenvalues:
    n    l      energy [Ha]    energy [eV]    outer radius [A]
    3    2        -0.457450       -12.4478       5.404780
    3    1        -0.913460       -24.8565       4.724723
    3    0        -1.271453       -34.5980       4.232463


  P                    hydrogenic:

  List of hydrogenic basis orbitals: 
    n    l      effective z      eigenvalue [eV]  inner max. [A]     outer max. [A]     outer radius [A]   
    4    3         6.200000       -32.6870           1.357793           1.357793           5.339109
    5    4         8.600000       -40.2502           1.534356           1.534356           5.404780
    4    2         6.200000       -32.6848           0.577014           1.820771           5.404780

  Creating atomic-like basis functions for current effective potential.

  Species P                   :

  List of atomic basis orbitals and eigenvalues:
    n    l      energy [Ha]    energy [eV]    outer radius [A]
    1    0       -76.790257     -2089.5692       0.727884
    2    0        -6.393895      -173.9867       2.532824
    3    0        -0.512112       -13.9353       5.274236
    2    1        -4.574086      -124.4672       2.862183
    3    1        -0.201148        -5.4735       5.404780

  Assembling full basis from fixed parts.
  | Species P :   atomic orbital   1 s accepted.
  | Species P :   atomic orbital   2 s accepted.
  | Species P :    ionic orbital   3 s accepted.
  | Species P :   atomic orbital   3 s accepted.
  | Species P :   atomic orbital   2 p accepted.
  | Species P :    ionic orbital   3 p accepted.
  | Species P :   atomic orbital   3 p accepted.
  | Species P :    ionic orbital   3 d accepted.
  | Species P :    hydro orbital   4 d accepted.
  | Species P :    hydro orbital   4 f accepted.
  | Species P :    hydro orbital   5 g accepted.

  Basis size parameters after reduction:
  | Total number of radial functions:       11
  | Total number of basis functions :       39

  Per-task memory consumption for arrays in subroutine allocate_ext:
  |           3.808716MB.
  Testing on-site integration grid accuracy.
  |  Species  Function  <phi|h_atom|phi> (log., in eV)  <phi|h_atom|phi> (rad., in eV)
           1        1              -2089.5691986335              -2089.5691596863
           1        2               -173.9867283695               -173.9867277557
           1        3                -13.6361081844                -13.6361080848
           1        4                  6.3196202277                  6.3196248730
           1        5               -124.4672117337               -124.4672115736
           1        6                 -4.8326310060                 -4.8326301332
           1        7                  5.8128667531                  5.8123810283
           1        8                  5.1351171633                  5.1350933795
           1        9                 22.1926334062                 22.1926306446
           1       10                 19.3185135835                 19.3185098349
           1       11                 30.3333552813                 30.3333505659

  Preparing densities etc. for the partition functions (integrals / Hartree potential).

  Preparations completed.
  max(cpu_time)          :      0.182 s.
  Wall clock time (cpu1) :      0.182 s.
------------------------------------------------------------
  After prepare_scf [GB]:   1010.68

  Initializing index lists of integration centers etc. from given atomic structure:
  | Number of centers in hartree potential                       :         1
  | Number of centers in hartree multipole                       :         1
  | Number of centers in electron density summation              :         1
  | Number of centers in basis integrals                         :         1
  | Number of centers in integrals                               :         1
  | Number of centers in hamiltonian                             :         1
  | Number of centers in partition table from touching 0-cell    :         1
  | Number of centers in partition table total                   :         1
  After initialize_bc_dependent_lists [GB]:   1010.68

------------------------------------------------------------
          Begin self-consistency loop: Initialization.

          Date     :  20260722, Time     :  145240.009
------------------------------------------------------------
  Available memory per node after initialize_hartree_non_periodic_ewald [GB]:   1010.68
  Available memory per node after initialize_recip_hartree_potential [GB]:   1010.68
  * Using 4 tasks for Scalapack Eigenvalue solver.
  Detailed listing of tasks and assigned k-points:
  (for non-periodic systems, the "k-point" denotes an internal label only)
   Task     0 k-point     1 on worker6156
   Task     1 k-point     1 on worker6156
   Task     2 k-point     1 on worker6156
   Task     3 k-point     1 on worker6156
  Tasks:     4 split into      2 X      2 BLACS grid
  Calculating block size based on n_basis =           39  max_nprow =            2  max_npcol =            2
  ScaLAPACK block size set to:           16
  Allocating        0.004 MB for ovlp
  Allocating        0.008 MB for ham
  Allocating        0.008 MB for eigenvec
  Required Scalapack workspace - INTEGER:            1  REAL:             1
  Available memory per node after initialize_scalapack [GB]:   1010.68
  Available memory per node after aims_elsi_init_scf [GB]:   1010.68
  Available memory per node after initialize_fixed_grids [GB]:   1010.68
  Partitioning the integration grid into batches with parallel hashing+maxmin method.
  | Number of batches:      256
  | Maximal batch size:      91
  | Minimal batch size:      61
  | Average batch size:      77.086
  | Standard deviation of batch sizes:       8.028

  Integration load balanced across     4 MPI tasks.
  Work distribution over tasks is as follows:
  Task     0 has       4898 integration points.
  Task     1 has       4933 integration points.
  Task     2 has       4933 integration points.
  Task     3 has       4970 integration points.
  Available memory per node after partition_grid [GB]:   1010.68
  Initializing partition tables, free-atom densities, potentials, etc. across the integration grid (initialize_grid_storage).
  | initialize_grid_storage: Actual outermost partition radius vs. multipole_radius_free
  | (-- VB: in principle, multipole_radius_free should be larger, hence this output)
  | Species        1: Confinement radius =              6.000000000000000 AA, multipole_radius_free =              6.033387558927091 AA.
  | Species        1: outer_partition_radius set to              6.033387558927091 AA .
  | The sparse table of interatomic distances needs          0.01 kbyte instead of         0.01 kbyte of memory.
  | Net number of integration points:    19734
  | of which are non-zero points    :    19734
  Available memory per node after initialize_grid_storage_p1 [GB]:   1010.68
  Renormalizing the initial density to the exact electron count on the 3D integration grid.
  | Initial density: Formal number of electrons (from input files) :      15.0000000000
  | Integrated number of electrons on 3D grid     :      14.9999997841
  | Charge integration error                      :      -0.0000002159
  | Normalization factor for density and gradient :       1.0000000144
  Renormalizing the free-atom superposition density to the exact electron count on the 3D integration grid.
  | Formal number of electrons (from input files) :      15.0000000000
  | Integrated number of electrons on 3D grid     :      14.9999997476
  | Charge integration error                      :      -0.0000002524
  | Normalization factor for density and gradient :       1.0000000168
  Obtaining max. number of non-zero basis functions in each batch (get_n_compute_maxes).
  | Maximal number of non-zero basis functions:       39 in task     0
  | Maximal number of non-zero basis functions:       39 in task     1
  | Maximal number of non-zero basis functions:       39 in task     2
  | Maximal number of non-zero basis functions:       39 in task     3
  Selecting the method for density update.
  Loop over occupied states selected for charge density update.
  Available memory per node after get_n_compute_maxes_p1 [GB]:   1010.68
  Initialize hartree_potential_storage
  Max. number of atoms included in rho_multipole:            1

  Evaluating partitioned Hartree potential by multipole expansion.
  | Original multipole sum: apparent total charge =   0.348257E-13
  | Sum of charges compensated after spline to logarithmic grids =   0.946431E-07
  | Analytical far-field extrapolation by fixed multipoles:
  | Hartree multipole sum: apparent total charge =   0.348071E-13
  Summing up the Hartree potential.
  Time summed over all CPUs for potential: real work        0.001 s, elapsed        0.001 s
  | RMS charge density error from multipole expansion :   0.190503E-15

  Allocating        0.007 MB for KS_eigenvector
  Available memory per node after allocate_matrices [GB]:   1010.68
  Available memory per node after init_comm_sparse_local_matrix_scalapack [GB]:   1010.68
  Integrating Hamiltonian matrix: batch-based integration.
  Time summed over all CPUs for integration: real work        0.035 s, elapsed        0.036 s
  Available memory per node after integrate hamiltonian matrix [GB]:   1010.68
  Integrating overlap matrix.
  Time summed over all CPUs for integration: real work        0.007 s, elapsed        0.008 s
  Available memory per node after integrate ovlp matrix [GB]:   1010.67
  Deallocating overlap matrix.
  Available memory per node after save_overlap_scalapack [GB]:   1010.67

  Updating Kohn-Sham eigenvalues and eigenvectors using ELSI and the ELPA eigensolver.
  Overlap matrix is not singular
  | Lowest and highest eigenvalues :  0.1000E+01,  0.1000E+01
  Finished singularity check of overlap matrix
  | Time :     0.001 s
  Starting ELPA eigensolver
  Finished Cholesky decomposition
  | Time :     0.000 s
  Finished transformation to standard eigenproblem
  | Time :     0.001 s
  Finished solving standard eigenproblem
  | Time :     0.000 s
  Finished back-transformation of eigenvectors
  | Time :     0.000 s
  Starting ELPA eigensolver
  Finished transformation to standard eigenproblem
  | Time :     0.000 s
  Finished solving standard eigenproblem
  | Time :     0.000 s
  Finished back-transformation of eigenvectors
  | Time :     0.000 s

  Obtaining occupation numbers and electronic chemical potential using ELSI.
  | Note that, for insulating systems, the printed 'chemical potential' value is not uniquely defined.
  | It can be anywhere in the energy gap, as long as it correctly separates occupied and unoccupied states.
  | In systems with a gap, the physically relevant chemical potential is the VBM or HOMO.

  | Chemical potential (Fermi level):    -4.92227243 eV
  Available memory per node after advance_KS_solution [GB]:   1010.67
  Writing Kohn-Sham eigenvalues.

  Spin-up eigenvalues:

  State    Occupation    Eigenvalue [Ha]    Eigenvalue [eV]
      1       1.00000         -76.823368        -2090.47021
      2       1.00000          -6.373460         -173.43068
      3       1.00000          -4.563054         -124.16702
      4       1.00000          -4.563054         -124.16702
      5       1.00000          -4.563054         -124.16702
      6       1.00000          -0.532550          -14.49142
      7       1.00000          -0.218413           -5.94332
      8       1.00000          -0.218413           -5.94332
      9       1.00000          -0.218413           -5.94332
     10       0.00000           0.143693            3.91010
     11       0.00000           0.143693            3.91010

  Spin-down eigenvalues:

  State    Occupation    Eigenvalue [Ha]    Eigenvalue [eV]
      1       1.00000         -76.812089        -2090.16329
      2       1.00000          -6.362660         -173.13679
      3       1.00000          -4.548097         -123.76003
      4       1.00000          -4.548097         -123.76003
      5       1.00000          -4.548097         -123.76003
      6       1.00000          -0.447778          -12.18467
      7       0.00000          -0.143367           -3.90123
      8       0.00000          -0.143367           -3.90123
      9       0.00000          -0.143367           -3.90123
     10       0.00000           0.201438            5.48141
     11       0.00000           0.201438            5.48141

  Current spin moment of the entire structure :
  | N = N_up - N_down :    3.00
  | S                 :    1.50
  | J                 :    4.00

  Highest occupied state (VBM) at     -5.94331740 eV
  | Occupation number:      1.00000000
  | Spin channel:        1

  Lowest unoccupied state (CBM) at    -3.90122746 eV
  | Occupation number:      0.00000000
  | Spin channel:        2

  Overall HOMO-LUMO gap:      2.04208994 eV.
  Calculating total energy contributions from superposition of free atom densities.

  Total energy components:
  | Sum of eigenvalues            :        -195.34059930 Ha       -5315.48815595 eV
  | XC energy correction          :         -23.26715531 Ha        -633.13150923 eV
  | XC potential correction       :          29.94511315 Ha         814.84798780 eV
  | Free-atom electrostatic energy:        -153.61780867 Ha       -4180.15325781 eV
  | Hartree energy correction     :          -0.30394363 Ha          -8.27072689 eV
  | Entropy correction            :          -0.00000000 Ha          -0.00000000 eV
  | ---------------------------
  | Total energy                  :        -342.58439375 Ha       -9322.19566207 eV
  | Total energy, T -> 0          :        -342.58439375 Ha       -9322.19566207 eV  <-- do not rely on this value for anything but (periodic) metals
  | Electronic free energy        :        -342.58439375 Ha       -9322.19566207 eV

  Derived energy quantities:
  | Kinetic energy                :         343.73999609 Ha        9353.64120175 eV
  | Electrostatic energy          :        -663.05723454 Ha      -18042.70535460 eV
  | Energy correction for multipole
  | error in Hartree potential    :          -0.00000000 Ha          -0.00000000 eV
  | Sum of eigenvalues per atom                           :       -5315.48815595 eV
  | Total energy (T->0) per atom                          :       -9322.19566207 eV  <-- do not rely on this value for anything but (periodic) metals
  | Electronic free energy per atom                       :       -9322.19566207 eV

  End scf initialization - timings             :  max(cpu_time)    wall_clock(cpu1)
  | Time for scf. initialization                :        0.031 s           0.032 s
  | Boundary condition initialization           :        0.001 s           0.000 s
  | Integration                                 :        0.011 s           0.011 s
  | Solution of K.-S. eqns.                     :        0.003 s           0.003 s
  | Grid partitioning                           :        0.005 s           0.005 s
  | Preloading free-atom quantities on grid     :        0.007 s           0.007 s
  | Free-atom superposition energy              :        0.004 s           0.004 s
  | Total energy evaluation                     :        0.000 s           0.001 s

  Partial memory accounting:
  | Current value for overall tracked memory usage:
  |   Minimum:        0.029 MB (on task 3)
  |   Maximum:        0.039 MB (on task 0)
  |   Average:        0.033 MB
  | Peak value for overall tracked memory usage:
  |   Minimum:        0.182 MB (on task 3 after allocating wave)
  |   Maximum:        0.215 MB (on task 0 after allocating wave)
  |   Average:        0.193 MB
  | Largest tracked array allocation so far:
  |   Minimum:        0.098 MB (all_coords on task 3)
  |   Maximum:        0.130 MB (all_coords on task 0)
  |   Average:        0.113 MB
  Note:  These values currently only include a subset of arrays which are explicitly tracked.
  The "true" memory usage will be greater.
------------------------------------------------------------
  Available memory after initialize_scf [GB]:   1010.67
  Available memory after allocating mixing [GB]:   1010.67
  Evaluating new KS density.
  Integration grid: deviation in total charge (<rho> - N_e) =  -4.618528E-14
  | <rho_up-rho_dn> = N_up-N_dn =      3.0000; <|rho_up-rho_dn|> =      3.0000

  Time for density update prior                :  max(cpu_time)    wall_clock(cpu1)
  | self-consistency iterative process          :        0.005 s           0.005 s
  Available memory before start of SCF loop [GB]:   1010.67

------------------------------------------------------------
          Begin self-consistency iteration #    1

  Date     :  20260722, Time     :  145240.046
------------------------------------------------------------
  Pulay mixing of updated and previous charge densities.
  Available memory per node after mixing [GB]:   1010.66
  Renormalizing the density to the exact electron count on the 3D integration grid.
  | Formal number of electrons (from input files) :      15.0000000000
  | Integrated number of electrons on 3D grid     :      15.0000000000
  | Charge integration error                      :      -0.0000000000
  | Normalization factor for density and gradient :       1.0000000000

  Evaluating partitioned Hartree potential by multipole expansion.
  | Original multipole sum: apparent total charge =   0.101114E-13
  | Sum of charges compensated after spline to logarithmic grids =   0.952915E-07
  | Analytical far-field extrapolation by fixed multipoles:
  | Hartree multipole sum: apparent total charge =   0.101085E-13
  Summing up the Hartree potential.
  Time summed over all CPUs for potential: real work        0.001 s, elapsed        0.001 s
  | RMS charge density error from multipole expansion :   0.172059E-14

  Integrating Hamiltonian matrix: batch-based integration.
  Time summed over all CPUs for integration: real work        0.034 s, elapsed        0.035 s

  Updating Kohn-Sham eigenvalues and eigenvectors using ELSI and the ELPA eigensolver.
  Starting ELPA eigensolver
  Finished transformation to standard eigenproblem
  | Time :     0.000 s
  Finished solving standard eigenproblem
  | Time :     0.001 s
  Finished back-transformation of eigenvectors
  | Time :     0.000 s
  Starting ELPA eigensolver
  Finished transformation to standard eigenproblem
  | Time :     0.000 s
  Finished solving standard eigenproblem
  | Time :     0.001 s
  Finished back-transformation of eigenvectors
  | Time :     0.000 s

  Obtaining occupation numbers and electronic chemical potential using ELSI.
  | Note that, for insulating systems, the printed 'chemical potential' value is not uniquely defined.
  | It can be anywhere in the energy gap, as long as it correctly separates occupied and unoccupied states.
  | In systems with a gap, the physically relevant chemical potential is the VBM or HOMO.

  | Chemical potential (Fermi level):    -4.92193648 eV
  Writing Kohn-Sham eigenvalues.

  Spin-up eigenvalues:

  State    Occupation    Eigenvalue [Ha]    Eigenvalue [eV]
      1       1.00000         -76.824399        -2090.49827
      2       1.00000          -6.373601         -173.43452
      3       1.00000          -4.563234         -124.17191
      4       1.00000          -4.563234         -124.17191
      5       1.00000          -4.563234         -124.17191
      6       1.00000          -0.532511          -14.49035
      7       1.00000          -0.218376           -5.94233
      8       1.00000          -0.218376           -5.94233
      9       1.00000          -0.218376           -5.94233
     10       0.00000           0.143726            3.91098
     11       0.00000           0.143726            3.91098

  Spin-down eigenvalues:

  State    Occupation    Eigenvalue [Ha]    Eigenvalue [eV]
      1       1.00000         -76.813125        -2090.19148
      2       1.00000          -6.362753         -173.13933
      3       1.00000          -4.548250         -123.76417
      4       1.00000          -4.548250         -123.76417
      5       1.00000          -4.548250         -123.76417
      6       1.00000          -0.447785          -12.18484
      7       0.00000          -0.143379           -3.90155
      8       0.00000          -0.143379           -3.90155
      9       0.00000          -0.143379           -3.90155
     10       0.00000           0.201435            5.48131
     11       0.00000           0.201435            5.48131

  Current spin moment of the entire structure :
  | N = N_up - N_down :    3.00
  | S                 :    1.50
  | J                 :    4.00

  Highest occupied state (VBM) at     -5.94232584 eV
  | Occupation number:      1.00000000
  | Spin channel:        1

  Lowest unoccupied state (CBM) at    -3.90154713 eV
  | Occupation number:      0.00000000
  | Spin channel:        2

  Overall HOMO-LUMO gap:      2.04077871 eV.

  Total energy components:
  | Sum of eigenvalues            :        -195.34375468 Ha       -5315.57401840 eV
  | XC energy correction          :         -23.26668609 Ha        -633.11874119 eV
  | XC potential correction       :          29.94452512 Ha         814.83198673 eV
  | Free-atom electrostatic energy:        -153.61780867 Ha       -4180.15325781 eV
  | Hartree energy correction     :          -0.30066963 Ha          -8.18163700 eV
  | Entropy correction            :          -0.00000000 Ha          -0.00000000 eV
  | ---------------------------
  | Total energy                  :        -342.58439396 Ha       -9322.19566766 eV
  | Total energy, T -> 0          :        -342.58439396 Ha       -9322.19566766 eV  <-- do not rely on this value for anything but (periodic) metals
  | Electronic free energy        :        -342.58439396 Ha       -9322.19566766 eV

  Derived energy quantities:
  | Kinetic energy                :         343.72115695 Ha        9353.12856257 eV
  | Electrostatic energy          :        -663.03886482 Ha      -18042.20548905 eV
  | Energy correction for multipole
  | error in Hartree potential    :          -0.00000000 Ha          -0.00000000 eV
  | Sum of eigenvalues per atom                           :       -5315.57401840 eV
  | Total energy (T->0) per atom                          :       -9322.19566766 eV  <-- do not rely on this value for anything but (periodic) metals
  | Electronic free energy per atom                       :       -9322.19566766 eV
  Evaluating new KS density.
  Integration grid: deviation in total charge (<rho> - N_e) =   1.243450E-14
  | <rho_up-rho_dn> = N_up-N_dn =      3.0000; <|rho_up-rho_dn|> =      3.0000

  Self-consistency convergence accuracy:
  | Change of charge/spin density :  0.1411E-01  0.5812E-02
  | Change of unmixed KS charge/spin density :  0.2591E+02  0.2945E+00
  | Change of sum of eigenvalues  : -0.8586E-01 eV
  | Change of total energy        : -0.5593E-05 eV


------------------------------------------------------------
  End self-consistency iteration #     1       :  max(cpu_time)    wall_clock(cpu1)
  | Time for this iteration                     :        0.019 s           0.019 s
  | Charge density update                       :        0.005 s           0.005 s
  | Density mixing                              :        0.000 s           0.001 s
  | Hartree multipole update                    :        0.001 s           0.001 s
  | Hartree multipole summation                 :        0.002 s           0.001 s
  | Integration                                 :        0.009 s           0.009 s
  | Solution of K.-S. eqns.                     :        0.002 s           0.002 s
  | Total energy evaluation                     :        0.000 s           0.000 s

  Partial memory accounting:
  | Current value for overall tracked memory usage:
  |   Minimum:        5.495 MB (on task 0)
  |   Maximum:        5.565 MB (on task 3)
  |   Average:        5.529 MB
  | Peak value for overall tracked memory usage:
  |   Minimum:        5.643 MB (on task 0 after allocating wave)
  |   Maximum:        5.712 MB (on task 3 after allocating wave)
  |   Average:        5.677 MB
  | Largest tracked array allocation so far:
  |   Minimum:        1.794 MB (previous_rho_gradient_diff on task 0)
  |   Maximum:        1.820 MB (previous_rho_gradient_diff on task 3)
  |   Average:        1.807 MB
  Note:  These values currently only include a subset of arrays which are explicitly tracked.
  The "true" memory usage will be greater.
------------------------------------------------------------

------------------------------------------------------------
          Begin self-consistency iteration #    2

  Date     :  20260722, Time     :  145240.095
------------------------------------------------------------
  Pulay mixing of updated and previous charge densities.
  Available memory per node after mixing [GB]:   1010.66
  Renormalizing the density to the exact electron count on the 3D integration grid.
  | Formal number of electrons (from input files) :      15.0000000000
  | Integrated number of electrons on 3D grid     :      15.0000000000
  | Charge integration error                      :       0.0000000000
  | Normalization factor for density and gradient :       1.0000000000

  Evaluating partitioned Hartree potential by multipole expansion.
  | Original multipole sum: apparent total charge =   0.917156E-13
  | Sum of charges compensated after spline to logarithmic grids =   0.952309E-07
  | Analytical far-field extrapolation by fixed multipoles:
  | Hartree multipole sum: apparent total charge =   0.917211E-13
  Summing up the Hartree potential.
  Time summed over all CPUs for potential: real work        0.001 s, elapsed        0.001 s
  | RMS charge density error from multipole expansion :   0.939236E-14

  Integrating Hamiltonian matrix: batch-based integration.
  Time summed over all CPUs for integration: real work        0.035 s, elapsed        0.035 s

  Updating Kohn-Sham eigenvalues and eigenvectors using ELSI and the ELPA eigensolver.
  Starting ELPA eigensolver
  Finished transformation to standard eigenproblem
  | Time :     0.000 s
  Finished solving standard eigenproblem
  | Time :     0.000 s
  Finished back-transformation of eigenvectors
  | Time :     0.001 s
  Starting ELPA eigensolver
  Finished transformation to standard eigenproblem
  | Time :     0.000 s
  Finished solving standard eigenproblem
  | Time :     0.000 s
  Finished back-transformation of eigenvectors
  | Time :     0.000 s

  Obtaining occupation numbers and electronic chemical potential using ELSI.
  | Note that, for insulating systems, the printed 'chemical potential' value is not uniquely defined.
  | It can be anywhere in the energy gap, as long as it correctly separates occupied and unoccupied states.
  | In systems with a gap, the physically relevant chemical potential is the VBM or HOMO.

  | Chemical potential (Fermi level):    -4.91907559 eV
  Current spin moment of the entire structure :
  | N = N_up - N_down :    3.00
  | S                 :    1.50
  | J                 :    4.00

  Highest occupied state (VBM) at     -5.93367127 eV
  | Occupation number:      1.00000000
  | Spin channel:        1

  Lowest unoccupied state (CBM) at    -3.90447991 eV
  | Occupation number:      0.00000000
  | Spin channel:        2

  Overall HOMO-LUMO gap:      2.02919137 eV.

  Checking to see if s.c.f. parameters should be adjusted.

  Total energy components:
  | Sum of eigenvalues            :        -195.37155825 Ha       -5316.33059200 eV
  | XC energy correction          :         -23.26257583 Ha        -633.00689524 eV
  | XC potential correction       :          29.93938184 Ha         814.69203105 eV
  | Free-atom electrostatic energy:        -153.61780867 Ha       -4180.15325781 eV
  | Hartree energy correction     :          -0.27183515 Ha          -7.39701072 eV
  | Entropy correction            :          -0.00000000 Ha          -0.00000000 eV
  | ---------------------------
  | Total energy                  :        -342.58439605 Ha       -9322.19572473 eV
  | Total energy, T -> 0          :        -342.58439605 Ha       -9322.19572473 eV  <-- do not rely on this value for anything but (periodic) metals
  | Electronic free energy        :        -342.58439605 Ha       -9322.19572473 eV

  Derived energy quantities:
  | Kinetic energy                :         343.55458502 Ha        9348.59590973 eV
  | Electrostatic energy          :        -662.87640525 Ha      -18037.78473921 eV
  | Energy correction for multipole
  | error in Hartree potential    :           0.00000000 Ha           0.00000000 eV
  | Sum of eigenvalues per atom                           :       -5316.33059200 eV
  | Total energy (T->0) per atom                          :       -9322.19572473 eV  <-- do not rely on this value for anything but (periodic) metals
  | Electronic free energy per atom                       :       -9322.19572473 eV
  Evaluating new KS density.
  Integration grid: deviation in total charge (<rho> - N_e) =  -1.776357E-14
  | <rho_up-rho_dn> = N_up-N_dn =      3.0000; <|rho_up-rho_dn|> =      3.0000

  Self-consistency convergence accuracy:
  | Change of charge/spin density :  0.1268E-01  0.5243E-02
  | Change of unmixed KS charge/spin density :  0.4847E-04  0.2448E-04
  | Change of sum of eigenvalues  : -0.7566E+00 eV
  | Change of total energy        : -0.5706E-04 eV


------------------------------------------------------------
  End self-consistency iteration #     2       :  max(cpu_time)    wall_clock(cpu1)
  | Time for this iteration                     :        0.031 s           0.021 s
  | Charge density update                       :        0.005 s           0.005 s
  | Density mixing                              :        0.014 s           0.004 s
  | Hartree multipole update                    :        0.001 s           0.000 s
  | Hartree multipole summation                 :        0.002 s           0.002 s
  | Integration                                 :        0.009 s           0.009 s
  | Solution of K.-S. eqns.                     :        0.001 s           0.001 s
  | Total energy evaluation                     :        0.000 s           0.000 s

  Partial memory accounting:
  | Current value for overall tracked memory usage:
  |   Minimum:        5.495 MB (on task 0)
  |   Maximum:        5.565 MB (on task 3)
  |   Average:        5.529 MB
  | Peak value for overall tracked memory usage:
  |   Minimum:        5.643 MB (on task 0 after allocating wave)
  |   Maximum:        5.713 MB (on task 3 after allocating wave)
  |   Average:        5.677 MB
  | Largest tracked array allocation so far:
  |   Minimum:        1.794 MB (previous_rho_gradient_diff on task 0)
  |   Maximum:        1.820 MB (previous_rho_gradient_diff on task 3)
  |   Average:        1.807 MB
  Note:  These values currently only include a subset of arrays which are explicitly tracked.
  The "true" memory usage will be greater.
------------------------------------------------------------

------------------------------------------------------------
          Begin self-consistency iteration #    3

  Date     :  20260722, Time     :  145240.145
------------------------------------------------------------
  Pulay mixing of updated and previous charge densities.
  Available memory per node after mixing [GB]:   1010.65
  Renormalizing the density to the exact electron count on the 3D integration grid.
  | Formal number of electrons (from input files) :      15.0000000000
  | Integrated number of electrons on 3D grid     :      15.0000000000
  | Charge integration error                      :       0.0000000000
  | Normalization factor for density and gradient :       1.0000000000

  Evaluating partitioned Hartree potential by multipole expansion.
  | Original multipole sum: apparent total charge =   0.139601E-12
  | Sum of charges compensated after spline to logarithmic grids =   0.941895E-07
  | Analytical far-field extrapolation by fixed multipoles:
  | Hartree multipole sum: apparent total charge =   0.139593E-12
  Summing up the Hartree potential.
  Time summed over all CPUs for potential: real work        0.001 s, elapsed        0.001 s
  | RMS charge density error from multipole expansion :   0.934150E-14

  Integrating Hamiltonian matrix: batch-based integration.
  Time summed over all CPUs for integration: real work        0.034 s, elapsed        0.035 s

  Updating Kohn-Sham eigenvalues and eigenvectors using ELSI and the ELPA eigensolver.
  Starting ELPA eigensolver
  Finished transformation to standard eigenproblem
  | Time :     0.000 s
  Finished solving standard eigenproblem
  | Time :     0.001 s
  Finished back-transformation of eigenvectors
  | Time :     0.000 s
  Starting ELPA eigensolver
  Finished transformation to standard eigenproblem
  | Time :     0.000 s
  Finished solving standard eigenproblem
  | Time :     0.000 s
  Finished back-transformation of eigenvectors
  | Time :     0.000 s

  Obtaining occupation numbers and electronic chemical potential using ELSI.
  | Note that, for insulating systems, the printed 'chemical potential' value is not uniquely defined.
  | It can be anywhere in the energy gap, as long as it correctly separates occupied and unoccupied states.
  | In systems with a gap, the physically relevant chemical potential is the VBM or HOMO.

  | Chemical potential (Fermi level):    -4.92039598 eV
  Current spin moment of the entire structure :
  | N = N_up - N_down :    3.00
  | S                 :    1.50
  | J                 :    4.00

  Highest occupied state (VBM) at     -5.93489893 eV
  | Occupation number:      1.00000000
  | Spin channel:        1

  Lowest unoccupied state (CBM) at    -3.90589303 eV
  | Occupation number:      0.00000000
  | Spin channel:        2

  Overall HOMO-LUMO gap:      2.02900591 eV.

  Total energy components:
  | Sum of eigenvalues            :        -195.37012917 Ha       -5316.29170478 eV
  | XC energy correction          :         -23.26285384 Ha        -633.01446028 eV
  | XC potential correction       :          29.93975231 Ha         814.70211189 eV
  | Free-atom electrostatic energy:        -153.61780867 Ha       -4180.15325781 eV
  | Hartree energy correction     :          -0.27335665 Ha          -7.43841296 eV
  | Entropy correction            :          -0.00000000 Ha          -0.00000000 eV
  | ---------------------------
  | Total energy                  :        -342.58439602 Ha       -9322.19572394 eV
  | Total energy, T -> 0          :        -342.58439602 Ha       -9322.19572394 eV  <-- do not rely on this value for anything but (periodic) metals
  | Electronic free energy        :        -342.58439602 Ha       -9322.19572394 eV

  Derived energy quantities:
  | Kinetic energy                :         343.55874366 Ha        9348.70907196 eV
  | Electrostatic energy          :        -662.88028585 Ha      -18037.89033561 eV
  | Energy correction for multipole
  | error in Hartree potential    :          -0.00000000 Ha          -0.00000000 eV
  | Sum of eigenvalues per atom                           :       -5316.29170478 eV
  | Total energy (T->0) per atom                          :       -9322.19572394 eV  <-- do not rely on this value for anything but (periodic) metals
  | Electronic free energy per atom                       :       -9322.19572394 eV
  Evaluating new KS density.
  Integration grid: deviation in total charge (<rho> - N_e) =   1.421085E-14
  | <rho_up-rho_dn> = N_up-N_dn =      3.0000; <|rho_up-rho_dn|> =      3.0000

  Self-consistency convergence accuracy:
  | Change of charge/spin density :  0.3701E-03  0.2566E-03
  | Change of unmixed KS charge/spin density :  0.4258E-03  0.2165E-03
  | Change of sum of eigenvalues  :  0.3889E-01 eV
  | Change of total energy        :  0.7899E-06 eV


------------------------------------------------------------
  End self-consistency iteration #     3       :  max(cpu_time)    wall_clock(cpu1)
  | Time for this iteration                     :        0.036 s           0.017 s
  | Charge density update                       :        0.005 s           0.005 s
  | Density mixing                              :        0.019 s           0.001 s
  | Hartree multipole update                    :        0.001 s           0.000 s
  | Hartree multipole summation                 :        0.001 s           0.001 s
  | Integration                                 :        0.009 s           0.009 s
  | Solution of K.-S. eqns.                     :        0.001 s           0.001 s
  | Total energy evaluation                     :        0.000 s           0.000 s

  Partial memory accounting:
  | Current value for overall tracked memory usage:
  |   Minimum:        5.495 MB (on task 0)
  |   Maximum:        5.565 MB (on task 3)
  |   Average:        5.529 MB
  | Peak value for overall tracked memory usage:
  |   Minimum:        5.643 MB (on task 0 after allocating wave)
  |   Maximum:        5.713 MB (on task 3 after allocating wave)
  |   Average:        5.677 MB
  | Largest tracked array allocation so far:
  |   Minimum:        1.794 MB (previous_rho_gradient_diff on task 0)
  |   Maximum:        1.820 MB (previous_rho_gradient_diff on task 3)
  |   Average:        1.807 MB
  Note:  These values currently only include a subset of arrays which are explicitly tracked.
  The "true" memory usage will be greater.
------------------------------------------------------------

------------------------------------------------------------
          Begin self-consistency iteration #    4

  Date     :  20260722, Time     :  145240.188
------------------------------------------------------------
  Pulay mixing of updated and previous charge densities.
  Available memory per node after mixing [GB]:   1010.65
  Renormalizing the density to the exact electron count on the 3D integration grid.
  | Formal number of electrons (from input files) :      15.0000000000
  | Integrated number of electrons on 3D grid     :      15.0000000000
  | Charge integration error                      :      -0.0000000000
  | Normalization factor for density and gradient :       1.0000000000

  Evaluating partitioned Hartree potential by multipole expansion.
  | Original multipole sum: apparent total charge =   0.106451E-12
  | Sum of charges compensated after spline to logarithmic grids =   0.941962E-07
  | Analytical far-field extrapolation by fixed multipoles:
  | Hartree multipole sum: apparent total charge =   0.106433E-12
  Summing up the Hartree potential.
  Time summed over all CPUs for potential: real work        0.001 s, elapsed        0.001 s
  | RMS charge density error from multipole expansion :   0.928429E-14

  Integrating Hamiltonian matrix: batch-based integration.
  Time summed over all CPUs for integration: real work        0.034 s, elapsed        0.035 s

  Updating Kohn-Sham eigenvalues and eigenvectors using ELSI and the ELPA eigensolver.
  Starting ELPA eigensolver
  Finished transformation to standard eigenproblem
  | Time :     0.000 s
  Finished solving standard eigenproblem
  | Time :     0.001 s
  Finished back-transformation of eigenvectors
  | Time :     0.000 s
  Starting ELPA eigensolver
  Finished transformation to standard eigenproblem
  | Time :     0.000 s
  Finished solving standard eigenproblem
  | Time :     0.000 s
  Finished back-transformation of eigenvectors
  | Time :     0.000 s

  Obtaining occupation numbers and electronic chemical potential using ELSI.
  | Note that, for insulating systems, the printed 'chemical potential' value is not uniquely defined.
  | It can be anywhere in the energy gap, as long as it correctly separates occupied and unoccupied states.
  | In systems with a gap, the physically relevant chemical potential is the VBM or HOMO.

  | Chemical potential (Fermi level):    -4.92038170 eV
  Current spin moment of the entire structure :
  | N = N_up - N_down :    3.00
  | S                 :    1.50
  | J                 :    4.00

  Highest occupied state (VBM) at     -5.93488567 eV
  | Occupation number:      1.00000000
  | Spin channel:        1

  Lowest unoccupied state (CBM) at    -3.90587773 eV
  | Occupation number:      0.00000000
  | Spin channel:        2

  Overall HOMO-LUMO gap:      2.02900795 eV.

  Total energy components:
  | Sum of eigenvalues            :        -195.37012074 Ha       -5316.29147531 eV
  | XC energy correction          :         -23.26285400 Ha        -633.01446463 eV
  | XC potential correction       :          29.93975247 Ha         814.70211620 eV
  | Free-atom electrostatic energy:        -153.61780867 Ha       -4180.15325781 eV
  | Hartree energy correction     :          -0.27336508 Ha          -7.43864239 eV
  | Entropy correction            :          -0.00000000 Ha          -0.00000000 eV
  | ---------------------------
  | Total energy                  :        -342.58439602 Ha       -9322.19572393 eV
  | Total energy, T -> 0          :        -342.58439602 Ha       -9322.19572393 eV  <-- do not rely on this value for anything but (periodic) metals
  | Electronic free energy        :        -342.58439602 Ha       -9322.19572393 eV

  Derived energy quantities:
  | Kinetic energy                :         343.55875041 Ha        9348.70925586 eV
  | Electrostatic energy          :        -662.88029244 Ha      -18037.89051517 eV
  | Energy correction for multipole
  | error in Hartree potential    :           0.00000000 Ha           0.00000000 eV
  | Sum of eigenvalues per atom                           :       -5316.29147531 eV
  | Total energy (T->0) per atom                          :       -9322.19572393 eV  <-- do not rely on this value for anything but (periodic) metals
  | Electronic free energy per atom                       :       -9322.19572393 eV
  Evaluating new KS density.
  Integration grid: deviation in total charge (<rho> - N_e) =  -7.105427E-15
  | <rho_up-rho_dn> = N_up-N_dn =      3.0000; <|rho_up-rho_dn|> =      3.0000

  Self-consistency convergence accuracy:
  | Change of charge/spin density :  0.1060E-04  0.9259E-05
  | Change of unmixed KS charge/spin density :  0.3276E-04  0.1776E-04
  | Change of sum of eigenvalues  :  0.2295E-03 eV
  | Change of total energy        :  0.4213E-08 eV


------------------------------------------------------------
  End self-consistency iteration #     4       :  max(cpu_time)    wall_clock(cpu1)
  | Time for this iteration                     :        0.037 s           0.022 s
  | Charge density update                       :        0.005 s           0.005 s
  | Density mixing                              :        0.020 s           0.006 s
  | Hartree multipole update                    :        0.001 s           0.000 s
  | Hartree multipole summation                 :        0.001 s           0.001 s
  | Integration                                 :        0.009 s           0.009 s
  | Solution of K.-S. eqns.                     :        0.001 s           0.001 s
  | Total energy evaluation                     :        0.000 s           0.000 s

  Partial memory accounting:
  | Current value for overall tracked memory usage:
  |   Minimum:        5.495 MB (on task 0)
  |   Maximum:        5.565 MB (on task 3)
  |   Average:        5.529 MB
  | Peak value for overall tracked memory usage:
  |   Minimum:        5.643 MB (on task 0 after allocating wave)
  |   Maximum:        5.713 MB (on task 3 after allocating wave)
  |   Average:        5.677 MB
  | Largest tracked array allocation so far:
  |   Minimum:        1.794 MB (previous_rho_gradient_diff on task 0)
  |   Maximum:        1.820 MB (previous_rho_gradient_diff on task 3)
  |   Average:        1.807 MB
  Note:  These values currently only include a subset of arrays which are explicitly tracked.
  The "true" memory usage will be greater.
------------------------------------------------------------

------------------------------------------------------------
          Begin self-consistency iteration #    5

  Date     :  20260722, Time     :  145240.330
------------------------------------------------------------
  Pulay mixing of updated and previous charge densities.
  Available memory per node after mixing [GB]:   1010.65
  Renormalizing the density to the exact electron count on the 3D integration grid.
  | Formal number of electrons (from input files) :      15.0000000000
  | Integrated number of electrons on 3D grid     :      15.0000000000
  | Charge integration error                      :       0.0000000000
  | Normalization factor for density and gradient :       1.0000000000

  Evaluating partitioned Hartree potential by multipole expansion.
  | Original multipole sum: apparent total charge =   0.949373E-13
  | Sum of charges compensated after spline to logarithmic grids =   0.942709E-07
  | Analytical far-field extrapolation by fixed multipoles:
  | Hartree multipole sum: apparent total charge =   0.949094E-13
  Summing up the Hartree potential.
  Time summed over all CPUs for potential: real work        0.001 s, elapsed        0.001 s
  | RMS charge density error from multipole expansion :   0.183419E-13

  Integrating Hamiltonian matrix: batch-based integration.
  Time summed over all CPUs for integration: real work        0.034 s, elapsed        0.035 s

  Updating Kohn-Sham eigenvalues and eigenvectors using ELSI and the ELPA eigensolver.
  Starting ELPA eigensolver
  Finished transformation to standard eigenproblem
  | Time :     0.001 s
  Finished solving standard eigenproblem
  | Time :     0.000 s
  Finished back-transformation of eigenvectors
  | Time :     0.000 s
  Starting ELPA eigensolver
  Finished transformation to standard eigenproblem
  | Time :     0.000 s
  Finished solving standard eigenproblem
  | Time :     0.000 s
  Finished back-transformation of eigenvectors
  | Time :     0.000 s

  Obtaining occupation numbers and electronic chemical potential using ELSI.
  | Note that, for insulating systems, the printed 'chemical potential' value is not uniquely defined.
  | It can be anywhere in the energy gap, as long as it correctly separates occupied and unoccupied states.
  | In systems with a gap, the physically relevant chemical potential is the VBM or HOMO.

  | Chemical potential (Fermi level):    -4.92019183 eV
  Current spin moment of the entire structure :
  | N = N_up - N_down :    3.00
  | S                 :    1.50
  | J                 :    4.00

  Highest occupied state (VBM) at     -5.93469757 eV
  | Occupation number:      1.00000000
  | Spin channel:        1

  Lowest unoccupied state (CBM) at    -3.90568609 eV
  | Occupation number:      0.00000000
  | Spin channel:        2

  Overall HOMO-LUMO gap:      2.02901148 eV.

  Total energy components:
  | Sum of eigenvalues            :        -195.36992613 Ha       -5316.28617953 eV
  | XC energy correction          :         -23.26286664 Ha        -633.01480881 eV
  | XC potential correction       :          29.93976898 Ha         814.70256558 eV
  | Free-atom electrostatic energy:        -153.61780867 Ha       -4180.15325781 eV
  | Hartree energy correction     :          -0.27356356 Ha          -7.44404334 eV
  | Entropy correction            :          -0.00000000 Ha          -0.00000000 eV
  | ---------------------------
  | Total energy                  :        -342.58439602 Ha       -9322.19572392 eV
  | Total energy, T -> 0          :        -342.58439602 Ha       -9322.19572392 eV  <-- do not rely on this value for anything but (periodic) metals
  | Electronic free energy        :        -342.58439602 Ha       -9322.19572392 eV

  Derived energy quantities:
  | Kinetic energy                :         343.55880964 Ha        9348.71086741 eV
  | Electrostatic energy          :        -662.88033902 Ha      -18037.89178252 eV
  | Energy correction for multipole
  | error in Hartree potential    :           0.00000000 Ha           0.00000000 eV
  | Sum of eigenvalues per atom                           :       -5316.28617953 eV
  | Total energy (T->0) per atom                          :       -9322.19572392 eV  <-- do not rely on this value for anything but (periodic) metals
  | Electronic free energy per atom                       :       -9322.19572392 eV
  Evaluating new KS density.
  Integration grid: deviation in total charge (<rho> - N_e) =   1.065814E-14
  | <rho_up-rho_dn> = N_up-N_dn =      3.0000; <|rho_up-rho_dn|> =      3.0000

  Self-consistency convergence accuracy:
  | Change of charge/spin density :  0.9010E-05  0.8681E-05
  | Change of unmixed KS charge/spin density :  0.2766E-06  0.1972E-06
  | Change of sum of eigenvalues  :  0.5296E-02 eV
  | Change of total energy        :  0.7548E-08 eV


------------------------------------------------------------
  End self-consistency iteration #     5       :  max(cpu_time)    wall_clock(cpu1)
  | Time for this iteration                     :        0.037 s           0.029 s
  | Charge density update                       :        0.005 s           0.005 s
  | Density mixing                              :        0.020 s           0.013 s
  | Hartree multipole update                    :        0.001 s           0.000 s
  | Hartree multipole summation                 :        0.001 s           0.002 s
  | Integration                                 :        0.009 s           0.008 s
  | Solution of K.-S. eqns.                     :        0.001 s           0.001 s
  | Total energy evaluation                     :        0.000 s           0.000 s

  Partial memory accounting:
  | Current value for overall tracked memory usage:
  |   Minimum:        5.495 MB (on task 0)
  |   Maximum:        5.565 MB (on task 3)
  |   Average:        5.529 MB
  | Peak value for overall tracked memory usage:
  |   Minimum:        5.643 MB (on task 0 after allocating wave)
  |   Maximum:        5.713 MB (on task 3 after allocating wave)
  |   Average:        5.677 MB
  | Largest tracked array allocation so far:
  |   Minimum:        1.794 MB (previous_rho_gradient_diff on task 0)
  |   Maximum:        1.820 MB (previous_rho_gradient_diff on task 3)
  |   Average:        1.807 MB
  Note:  These values currently only include a subset of arrays which are explicitly tracked.
  The "true" memory usage will be greater.
------------------------------------------------------------

------------------------------------------------------------
          Begin self-consistency iteration #    6

  Date     :  20260722, Time     :  145240.386
------------------------------------------------------------
  Pulay mixing of updated and previous charge densities.
  Available memory per node after mixing [GB]:   1010.65
  Renormalizing the density to the exact electron count on the 3D integration grid.
  | Formal number of electrons (from input files) :      15.0000000000
  | Integrated number of electrons on 3D grid     :      15.0000000000
  | Charge integration error                      :       0.0000000000
  | Normalization factor for density and gradient :       1.0000000000

  Evaluating partitioned Hartree potential by multipole expansion.
  | Original multipole sum: apparent total charge =   0.100332E-12
  | Sum of charges compensated after spline to logarithmic grids =   0.942519E-07
  | Analytical far-field extrapolation by fixed multipoles:
  | Hartree multipole sum: apparent total charge =   0.100325E-12
  Summing up the Hartree potential.
  Time summed over all CPUs for potential: real work        0.001 s, elapsed        0.001 s
  | RMS charge density error from multipole expansion :   0.106288E-13

  Integrating Hamiltonian matrix: batch-based integration.
  Time summed over all CPUs for integration: real work        0.034 s, elapsed        0.035 s

  Updating Kohn-Sham eigenvalues and eigenvectors using ELSI and the ELPA eigensolver.
  Starting ELPA eigensolver
  Finished transformation to standard eigenproblem
  | Time :     0.000 s
  Finished solving standard eigenproblem
  | Time :     0.000 s
  Finished back-transformation of eigenvectors
  | Time :     0.000 s
  Starting ELPA eigensolver
  Finished transformation to standard eigenproblem
  | Time :     0.000 s
  Finished solving standard eigenproblem
  | Time :     0.001 s
  Finished back-transformation of eigenvectors
  | Time :     0.000 s

  Obtaining occupation numbers and electronic chemical potential using ELSI.
  | Note that, for insulating systems, the printed 'chemical potential' value is not uniquely defined.
  | It can be anywhere in the energy gap, as long as it correctly separates occupied and unoccupied states.
  | In systems with a gap, the physically relevant chemical potential is the VBM or HOMO.

  | Chemical potential (Fermi level):    -4.92024345 eV
  Current spin moment of the entire structure :
  | N = N_up - N_down :    3.00
  | S                 :    1.50
  | J                 :    4.00

  Highest occupied state (VBM) at     -5.93474974 eV
  | Occupation number:      1.00000000
  | Spin channel:        1

  Lowest unoccupied state (CBM) at    -3.90573716 eV
  | Occupation number:      0.00000000
  | Spin channel:        2

  Overall HOMO-LUMO gap:      2.02901258 eV.

  Total energy components:
  | Sum of eigenvalues            :        -195.36998524 Ha       -5316.28778814 eV
  | XC energy correction          :         -23.26286253 Ha        -633.01469691 eV
  | XC potential correction       :          29.93976362 Ha         814.70241979 eV
  | Free-atom electrostatic energy:        -153.61780867 Ha       -4180.15325781 eV
  | Hartree energy correction     :          -0.27350320 Ha          -7.44240085 eV
  | Entropy correction            :          -0.00000000 Ha          -0.00000000 eV
  | ---------------------------
  | Total energy                  :        -342.58439602 Ha       -9322.19572392 eV
  | Total energy, T -> 0          :        -342.58439602 Ha       -9322.19572392 eV  <-- do not rely on this value for anything but (periodic) metals
  | Electronic free energy        :        -342.58439602 Ha       -9322.19572392 eV

  Derived energy quantities:
  | Kinetic energy                :         343.55879013 Ha        9348.71033650 eV
  | Electrostatic energy          :        -662.88032362 Ha      -18037.89136351 eV
  | Energy correction for multipole
  | error in Hartree potential    :          -0.00000000 Ha          -0.00000000 eV
  | Sum of eigenvalues per atom                           :       -5316.28778814 eV
  | Total energy (T->0) per atom                          :       -9322.19572392 eV  <-- do not rely on this value for anything but (periodic) metals
  | Electronic free energy per atom                       :       -9322.19572392 eV
  Evaluating new KS density.
  Integration grid: deviation in total charge (<rho> - N_e) =   2.486900E-14
  | <rho_up-rho_dn> = N_up-N_dn =      3.0000; <|rho_up-rho_dn|> =      3.0000

  Self-consistency convergence accuracy:
  | Change of charge/spin density :  0.3089E-05  0.2525E-05
  | Change of unmixed KS charge/spin density :  0.4973E-05  0.2894E-05
  | Change of sum of eigenvalues  : -0.1609E-02 eV
  | Change of total energy        :  0.8476E-09 eV


------------------------------------------------------------
  End self-consistency iteration #     6       :  max(cpu_time)    wall_clock(cpu1)
  | Time for this iteration                     :        0.038 s           0.023 s
  | Charge density update                       :        0.005 s           0.005 s
  | Density mixing                              :        0.022 s           0.006 s
  | Hartree multipole update                    :        0.001 s           0.001 s
  | Hartree multipole summation                 :        0.001 s           0.001 s
  | Integration                                 :        0.009 s           0.009 s
  | Solution of K.-S. eqns.                     :        0.001 s           0.001 s
  | Total energy evaluation                     :        0.000 s           0.000 s

  Partial memory accounting:
  | Current value for overall tracked memory usage:
  |   Minimum:        5.495 MB (on task 0)
  |   Maximum:        5.565 MB (on task 3)
  |   Average:        5.529 MB
  | Peak value for overall tracked memory usage:
  |   Minimum:        5.643 MB (on task 0 after allocating wave)
  |   Maximum:        5.713 MB (on task 3 after allocating wave)
  |   Average:        5.677 MB
  | Largest tracked array allocation so far:
  |   Minimum:        1.794 MB (previous_rho_gradient_diff on task 0)
  |   Maximum:        1.820 MB (previous_rho_gradient_diff on task 3)
  |   Average:        1.807 MB
  Note:  These values currently only include a subset of arrays which are explicitly tracked.
  The "true" memory usage will be greater.
------------------------------------------------------------

------------------------------------------------------------
          Begin self-consistency iteration #    7

  Date     :  20260722, Time     :  145240.439
------------------------------------------------------------
  Pulay mixing of updated and previous charge densities.
  Available memory per node after mixing [GB]:   1010.64
  Renormalizing the density to the exact electron count on the 3D integration grid.
  | Formal number of electrons (from input files) :      15.0000000000
  | Integrated number of electrons on 3D grid     :      15.0000000000
  | Charge integration error                      :      -0.0000000000
  | Normalization factor for density and gradient :       1.0000000000

  Evaluating partitioned Hartree potential by multipole expansion.
  | Original multipole sum: apparent total charge =   0.243780E-13
  | Sum of charges compensated after spline to logarithmic grids =   0.942534E-07
  | Analytical far-field extrapolation by fixed multipoles:
  | Hartree multipole sum: apparent total charge =   0.243523E-13
  Summing up the Hartree potential.
  Time summed over all CPUs for potential: real work        0.001 s, elapsed        0.001 s
  | RMS charge density error from multipole expansion :   0.130557E-13

  Integrating Hamiltonian matrix: batch-based integration.
  Time summed over all CPUs for integration: real work        0.034 s, elapsed        0.035 s

  Updating Kohn-Sham eigenvalues and eigenvectors using ELSI and the ELPA eigensolver.
  Starting ELPA eigensolver
  Finished transformation to standard eigenproblem
  | Time :     0.000 s
  Finished solving standard eigenproblem
  | Time :     0.000 s
  Finished back-transformation of eigenvectors
  | Time :     0.000 s
  Starting ELPA eigensolver
  Finished transformation to standard eigenproblem
  | Time :     0.000 s
  Finished solving standard eigenproblem
  | Time :     0.000 s
  Finished back-transformation of eigenvectors
  | Time :     0.000 s

  Obtaining occupation numbers and electronic chemical potential using ELSI.
  | Note that, for insulating systems, the printed 'chemical potential' value is not uniquely defined.
  | It can be anywhere in the energy gap, as long as it correctly separates occupied and unoccupied states.
  | In systems with a gap, the physically relevant chemical potential is the VBM or HOMO.

  | Chemical potential (Fermi level):    -4.92024041 eV
  Current spin moment of the entire structure :
  | N = N_up - N_down :    3.00
  | S                 :    1.50
  | J                 :    4.00

  Highest occupied state (VBM) at     -5.93474674 eV
  | Occupation number:      1.00000000
  | Spin channel:        1

  Lowest unoccupied state (CBM) at    -3.90573408 eV
  | Occupation number:      0.00000000
  | Spin channel:        2

  Overall HOMO-LUMO gap:      2.02901266 eV.

  Total energy components:
  | Sum of eigenvalues            :        -195.36998201 Ha       -5316.28770036 eV
  | XC energy correction          :         -23.26286276 Ha        -633.01470326 eV
  | XC potential correction       :          29.93976393 Ha         814.70242812 eV
  | Free-atom electrostatic energy:        -153.61780867 Ha       -4180.15325781 eV
  | Hartree energy correction     :          -0.27350650 Ha          -7.44249062 eV
  | Entropy correction            :          -0.00000000 Ha          -0.00000000 eV
  | ---------------------------
  | Total energy                  :        -342.58439602 Ha       -9322.19572392 eV
  | Total energy, T -> 0          :        -342.58439602 Ha       -9322.19572392 eV  <-- do not rely on this value for anything but (periodic) metals
  | Electronic free energy        :        -342.58439602 Ha       -9322.19572392 eV

  Derived energy quantities:
  | Kinetic energy                :         343.55879100 Ha        9348.71036034 eV
  | Electrostatic energy          :        -662.88032426 Ha      -18037.89138101 eV
  | Energy correction for multipole
  | error in Hartree potential    :           0.00000000 Ha           0.00000000 eV
  | Sum of eigenvalues per atom                           :       -5316.28770036 eV
  | Total energy (T->0) per atom                          :       -9322.19572392 eV  <-- do not rely on this value for anything but (periodic) metals
  | Electronic free energy per atom                       :       -9322.19572392 eV

  Self-consistency convergence accuracy:
  | Change of charge/spin density :  0.2109E-06  0.2694E-06
  | Change of unmixed KS charge/spin density :  0.1582E-05  0.9800E-06
  | Change of sum of eigenvalues  :  0.8778E-04 eV
  | Change of total energy        : -0.4950E-10 eV

  Writing Kohn-Sham eigenvalues.

  Spin-up eigenvalues:

  State    Occupation    Eigenvalue [Ha]    Eigenvalue [eV]
      1       1.00000         -76.833138        -2090.73606
      2       1.00000          -6.374720         -173.46496
      3       1.00000          -4.564661         -124.21074
      4       1.00000          -4.564661         -124.21074
      5       1.00000          -4.564661         -124.21074
      6       1.00000          -0.532214          -14.48227
      7       1.00000          -0.218098           -5.93475
      8       1.00000          -0.218098           -5.93475
      9       1.00000          -0.218098           -5.93475
     10       0.00000           0.143974            3.91774
     11       0.00000           0.143974            3.91774

  Spin-down eigenvalues:

  State    Occupation    Eigenvalue [Ha]    Eigenvalue [eV]
      1       1.00000         -76.821921        -2090.43082
      2       1.00000          -6.363457         -173.15848
      3       1.00000          -4.549451         -123.79687
      4       1.00000          -4.549451         -123.79687
      5       1.00000          -4.549451         -123.79687
      6       1.00000          -0.447902          -12.18803
      7       0.00000          -0.143533           -3.90573
      8       0.00000          -0.143533           -3.90573
      9       0.00000          -0.143533           -3.90573
     10       0.00000           0.201367            5.47947
     11       0.00000           0.201367            5.47947

  Current spin moment of the entire structure :
  | N = N_up - N_down :    3.00
  | S                 :    1.50
  | J                 :    4.00

  Highest occupied state (VBM) at     -5.93474674 eV
  | Occupation number:      1.00000000
  | Spin channel:        1

  Lowest unoccupied state (CBM) at    -3.90573408 eV
  | Occupation number:      0.00000000
  | Spin channel:        2

  Overall HOMO-LUMO gap:      2.02901266 eV.

  | Chemical Potential                          :    -4.92024041 eV
  | Note that, for insulating systems, the printed 'chemical potential' value is not uniquely defined.
  | It can be anywhere in the energy gap, as long as it correctly separates occupied and unoccupied states.
  | In systems with a gap, the physically relevant chemical potential is the VBM or HOMO.

  Self-consistency cycle converged.


------------------------------------------------------------
  End self-consistency iteration #     7       :  max(cpu_time)    wall_clock(cpu1)
  | Time for this iteration                     :        0.032 s           0.013 s
  | Charge density update                       :        0.000 s           0.000 s
  | Density mixing                              :        0.020 s           0.001 s
  | Hartree multipole update                    :        0.001 s           0.001 s
  | Hartree multipole summation                 :        0.001 s           0.001 s
  | Integration                                 :        0.009 s           0.009 s
  | Solution of K.-S. eqns.                     :        0.001 s           0.000 s
  | Total energy evaluation                     :        0.000 s           0.000 s

  Partial memory accounting:
  | Current value for overall tracked memory usage:
  |   Minimum:        5.496 MB (on task 0)
  |   Maximum:        5.565 MB (on task 3)
  |   Average:        5.529 MB
  | Peak value for overall tracked memory usage:
  |   Minimum:        5.643 MB (on task 0 after allocating wave)
  |   Maximum:        5.713 MB (on task 3 after allocating wave)
  |   Average:        5.677 MB
  | Largest tracked array allocation so far:
  |   Minimum:        1.794 MB (previous_rho_gradient_diff on task 0)
  |   Maximum:        1.820 MB (previous_rho_gradient_diff on task 3)
  |   Average:        1.807 MB
  Note:  These values currently only include a subset of arrays which are explicitly tracked.
  The "true" memory usage will be greater.
------------------------------------------------------------

  Energy and forces in a compact form:
  | Total energy uncorrected      :         -0.932219572392359E+04 eV
  | Total energy corrected        :         -0.932219572392359E+04 eV  <-- do not rely on this value for anything but (periodic) metals
  | Electronic free energy        :         -0.932219572392359E+04 eV

  ------------------------------------ 
  Start decomposition of the XC Energy 
  ------------------------------------ 
  X and C from original XC functional choice 
  Hartree-Fock Energy :          0.000000000 Ha              0.000000000 eV
  X Energy            :        -22.695073911 Ha           -617.564382446 eV
  C Energy            :         -0.567788854 Ha            -15.450320810 eV
  XC Energy w/o HF    :        -23.262862764 Ha           -633.014703255 eV
  Total XC Energy     :        -23.262862764 Ha           -633.014703255 eV
  ------------------------------------ 
  LDA X and C from self-consistent density 
  X Energy LDA        :        -20.857448059 Ha           -567.560038830 eV
  C Energy LDA        :         -1.113746644 Ha            -30.306588171 eV
  ------------------------------------ 
  End decomposition of the XC Energy 
  ------------------------------------ 

------------------------------------------------------------

------------------------------------------------------------------------------
  Final output of selected total energy values:

  The following output summarizes some interesting total energy values
  at the end of a run (AFTER all relaxation, molecular dynamics, etc.).

  | Total energy of the DFT / Hartree-Fock s.c.f. calculation      :          -9322.195723924 eV
  | Final zero-broadening corrected energy (caution - metals only) :          -9322.195723924 eV
  | For reference only, the value of 1 Hartree used in FHI-aims is :             27.211384500 eV

  Before relying on these values, please be sure to understand exactly which
  total energy value is referred to by a given number. Different objects may
  all carry the same name 'total energy'. Definitions:

  Total energy of the DFT / Hartree-Fock s.c.f. calculation:
  | Note that this energy does not include ANY quantities calculated after the
  | s.c.f. cycle, in particular not ANY RPA, MP2, etc. many-body perturbation terms.

  Final zero-broadening corrected energy:
  | For metallic systems only, a broadening of the occupation numbers at the Fermi
  | level can be extrapolated back to zero broadening by an electron-gas inspired
  | formula. For all systems that are not real metals, this value can be
  | meaningless and should be avoided.

------------------------------------------------------------------------------
  Methods described in the following list of references were used in this FHI-aims run.
  If you publish the results, please make sure to cite these reference if they apply.
  FHI-aims is an academic code, and for our developers (often, Ph.D. students
  and postdocs), scientific credit in the community is essential.
  Thank you for helping us!

  For any use of FHI-aims, please cite:

    Volker Blum, Ralf Gehrke, Felix Hanke, Paula Havu, Ville Havu,
    Xinguo Ren, Karsten Reuter, and Matthias Scheffler
    'Ab initio molecular simulations with numeric atom-centered orbitals'
    Computer Physics Communications 180, 2175-2196 (2009)
    http://doi.org/10.1016/j.cpc.2009.06.022


  The ELSI infrastructure was used in your run to solve the Kohn-Sham electronic structure.
  Please check out https://wordpress.elsi-interchange.org to learn more.
  If scalability is important for your project, please acknowledge ELSI by citing:

    V. W-z. Yu, F. Corsetti, A. Garcia, W. P. Huhn, M. Jacquelin, W. Jia,
    B. Lange, L. Lin, J. Lu, W. Mi, A. Seifitokaldani, A. Vazquez-Mayagoitia,
    C. Yang, H. Yang, and V. Blum
    'ELSI: A unified software interface for Kohn-Sham electronic structure solvers'
    Computer Physics Communications 222, 267-285 (2018).
    http://doi.org/10.1016/j.cpc.2017.09.007


  For the real-space grid partitioning and parallelization used in this calculation, please cite:

    Ville Havu, Volker Blum, Paula Havu, and Matthias Scheffler,
    'Efficient O(N) integration for all-electron electronic structure calculation'
    'using numerically tabulated basis functions'
    Journal of Computational Physics 228, 8367-8379 (2009).
    http://doi.org/10.1016/j.jcp.2009.08.008

  Of course, there are many other important community references, e.g., those cited in the
  above references. Our list is limited to references that describe implementations in the
  FHI-aims code. The reason is purely practical (length of this list) - please credit others as well.
------------------------------------------------------------
Warnings summary:

At least    1 warnings were raised during execution.

------------------------------------------------------------
          Leaving FHI-aims.
          Date     :  20260722, Time     :  145240.486

          Computational steps:
          | Number of self-consistency cycles          :            7
          | Number of SCF (re)initializations          :            1

          Detailed time accounting                     :  max(cpu_time)    wall_clock(cpu1)
          | Total time                                  :        0.461 s           0.709 s
          | Preparation time                            :        0.182 s           0.182 s
          | Boundary condition initalization            :        0.001 s           0.000 s
          | Grid partitioning                           :        0.005 s           0.005 s
          | Preloading free-atom quantities on grid     :        0.007 s           0.007 s
          | Free-atom superposition energy              :        0.004 s           0.004 s
          | Total time for integrations                 :        0.073 s           0.073 s
          | Total time for solution of K.-S. equations  :        0.010 s           0.010 s
          | Total time for density update               :        0.034 s           0.035 s
          | Total time for mixing                       :        0.116 s           0.032 s
          | Total time for Hartree multipole update     :        0.006 s           0.004 s
          | Total time for Hartree multipole sum        :        0.011 s           0.011 s
          | Total time for total energy evaluation      :        0.001 s           0.001 s
          | Total time for scaled ZORA corrections      :        0.000 s           0.000 s

          Partial memory accounting:
          | Residual value for overall tracked memory usage across tasks:     0.000000 MB (should be 0.000000 MB)
          | Peak values for overall tracked memory usage:
          |   Minimum:        5.643 MB (on task 0 after allocating wave)
          |   Maximum:        5.713 MB (on task 3 after allocating wave)
          |   Average:        5.677 MB
          | Largest tracked array allocation:
          |   Minimum:        1.794 MB (previous_rho_gradient_diff on task 0)
          |   Maximum:        1.820 MB (previous_rho_gradient_diff on task 3)
          |   Average:        1.807 MB
          Note:  These values currently only include a subset of arrays which are explicitly tracked.
          The "true" memory usage will be greater.

          Have a nice day.
------------------------------------------------------------
