------------------------------------------------------------
          Invoking FHI-aims ...

          When using FHI-aims, please cite the following reference:

            Volker Blum, Ralf Gehrke, Felix Hanke, Paula Havu,
            Ville Havu, Xinguo Ren, Karsten Reuter, and Matthias Scheffler,
            'Ab Initio Molecular Simulations with Numeric Atom-Centered Orbitals',
            Computer Physics Communications 180, 2175-2196 (2009)

          In addition, many other developments in FHI-aims are likely important for
          your particular application. If so, please cite them. A partial list of references
          is written at the end of this file. Thank you for giving credit to the authors
          of these developments.

          For general information about FHI-aims please find us at

            https://fhi-aims.org

          Online tutorials can be found at

            https://fhi-aims-club.gitlab.io/tutorials/tutorials-overview/

          For any questions about FHI-aims, please visit our slack channel at

            https://fhi-aims.slack.com

          and our main development and support site at

            https://aims-git.rz-berlin.mpg.de .

          The latter site, in particular, has a wiki to collect information, as well
          as an issue tracker to log discussions, suggest improvements, and report issues
          or bugs. https://aims-git.rz-berlin.mpg.de is also the main development site
          of the project and all new and updated code versions can be obtained there.
          Please send an email to aims-coordinators@ms1p.org and we will add
          you to these sites. They are for you and everyone is welcome there.

------------------------------------------------------------



  Date     :  20260724, Time     :  132354.160
  Time zero on CPU 1             :   0.232323000000000E+00  s.
  Internal wall clock time zero  :           554131434.160  s.

  FHI-aims created a unique identifier for this run for later identification
  aims_uuid : 637BA22A-663E-450F-AB0F-B1E1F279FD9C

  Build configuration of the current instance of FHI-aims
  -------------------------------------------------------
  FHI-aims version      : 260331
  Commit number         : GITDIR-NOTFOUND
  CMake host system     : Linux-4.18.0-553.97.1.el8_10.x86_64
  CMake version         : 3.31.6
  OS Distribution       : Rocky Linux 8.10 (Green Obsidian)
  Built on              : Intel(R) Xeon(R) w5-3435X
  Fortran compiler      : /mnt/sw/nix/store/pa59vldasm7gxpr7dkijhk09q5qq63q1-openmpi-4.1.8/bin/mpifort (GNU) version 13.3.0
  Fortran compiler flags: -O2 -fallow-argument-mismatch -ffree-line-length-none
  C compiler            : /mnt/sw/nix/store/pa59vldasm7gxpr7dkijhk09q5qq63q1-openmpi-4.1.8/bin/mpicc (GNU) version 13.3.0
  C compiler flags      : -O2
  C++ compiler          : /mnt/sw/nix/store/pa59vldasm7gxpr7dkijhk09q5qq63q1-openmpi-4.1.8/bin/mpicxx (GNU) version 13.3.0
  C++ compiler flags    : -O2
  HIP compiler          :
  HIP compiler flags    :
  HIP GPU arch          :
  Using MPI
  Using ScaLAPACK
  Using LibXC
  Using i-PI
  Using RLSY
  Using GREENX
  Linking against: /mnt/sw/nix/store/dwd607jzx9m5bdd100br72s3b6g05zrf-intel-oneapi-mkl-2024.2.2/mkl/2024.2/lib/libmkl_intel_lp64.so
                   /mnt/sw/nix/store/dwd607jzx9m5bdd100br72s3b6g05zrf-intel-oneapi-mkl-2024.2.2/mkl/2024.2/lib/libmkl_sequential.so
                   /mnt/sw/nix/store/dwd607jzx9m5bdd100br72s3b6g05zrf-intel-oneapi-mkl-2024.2.2/mkl/2024.2/lib/libmkl_core.so
                   /mnt/sw/nix/store/dwd607jzx9m5bdd100br72s3b6g05zrf-intel-oneapi-mkl-2024.2.2/mkl/2024.2/lib/libmkl_blacs_openmpi_lp64.so
                   /mnt/sw/nix/store/dwd607jzx9m5bdd100br72s3b6g05zrf-intel-oneapi-mkl-2024.2.2/mkl/2024.2/lib/libmkl_scalapack_lp64.so

  Using       64 parallel tasks.
  Task        0 on host worker6004 reporting.
  Task        1 on host worker6004 reporting.
  Task        2 on host worker6004 reporting.
  Task        3 on host worker6004 reporting.
  Task        4 on host worker6004 reporting.
  Task        5 on host worker6004 reporting.
  Task        6 on host worker6004 reporting.
  Task        7 on host worker6004 reporting.
  Task        8 on host worker6004 reporting.
  Task        9 on host worker6004 reporting.
  Task       10 on host worker6004 reporting.
  Task       11 on host worker6004 reporting.
  Task       12 on host worker6004 reporting.
  Task       13 on host worker6004 reporting.
  Task       14 on host worker6004 reporting.
  Task       15 on host worker6004 reporting.
  Task       16 on host worker6004 reporting.
  Task       17 on host worker6004 reporting.
  Task       18 on host worker6004 reporting.
  Task       19 on host worker6004 reporting.
  Task       20 on host worker6004 reporting.
  Task       21 on host worker6004 reporting.
  Task       22 on host worker6004 reporting.
  Task       23 on host worker6004 reporting.
  Task       24 on host worker6004 reporting.
  Task       25 on host worker6004 reporting.
  Task       26 on host worker6004 reporting.
  Task       27 on host worker6004 reporting.
  Task       28 on host worker6004 reporting.
  Task       29 on host worker6004 reporting.
  Task       30 on host worker6004 reporting.
  Task       31 on host worker6004 reporting.
  Task       32 on host worker6051 reporting.
  Task       33 on host worker6051 reporting.
  Task       34 on host worker6051 reporting.
  Task       35 on host worker6051 reporting.
  Task       36 on host worker6051 reporting.
  Task       37 on host worker6051 reporting.
  Task       38 on host worker6051 reporting.
  Task       39 on host worker6051 reporting.
  Task       40 on host worker6051 reporting.
  Task       41 on host worker6051 reporting.
  Task       42 on host worker6051 reporting.
  Task       43 on host worker6051 reporting.
  Task       44 on host worker6051 reporting.
  Task       45 on host worker6051 reporting.
  Task       46 on host worker6051 reporting.
  Task       47 on host worker6051 reporting.
  Task       48 on host worker6051 reporting.
  Task       49 on host worker6051 reporting.
  Task       50 on host worker6051 reporting.
  Task       51 on host worker6051 reporting.
  Task       52 on host worker6051 reporting.
  Task       53 on host worker6051 reporting.
  Task       54 on host worker6051 reporting.
  Task       55 on host worker6051 reporting.
  Task       56 on host worker6051 reporting.
  Task       57 on host worker6051 reporting.
  Task       58 on host worker6051 reporting.
  Task       59 on host worker6051 reporting.
  Task       60 on host worker6051 reporting.
  Task       61 on host worker6051 reporting.
  Task       62 on host worker6051 reporting.
  Task       63 on host worker6051 reporting.

  Obtaining array dimensions for all initial allocations:
  
  -----------------------------------------------------------------------
  Parsing control.in (first pass over file, find array dimensions only).
  The contents of control.in will be repeated verbatim below
  unless switched off by setting 'verbatim_writeout .false.' .
  in the first line of control.in .
  -----------------------------------------------------------------------
  
  override_warning_libxc             True
  xc                                 pbe
  
  spin                               none
  charge                             0
  
  relativistic                       atomic_zora scalar
  atomic_solver_xc                   pbe
  ionic_solver_xc                    pbe
  
  occupation_type                    gaussian 0.01
  
  sc_accuracy_rho                    1e-06
  sc_accuracy_eev                    1e-03
  sc_accuracy_etot                   1e-06
  occupation_acc                     1e-09
  
  charge_mix_param                   0.1
  n_max_pulay                        8
  max_zeroin                         20000
  
  # Species defaults for Mg
  ################################################################################
  #
  #  FHI-aims code project
  #  Volker Blum, 2020
  #
  #  Suggested "intermediate" defaults for Mg atom (to be pasted into control.in file)
  #
  ################################################################################
    species        Mg
  #     global species definitions
      nucleus             12
      mass                24.3050
  #
      l_hartree           6
  #
      cut_pot             5.0          2.0  1.0
      basis_dep_cutoff    1e-4
  #
      radial_base         40 7.0
      radial_multiplier   2
      angular_grids       specified
        division   0.5421   50
        division   0.8500  110
        division   1.0736  194
        division   1.1879  302
        division   1.2806  434
  #      division   1.4147  590
  #      division   1.4867  770
  #      division   1.6422  974
  #      division   2.6134 1202
  #      outer_grid   974
        outer_grid  434
  ################################################################################
  #
  #  Definition of "minimal" basis
  #
  ################################################################################
  #     valence basis states
      valence      3  s   2.
      valence      2  p   6.
  #     ion occupancy
      ion_occ      2  s   2.
      ion_occ      2  p   6.
  ################################################################################
  #
  #  Suggested additional basis functions. For production calculations,
  #  uncomment them one after another (the most important basis functions are
  #  listed first).
  #
  #  Constructed for dimers: 2.125 A, 2.375 A, 2.875 A, 3.375 A, 4.5 A
  #
  ################################################################################
  #  "First tier" - improvements: -230.76 meV to -21.94 meV
       hydro 2 p 1.5
       ionic 3 d auto
       hydro 3 s 2.4
  #  "Second tier" - improvements: -5.43 meV to -1.64 meV
       hydro 4 f 4.3
  #     hydro 2 p 3.4
  #     hydro 4 s 11.2
  #     hydro 3 d 6.2
  #  "Third tier" - improvements: -0.92 meV to -0.22 meV
  #     hydro 2 s 0.6
  #     hydro 3 p 4.8
  #     hydro 4 f 7.4
  #     hydro 5 g 6.6
  #     hydro 2 p 1.6
  #     hydro 3 d 1.8
  #  "Fourth tier" - improvements: -0.09 meV to -0.05 meV
  #     hydro 4 p 0.45
  #     hydro 5 g 10.4
  #     hydro 2 s 12.4
  #     hydro 4 d 1.7
  ################################################################################
  #
  # For methods that use the localized form of the "resolution of identity" for
  # the two-electron Coulomb operator (RI_method LVL), particularly Hartree-Fock and
  # hybrid density functional calculations, the highest accuracy can be obtained by
  # uncommenting the line beginning with "for_aux"  below, thus adding an extra g radial
  # function to the construction of the product basis set for the expansion.
  # See Ref. New J. Phys. 17, 093020 (2015) for more information, particularly Figs. 1 and 6.
  #
  ################################################################################
  #
  # for_aux hydro 5 g 6.0
  
  # Species defaults for S
  ################################################################################
  #
  #  FHI-aims code project
  #  Volker Blum, 2018
  #
  #  Suggested "intermediate" defaults for S atom (to be pasted into control.in file)
  #
  ################################################################################
    species        S
  #     global species definitions
      nucleus             16
      mass                32.065
  #
      l_hartree           6
  #
      cut_pot             4.0          2.0  1.0
      basis_dep_cutoff    1e-4
  #
      radial_base         44 7.0
      radial_multiplier   2
      angular_grids       specified
        division   0.4665  110
        division   0.5810  194
        division   0.7139  302
        division   0.8274  434
  #      division   0.9105  590
  #      division   1.0975  770
  #      division   1.2028  974
  #      outer_grid  974
        outer_grid  434
  ################################################################################
  #
  #  Definition of "minimal" basis
  #
  ################################################################################
  #     valence basis states
      valence      3  s   2.
      valence      3  p   4.
  #     ion occupancy
      ion_occ      3  s   1.
      ion_occ      3  p   3.
  ################################################################################
  #
  #  Suggested additional basis functions. For production calculations,
  #  uncomment them one after another (the most important basis functions are
  #  listed first).
  #
  #  Constructed for dimers: 1.6 A, 1.9 A, 2.5 A, 3.25 A, 4.0 A
  #
  ################################################################################
  #  "First tier" - improvements: -652.81 meV to -45.53 meV
       ionic 3 d auto
       hydro 2 p 1.8
       hydro 4 f 7
       ionic 3 s auto
  #  "Second tier" - improvements: -30.20 meV to -1.74 meV
  #     hydro 4 d 6.2
  for_aux     hydro 5 g 10.8
  #     hydro 4 p 4.9
  #     hydro 5 f 10
  #     hydro 1 s 0.8
  #  "Third tier" - improvements: -1.04 meV to -0.20 meV
  #     hydro 3 d 3.9
  #     hydro 3 d 2.7
  #     hydro 5 g 12
  #     hydro 4 p 10.4
  #     hydro 5 f 12.4
  #     hydro 2 s 1.9
  #  "Fourth tier" - improvements: -0.35 meV to -0.06 meV
  #     hydro 4 d 10.4
  #     hydro 4 p 7.2
  #     hydro 4 d 10
  #     hydro 5 g 19.2
  #     hydro 4 s 12
  
  
  -----------------------------------------------------------------------
  Completed first pass over input file control.in .
  -----------------------------------------------------------------------
  
  
  -----------------------------------------------------------------------
  Parsing geometry.in (first pass over file, find array dimensions only).
  The contents of geometry.in will be repeated verbatim below
  unless switched off by setting 'verbatim_writeout .false.' .
  in the first line of geometry.in .
  -----------------------------------------------------------------------
  
  #===============================================================================
  # Created using the Atomic Simulation Environment (ASE)
  
  # Fri Jul 24 11:24:17 2026
  
  #=======================================================
  atom 0.0000000000000000 0.0000000000000000 -1.3250000000000000 Mg
  atom 0.0000000000000000 0.0000000000000000 1.3250000000000000 S
  
  -----------------------------------------------------------------------
  Completed first pass over input file geometry.in .
  -----------------------------------------------------------------------
  

  Basic array size parameters:
  | Number of species                 :        2
  | Number of atoms                   :        2
  | Max. basis fn. angular momentum   :        4
  | Max. atomic/ionic basis occupied n:        3
  | Max. number of basis fn. types    :        3
  | Max. radial fns per species/type  :        5
  | Max. logarithmic grid size        :     1357
  | Max. radial integration grid size :       89
  | Max. angular integration grid size:      434
  | Max. angular grid division number :        8
  | Radial grid for Hartree potential :     1357
  | Number of spin channels           :        1

  Definition of standardized fundamental physical constants in this FHI-aims run:
  | Using the set of values used in FHI-aims up to 2024, which combines values from
  | different CODATA sets - see constants.f90.
  | Use the 'codata' keyword in control.in to change this selection.

  Memory overcommitment is allowed on your operating system.

------------------------------------------------------------
          Reading file control.in.
------------------------------------------------------------
  XC: Using PBE gradient-corrected functionals.
  Spin treatment: No spin polarisation.
  Charge =   0.000000E+00: Neutral system requested explicitly.
  Scalar relativistic treatment of kinetic energy: on-site free-atom approximation to ZORA.
  Atomic Solver XC: Using user-defined functional for generating the minimal NAO basis functions.
  Note that only the following functionals are available: kli, pz-lda, pw-lda, vwn, vwn-gauss, pw91_gga, pbe, rpbe, revpbe, pbeint, pbesol, blyp.
  Ionic Solver XC: Using user-defined functional for generating the minimal NAO basis functions.
  Note that only the following functionals are available: kli, pz-lda, pw-lda, vwn, vwn-gauss, pw91_gga, pbe, rpbe, revpbe, pbeint, pbesol, blyp.
  Occupation type: Gaussian broadening, width =   0.100000E-01 eV.
  Convergence accuracy of self-consistent charge density:  0.1000E-05
  Convergence accuracy of sum of eigenvalues:  0.1000E-02
  Convergence accuracy of total energy:  0.1000E-05
  Accuracy of occupation numbers  :  0.1000E-08
  Charge density mixing - mixing parameter:     0.1000
  Pulay mixing - number of memorized iterations:    8
  Maximum # of zeroin steps  : ****

  Reading configuration options for species Mg                  .
  | Found nuclear charge :  12.0000
  | Found atomic mass :    24.305000000000000      amu
  | Found l_max for Hartree potential  :   6
  | Found cutoff potl. onset [A], width [A], scale factor :    5.00000    2.00000    1.00000
  | Threshold for basis-dependent cutoff potential is   0.100000E-03
  | Found data for basic radial integration grid :    40 points, outermost radius =    7.000 A
  | Found multiplier for basic radial grid :   2
  | Found angular grid specification: user-specified.
  | Specified grid contains     6 separate shells.
  | Check grid settings after all constraints further below.
  | Found free-atom valence shell :  3 s   2.000
  | Found free-atom valence shell :  2 p   6.000
  | Found free-ion valence shell :  2 s   2.000
  | Found free-ion valence shell :  2 p   6.000
  | Found hydrogenic basis function :  2 p   1.500
  | Found ionic basis function :  3 d , default cutoff radius.
  | Found hydrogenic basis function :  3 s   2.400
  | Found hydrogenic basis function :  4 f   4.300
 | Encountered keyword species, ending the description of species Mg                  .
  Species Mg                  : Missing cutoff potential type.
  Defaulting to exp(1/x)/(1-x)^2 type cutoff potential.
  Species Mg: No 'logarithmic' tag. Using default grid for free atom:
  | Default logarithmic grid data [bohr] : 0.1000E-03 0.1000E+03 0.1012E+01
  | Will include ionic basis functions of  2.0-fold positive Mg                   ion.
  Species Mg: On-site basis accuracy parameter (for Gram-Schmidt orthonormalisation) not specified.
  Using default value basis_acc =  0.1000000E-03.
  Species Mg                  : Using default innermost maximum threshold i_radial=  2 for radial functions.
  Species Mg                  : Default cutoff onset for free atom density etc. : 0.50000000E+01 AA.
  Species Mg                  : Basic radial grid will be enhanced according to radial_multiplier =   2, to contain    81 grid points.

  Reading configuration options for species S                   .
  | Found nuclear charge :  16.0000
  | Found atomic mass :    32.064999999999998      amu
  | Found l_max for Hartree potential  :   6
  | Found cutoff potl. onset [A], width [A], scale factor :    4.00000    2.00000    1.00000
  | Threshold for basis-dependent cutoff potential is   0.100000E-03
  | Found data for basic radial integration grid :    44 points, outermost radius =    7.000 A
  | Found multiplier for basic radial grid :   2
  | Found angular grid specification: user-specified.
  | Specified grid contains     5 separate shells.
  | Check grid settings after all constraints further below.
  | Found free-atom valence shell :  3 s   2.000
  | Found free-atom valence shell :  3 p   4.000
  | Found free-ion valence shell :  3 s   1.000
  | Found free-ion valence shell :  3 p   3.000
  | Found ionic basis function :  3 d , default cutoff radius.
  | Found hydrogenic basis function :  2 p   1.800
  | Found hydrogenic basis function :  4 f   7.000
  | Found ionic basis function :  3 s , default cutoff radius.
  | Found hydrogenic extended basis function :  5 g  10.800
  Species S                   : Missing cutoff potential type.
  Defaulting to exp(1/x)/(1-x)^2 type cutoff potential.
  Species S : No 'logarithmic' tag. Using default grid for free atom:
  | Default logarithmic grid data [bohr] : 0.1000E-03 0.1000E+03 0.1012E+01
  | Will include ionic basis functions of  2.0-fold positive S                    ion.
  Species S : On-site basis accuracy parameter (for Gram-Schmidt orthonormalisation) not specified.
  Using default value basis_acc =  0.1000000E-03.
  Species S                   : Using default innermost maximum threshold i_radial=  2 for radial functions.
  Species S                   : Default cutoff onset for free atom density etc. : 0.40000000E+01 AA.
  Species S                   : Basic radial grid will be enhanced according to radial_multiplier =   2, to contain    89 grid points.

  Finished reading input file 'control.in'.

------------------------------------------------------------


------------------------------------------------------------
          Reading geometry description geometry.in.
------------------------------------------------------------
  | The smallest distance between any two atoms is         2.65000000 AA.
  | The first atom of this pair is atom number                      1 .
  | The second atom of this pair is atom number                     2 .
  Input structure read successfully.
  The structure contains        2 atoms,  and a total of         28.000 electrons.

  Input geometry:
  | No unit cell requested.
  | Atomic structure:
  |       Atom                x [A]            y [A]            z [A]
  |    1: Species Mg            0.00000000        0.00000000       -1.32500000
  |    2: Species S             0.00000000        0.00000000        1.32500000

  Slab Identifier: This is not a periodic structure.

  Finished reading input file 'geometry.in'.



  Consistency checks for stacksize environment parameter are next.

  | Maximum stacksize for task 0: unlimited
  | Maximum stacksize for task 1: unlimited
  | Maximum stacksize for task 2: unlimited
  | Maximum stacksize for task 3: unlimited
  | Maximum stacksize for task 4: unlimited
  | Maximum stacksize for task 5: unlimited
  | Maximum stacksize for task 6: unlimited
  | Maximum stacksize for task 7: unlimited
  | Maximum stacksize for task 8: unlimited
  | Maximum stacksize for task 9: unlimited
  | Maximum stacksize for task 10: unlimited
  | Maximum stacksize for task 11: unlimited
  | Maximum stacksize for task 12: unlimited
  | Maximum stacksize for task 13: unlimited
  | Maximum stacksize for task 14: unlimited
  | Maximum stacksize for task 15: unlimited
  | Maximum stacksize for task 16: unlimited
  | Maximum stacksize for task 17: unlimited
  | Maximum stacksize for task 18: unlimited
  | Maximum stacksize for task 19: unlimited
  | Maximum stacksize for task 20: unlimited
  | Maximum stacksize for task 21: unlimited
  | Maximum stacksize for task 22: unlimited
  | Maximum stacksize for task 23: unlimited
  | Maximum stacksize for task 24: unlimited
  | Maximum stacksize for task 25: unlimited
  | Maximum stacksize for task 26: unlimited
  | Maximum stacksize for task 27: unlimited
  | Maximum stacksize for task 28: unlimited
  | Maximum stacksize for task 29: unlimited
  | Maximum stacksize for task 30: unlimited
  | Maximum stacksize for task 31: unlimited
  | Maximum stacksize for task 32: unlimited
  | Maximum stacksize for task 33: unlimited
  | Maximum stacksize for task 34: unlimited
  | Maximum stacksize for task 35: unlimited
  | Maximum stacksize for task 36: unlimited
  | Maximum stacksize for task 37: unlimited
  | Maximum stacksize for task 38: unlimited
  | Maximum stacksize for task 39: unlimited
  | Maximum stacksize for task 40: unlimited
  | Maximum stacksize for task 41: unlimited
  | Maximum stacksize for task 42: unlimited
  | Maximum stacksize for task 43: unlimited
  | Maximum stacksize for task 44: unlimited
  | Maximum stacksize for task 45: unlimited
  | Maximum stacksize for task 46: unlimited
  | Maximum stacksize for task 47: unlimited
  | Maximum stacksize for task 48: unlimited
  | Maximum stacksize for task 49: unlimited
  | Maximum stacksize for task 50: unlimited
  | Maximum stacksize for task 51: unlimited
  | Maximum stacksize for task 52: unlimited
  | Maximum stacksize for task 53: unlimited
  | Maximum stacksize for task 54: unlimited
  | Maximum stacksize for task 55: unlimited
  | Maximum stacksize for task 56: unlimited
  | Maximum stacksize for task 57: unlimited
  | Maximum stacksize for task 58: unlimited
  | Maximum stacksize for task 59: unlimited
  | Maximum stacksize for task 60: unlimited
  | Maximum stacksize for task 61: unlimited
  | Maximum stacksize for task 62: unlimited
  | Maximum stacksize for task 63: unlimited
  | Current stacksize for task 0: unlimited
  | Current stacksize for task 1: unlimited
  | Current stacksize for task 2: unlimited
  | Current stacksize for task 3: unlimited
  | Current stacksize for task 4: unlimited
  | Current stacksize for task 5: unlimited
  | Current stacksize for task 6: unlimited
  | Current stacksize for task 7: unlimited
  | Current stacksize for task 8: unlimited
  | Current stacksize for task 9: unlimited
  | Current stacksize for task 10: unlimited
  | Current stacksize for task 11: unlimited
  | Current stacksize for task 12: unlimited
  | Current stacksize for task 13: unlimited
  | Current stacksize for task 14: unlimited
  | Current stacksize for task 15: unlimited
  | Current stacksize for task 16: unlimited
  | Current stacksize for task 17: unlimited
  | Current stacksize for task 18: unlimited
  | Current stacksize for task 19: unlimited
  | Current stacksize for task 20: unlimited
  | Current stacksize for task 21: unlimited
  | Current stacksize for task 22: unlimited
  | Current stacksize for task 23: unlimited
  | Current stacksize for task 24: unlimited
  | Current stacksize for task 25: unlimited
  | Current stacksize for task 26: unlimited
  | Current stacksize for task 27: unlimited
  | Current stacksize for task 28: unlimited
  | Current stacksize for task 29: unlimited
  | Current stacksize for task 30: unlimited
  | Current stacksize for task 31: unlimited
  | Current stacksize for task 32: unlimited
  | Current stacksize for task 33: unlimited
  | Current stacksize for task 34: unlimited
  | Current stacksize for task 35: unlimited
  | Current stacksize for task 36: unlimited
  | Current stacksize for task 37: unlimited
  | Current stacksize for task 38: unlimited
  | Current stacksize for task 39: unlimited
  | Current stacksize for task 40: unlimited
  | Current stacksize for task 41: unlimited
  | Current stacksize for task 42: unlimited
  | Current stacksize for task 43: unlimited
  | Current stacksize for task 44: unlimited
  | Current stacksize for task 45: unlimited
  | Current stacksize for task 46: unlimited
  | Current stacksize for task 47: unlimited
  | Current stacksize for task 48: unlimited
  | Current stacksize for task 49: unlimited
  | Current stacksize for task 50: unlimited
  | Current stacksize for task 51: unlimited
  | Current stacksize for task 52: unlimited
  | Current stacksize for task 53: unlimited
  | Current stacksize for task 54: unlimited
  | Current stacksize for task 55: unlimited
  | Current stacksize for task 56: unlimited
  | Current stacksize for task 57: unlimited
  | Current stacksize for task 58: unlimited
  | Current stacksize for task 59: unlimited
  | Current stacksize for task 60: unlimited
  | Current stacksize for task 61: unlimited
  | Current stacksize for task 62: unlimited
  | Current stacksize for task 63: unlimited

  Consistency checks for the contents of control.in are next.

  MPI_IN_PLACE appears to work with this MPI implementation.
  | Keeping use_mpi_in_place .true. (see manual).
  Target number of points in a grid batch is not set. Defaulting to  100
  Method for grid partitioning is not set. Defaulting to parallel hash+maxmin partitioning.
  Batch size limit is not set. Defaulting to    200
  By default, will store active basis functions for each batch.
  If in need of memory, prune_basis_once .false. can be used to disable this option.
  communication_type for Hartree potential was not specified.
  Defaulting to calc_hartree .
  Defaulting to Pulay charge density mixer.
  Pulay mixer: Number of initial linear mixing iterations not set.
  Defaulting to    0 iterations.
  Work space size for distributed Hartree potential not set.
  Defaulting to   0.200000E+03 MB.
  Algorithm-dependent basis array size parameters:
  | n_max_pulay                         :        8
  Maximum number of self-consistency iterations not provided.
  Presetting  1000 iterations.
  Presetting      1001 iterations before the initial mixing cycle
  is restarted anyway using the sc_init_iter criterion / keyword.
  Presetting a factor      1.000 between actual scf density residual
  and density convergence criterion sc_accuracy_rho below which sc_init_iter
  takes no effect.
  Calculation of forces was not defined in control.in. No forces will be calculated.
  Geometry relaxation not requested: no relaxation will be performed.
  No accuracy limit for integral partition fn. given. Defaulting to  0.1000E-14.
  No threshold value for u(r) in integrations given. Defaulting to  0.1000E-05.
  No threshold value for occupation numbers given. Defaulting to  0.0000E+00.
  No accuracy for fermi level given. Defaulting to  0.1000E-19.
  Preferred method for the eigenvalue solver ('KS_method') not specified in 'control.in'.
  Calling BLACS routine to test compilation state
  Since ScaLAPACK support is enabled, defaulting to ELPA (via ELSI).
  Threshold for basis singularities not set.
  Default threshold for basis singularities:  0.1000E-04
  partition_type (choice of integration weights) for integrals was not specified.
  | Using a version of the partition function of Stratmann and coworkers ('stratmann_sparse').
  | At each grid point, the set of atoms used to build the partition table is smoothly restricted to
  | only those atoms whose free-atom density would be non-zero at that grid point.
  Partitioning for Hartree potential was not defined. Using partition_type for integrals.
  | Adjusted default value of keyword multip_moments_threshold to:       0.10000000E-11
  | This value may affect high angular momentum components of the Hartree potential in periodic systems.
  No q(lm)/r^(l+1) cutoff set for long-range Hartree potential.
  | Using default value of  0.100000E-09 .
  | Verify using the multipole_threshold keyword.
  Defaulting to new monopole extrapolation.
  Density update method: automatic selection selected.
  Charge integration errors on the 3D integration grid will be compensated
  by explicit normalization and distribution of residual charges.
  Use the "compensate_multipole_errors" flag to change this behaviour.
  Set 'collect_eigenvectors' to be '.true.' for use_density_matrix .false.
  Found potential conflicts with setting 'use_local_index' for this calculation. Will not set it.

  Consistency checks for the contents of geometry.in are next.

  Number of empty states per atom not set in control.in - providing a guess from actual geometry.
  | Total number of empty states used during s.c.f. cycle:        6
  If you use a very high smearing, use empty_states (per atom!) in control.in to increase this value.

  Structure-dependent array size parameters: 
  | Maximum number of distinct radial functions  :       18
  | Maximum number of basis functions            :       56
  | Number of Kohn-Sham states (occupied + empty):       20
------------------------------------------------------------
  After read_input_data [GB]:   1008.53

  Performing system and environment tests:
  | Environment variable OMP_NUM_THREADS correctly set to 1.
  | Checking for ScaLAPACK...
  | Testing pdtran()...
  *** WARNING: CPU mismatch detected for Node worker6051 : Intel(R) Xeon(R) Platinum 8362 CPU @ 2.80GHz                                                 
  | All pdtran() tests passed.
  | Testing CPU compatibility for run-time vs. build-time.
  | Reading /proc/cpuinfo for CPU information ...
  | Built for  : Intel(R) Xeon(R) w5-3435X
  *** WARNING: CPU mismatch detected for Node worker6004 : Intel(R) Xeon(R) Platinum 8362 CPU @ 2.80GHz                                                 
** WARNING:
  | WARNING: This FHI-aims executable was built on a different
  CPU type than the CPUs used in this run.

  | Running on different hardware than that on which a code was compiled
  | can produce incorrect results (wrong numbers) due to architecture-specific
  | optimizations made by the compiler. Those wrong numbers may occur only spuriously.
  | They are therefore very difficult to rule out even by tests ahead of time.

** END OF WARNING
  | Running on : Intel(R) Xeon(R) Platinum 8362 CPU @ 2.80GHz
  | Runtime CPU compatibility verified.
  
  After prepare_system [GB]:   1008.53

------------------------------------------------------------
          Preparing all fixed parts of the calculation.
------------------------------------------------------------
  Determining machine precision:
     2.2250738585072014E-308
  Setting up grids for atomic and cluster calculations.

  Creating wave function, potential, and density for free atoms.
  Runtime choices for atomic solver:
  | atomic solver xc        : PBE
  | compute density gradient: 1
  | compute kinetic density : F

  Species: Mg

  List of occupied orbitals and eigenvalues:
    n    l              occ      energy [Ha]    energy [eV]
    1    0           2.0000       -46.365569     -1261.6713
    2    0           2.0000        -2.933660       -79.8290
    3    0           2.0000        -0.172310        -4.6888
    2    1           6.0000        -1.712180       -46.5908


  Species: S

  List of occupied orbitals and eigenvalues:
    n    l              occ      energy [Ha]    energy [eV]
    1    0           2.0000       -88.680731     -2413.1255
    2    0           2.0000        -7.781719      -211.7513
    3    0           2.0000        -0.633662       -17.2428
    2    1           6.0000        -5.751976      -156.5192
    3    1           4.0000        -0.257086        -6.9957


  Adding cutoff potential to free-atom effective potential.
  Creating fixed part of basis set: Ionic, confined, hydrogenic.

  Mg                   ion:
  Runtime choices for ionic solver:
  | ionic solver xc        : PBE

  List of free ionic orbitals and eigenvalues:
    n    l      energy [Ha]    energy [eV]
    1    0       -47.122987     -1282.2817
    2    0        -3.674099       -99.9773
    2    1        -2.451441       -66.7071


  List of ionic basis orbitals and eigenvalues:
    n    l      energy [Ha]    energy [eV]    outer radius [A]
    3    2        -0.259283        -7.0555       6.433556


  Mg                   hydrogenic:

  List of hydrogenic basis orbitals: 
    n    l      effective z      eigenvalue [eV]  inner max. [A]     outer max. [A]     outer radius [A]   
    2    1         1.500000        -7.6477           1.412879           1.412879           6.433556
    3    0         2.400000        -8.6076           0.162319           2.871052           6.433556
    4    3         4.300000       -15.7168           1.965416           1.965416           6.433556


  S                    ion:
  Runtime choices for ionic solver:
  | ionic solver xc        : PBE

  List of free ionic orbitals and eigenvalues:
    n    l      energy [Ha]    energy [eV]
    1    0       -89.703778     -2440.9640
    2    0        -8.775428      -238.7916
    3    0        -1.470343       -40.0101
    2    1        -6.747660      -183.6132
    3    1        -1.048627       -28.5346


  List of ionic basis orbitals and eigenvalues:
    n    l      energy [Ha]    energy [eV]    outer radius [A]
    3    2        -0.495605       -13.4861       5.386362
    3    0        -1.470336       -40.0099       3.967934


  S                    hydrogenic:

  List of hydrogenic basis orbitals: 
    n    l      effective z      eigenvalue [eV]  inner max. [A]     outer max. [A]     outer radius [A]   
    2    1         1.800000       -11.0118           1.168531           1.168531           5.452614
    4    3         7.000000       -41.6672           1.212182           1.212182           5.066981

  List of extra hydrogenic orbitals for auxiliary basis: 
    n    l      effective z      eigenvalue [eV]  inner max. [A]     outer max. [A]     outer radius [A]   
    5    4        10.800000       -63.4785           1.227092           1.227092           4.766538

  Creating atomic-like basis functions for current effective potential.

  Species Mg                  :

  List of atomic basis orbitals and eigenvalues:
    n    l      energy [Ha]    energy [eV]    outer radius [A]
    1    0       -46.365569     -1261.6713       0.921046
    2    0        -2.933660       -79.8290       3.621735
    3    0        -0.172310        -4.6888       6.355385
    2    1        -1.712180       -46.5908       4.513184


  Species S                   :

  List of atomic basis orbitals and eigenvalues:
    n    l      energy [Ha]    energy [eV]    outer radius [A]
    1    0       -88.680731     -2413.1255       0.682391
    2    0        -7.781719      -211.7513       2.289014
    3    0        -0.633662       -17.2428       5.256262
    2    1        -5.751976      -156.5192       2.555240
    3    1        -0.257086        -6.9957       5.386362

  Assembling full basis from fixed parts.
  | Species Mg :   atomic orbital   1 s accepted.
  | Species Mg :   atomic orbital   2 s accepted.
  | Species Mg :   atomic orbital   3 s accepted.
  | Species Mg :    hydro orbital   3 s accepted.
  | Species Mg :   atomic orbital   2 p accepted.
  | Species Mg :    hydro orbital   2 p accepted.
  | Species Mg :    ionic orbital   3 d accepted.
  | Species Mg :    hydro orbital   4 f accepted.
  | Species S :   atomic orbital   1 s accepted.
  | Species S :   atomic orbital   2 s accepted.
  | Species S :    ionic orbital   3 s accepted.
  | Species S :   atomic orbital   3 s accepted.
  | Species S :   atomic orbital   2 p accepted.
  | Species S :   atomic orbital   3 p accepted.
  | Species S :    hydro orbital   2 p accepted.
  | Species S :    ionic orbital   3 d accepted.
  | Species S :    hydro orbital   4 f accepted.

  Basis size parameters after reduction:
  | Total number of radial functions:       17
  | Total number of basis functions :       47

  Assembling extended basis for auxiliary basis.
  | Species Mg :   atomic orbital   1 s accepted.
  | Species Mg :   atomic orbital   2 s accepted.
  | Species Mg :   atomic orbital   3 s accepted.
  | Species Mg :    hydro orbital   3 s accepted.
  | Species Mg :   atomic orbital   2 p accepted.
  | Species Mg :    hydro orbital   2 p accepted.
  | Species Mg :    ionic orbital   3 d accepted.
  | Species Mg :    hydro orbital   4 f accepted.
  | Species S :   atomic orbital   1 s accepted.
  | Species S :   atomic orbital   2 s accepted.
  | Species S :    ionic orbital   3 s accepted.
  | Species S :   atomic orbital   3 s accepted.
  | Species S :   atomic orbital   2 p accepted.
  | Species S :   atomic orbital   3 p accepted.
  | Species S :    hydro orbital   2 p accepted.
  | Species S :    ionic orbital   3 d accepted.
  | Species S :    hydro orbital   4 f accepted.
  | Species S :    hydro orbital   5 g accepted.
  Per-task memory consumption for arrays in subroutine allocate_ext:
  |           6.255480MB.

  Extended basis size parameters after reduction:
  | Total number of radial functions:       18
  | Total number of basis functions :       56

  Testing on-site integration grid accuracy.
  |  Species  Function  <phi|h_atom|phi> (log., in eV)  <phi|h_atom|phi> (rad., in eV)
           1        1              -1261.6713144217              -1261.6712951503
           1        2                -79.8289566456                -79.8289563655
           1        3                 -4.6894386927                 -4.6894729286
           1        4                  2.7139619174                  2.7132242579
           1        5                -46.5907827003                -46.5907826271
           1        6                 -0.7507207593                 -0.7507919905
           1        7                  3.3999512831                  3.3997485406
           1        8                  9.9571857057                  9.9570610405
           2        9              -2413.1254568977              -2413.1254096663
           2       10               -211.7513411281               -211.7513404762
           2       11                -16.9725280787                -16.9725279206
           2       12                  7.6024436204                  7.6024549059
           2       13               -156.5192206929               -156.5192205451
           2       14                 -6.9959757887                 -6.9959777655
           2       15                  6.8896462808                  6.8895564741
           2       16                  6.0214250550                  6.0214220200
           2       17                 24.7008710786                 24.7008710738

  Preparing densities etc. for the partition functions (integrals / Hartree potential).

  Preparations completed.
  max(cpu_time)          :      0.202 s.
  Wall clock time (cpu1) :      0.578 s.
------------------------------------------------------------
  After prepare_scf [GB]:   1007.78

  Initializing index lists of integration centers etc. from given atomic structure:
  | Number of centers in hartree potential                       :         2
  | Number of centers in hartree multipole                       :         2
  | Number of centers in electron density summation              :         2
  | Number of centers in basis integrals                         :         2
  | Number of centers in integrals                               :         2
  | Number of centers in hamiltonian                             :         2
  | Number of centers in partition table from touching 0-cell    :         2
  | Number of centers in partition table total                   :         2
  After initialize_bc_dependent_lists [GB]:   1007.78

------------------------------------------------------------
          Begin self-consistency loop: Initialization.

          Date     :  20260724, Time     :  132355.012
------------------------------------------------------------
  Available memory per node after initialize_hartree_non_periodic_ewald [GB]:   1007.78
  Available memory per node after initialize_recip_hartree_potential [GB]:   1007.78
  * Using 64 tasks for Scalapack Eigenvalue solver.
  Detailed listing of tasks and assigned k-points:
  (for non-periodic systems, the "k-point" denotes an internal label only)
   Task     0 k-point     1 on worker6004
   Task     1 k-point     1 on worker6004
   Task     2 k-point     1 on worker6004
   Task     3 k-point     1 on worker6004
   Task     4 k-point     1 on worker6004
   Task     5 k-point     1 on worker6004
   Task     6 k-point     1 on worker6004
   Task     7 k-point     1 on worker6004
   Task     8 k-point     1 on worker6004
   Task     9 k-point     1 on worker6004
   Task    10 k-point     1 on worker6004
   Task    11 k-point     1 on worker6004
   Task    12 k-point     1 on worker6004
   Task    13 k-point     1 on worker6004
   Task    14 k-point     1 on worker6004
   Task    15 k-point     1 on worker6004
   Task    16 k-point     1 on worker6004
   Task    17 k-point     1 on worker6004
   Task    18 k-point     1 on worker6004
   Task    19 k-point     1 on worker6004
   Task    20 k-point     1 on worker6004
   Task    21 k-point     1 on worker6004
   Task    22 k-point     1 on worker6004
   Task    23 k-point     1 on worker6004
   Task    24 k-point     1 on worker6004
   Task    25 k-point     1 on worker6004
   Task    26 k-point     1 on worker6004
   Task    27 k-point     1 on worker6004
   Task    28 k-point     1 on worker6004
   Task    29 k-point     1 on worker6004
   Task    30 k-point     1 on worker6004
   Task    31 k-point     1 on worker6004
   Task    32 k-point     1 on worker6051
   Task    33 k-point     1 on worker6051
   Task    34 k-point     1 on worker6051
   Task    35 k-point     1 on worker6051
   Task    36 k-point     1 on worker6051
   Task    37 k-point     1 on worker6051
   Task    38 k-point     1 on worker6051
   Task    39 k-point     1 on worker6051
   Task    40 k-point     1 on worker6051
   Task    41 k-point     1 on worker6051
   Task    42 k-point     1 on worker6051
   Task    43 k-point     1 on worker6051
   Task    44 k-point     1 on worker6051
   Task    45 k-point     1 on worker6051
   Task    46 k-point     1 on worker6051
   Task    47 k-point     1 on worker6051
   Task    48 k-point     1 on worker6051
   Task    49 k-point     1 on worker6051
   Task    50 k-point     1 on worker6051
   Task    51 k-point     1 on worker6051
   Task    52 k-point     1 on worker6051
   Task    53 k-point     1 on worker6051
   Task    54 k-point     1 on worker6051
   Task    55 k-point     1 on worker6051
   Task    56 k-point     1 on worker6051
   Task    57 k-point     1 on worker6051
   Task    58 k-point     1 on worker6051
   Task    59 k-point     1 on worker6051
   Task    60 k-point     1 on worker6051
   Task    61 k-point     1 on worker6051
   Task    62 k-point     1 on worker6051
   Task    63 k-point     1 on worker6051
  Tasks:    64 split into      8 X      8 BLACS grid
  Calculating block size based on n_basis =           47  max_nprow =            8  max_npcol =            8
  ScaLAPACK block size set to:            4
  Allocating        0.000 MB for ovlp
  Allocating        0.000 MB for ham
  Allocating        0.000 MB for eigenvec
  Required Scalapack workspace - INTEGER:            1  REAL:             1
  Available memory per node after initialize_scalapack [GB]:   1007.78
  Available memory per node after aims_elsi_init_scf [GB]:   1007.78
  Available memory per node after initialize_fixed_grids [GB]:   1007.78
  Partitioning the integration grid into batches with parallel hashing+maxmin method.
  | Number of batches:      579
  | Maximal batch size:     145
  | Minimal batch size:       1
  | Average batch size:      71.489
  | Standard deviation of batch sizes:      21.957

  Integration load balanced across    64 MPI tasks.
  Work distribution over tasks is as follows:
  Task     0 has        645 integration points.
  Task     1 has        657 integration points.
  Task     2 has        651 integration points.
  Task     3 has        722 integration points.
  Task     4 has        664 integration points.
  Task     5 has        607 integration points.
  Task     6 has        618 integration points.
  Task     7 has        612 integration points.
  Task     8 has        653 integration points.
  Task     9 has        663 integration points.
  Task    10 has        646 integration points.
  Task    11 has        656 integration points.
  Task    12 has        654 integration points.
  Task    13 has        615 integration points.
  Task    14 has        612 integration points.
  Task    15 has        660 integration points.
  Task    16 has        607 integration points.
  Task    17 has        643 integration points.
  Task    18 has        705 integration points.
  Task    19 has        618 integration points.
  Task    20 has        616 integration points.
  Task    21 has        662 integration points.
  Task    22 has        622 integration points.
  Task    23 has        649 integration points.
  Task    24 has        643 integration points.
  Task    25 has        614 integration points.
  Task    26 has        619 integration points.
  Task    27 has        604 integration points.
  Task    28 has        605 integration points.
  Task    29 has        665 integration points.
  Task    30 has        667 integration points.
  Task    31 has        615 integration points.
  Task    32 has        621 integration points.
  Task    33 has        640 integration points.
  Task    34 has        647 integration points.
  Task    35 has        723 integration points.
  Task    36 has        616 integration points.
  Task    37 has        651 integration points.
  Task    38 has        651 integration points.
  Task    39 has        668 integration points.
  Task    40 has        673 integration points.
  Task    41 has        676 integration points.
  Task    42 has        646 integration points.
  Task    43 has        615 integration points.
  Task    44 has        657 integration points.
  Task    45 has        649 integration points.
  Task    46 has        716 integration points.
  Task    47 has        659 integration points.
  Task    48 has        612 integration points.
  Task    49 has        670 integration points.
  Task    50 has        640 integration points.
  Task    51 has        639 integration points.
  Task    52 has        660 integration points.
  Task    53 has        646 integration points.
  Task    54 has        611 integration points.
  Task    55 has        671 integration points.
  Task    56 has        648 integration points.
  Task    57 has        667 integration points.
  Task    58 has        647 integration points.
  Task    59 has        655 integration points.
  Task    60 has        606 integration points.
  Task    61 has        667 integration points.
  Task    62 has        713 integration points.
  Task    63 has        643 integration points.
  Available memory per node after partition_grid [GB]:   1007.45
  Initializing partition tables, free-atom densities, potentials, etc. across the integration grid (initialize_grid_storage).
  | initialize_grid_storage: Actual outermost partition radius vs. multipole_radius_free
  | (-- VB: in principle, multipole_radius_free should be larger, hence this output)
  | Species        1: Confinement radius =              7.000000000000000 AA, multipole_radius_free =              7.008349926986249 AA.
  | Species        1: outer_partition_radius set to              7.008349926986249 AA .
  | Species        2: Confinement radius =              6.000000000000000 AA, multipole_radius_free =              6.012827091137924 AA.
  | Species        2: outer_partition_radius set to              6.012827091137924 AA .
  | The sparse table of interatomic distances needs          0.04 kbyte instead of         0.03 kbyte of memory.
  | Using the partition_type stratmann_smoother will reduce your memory usage.
  | Net number of integration points:    41392
  | of which are non-zero points    :    40346
  Available memory per node after initialize_grid_storage_p1 [GB]:   1007.45
  Renormalizing the initial density to the exact electron count on the 3D integration grid.
  | Initial density: Formal number of electrons (from input files) :      28.0000000000
  | Integrated number of electrons on 3D grid     :      28.0000028681
  | Charge integration error                      :       0.0000028681
  | Normalization factor for density and gradient :       0.9999998976
  Renormalizing the free-atom superposition density to the exact electron count on the 3D integration grid.
  | Formal number of electrons (from input files) :      28.0000000000
  | Integrated number of electrons on 3D grid     :      28.0000028681
  | Charge integration error                      :       0.0000028681
  | Normalization factor for density and gradient :       0.9999998976
  Obtaining max. number of non-zero basis functions in each batch (get_n_compute_maxes).
  | Maximal number of non-zero basis functions:       45 in task     0
  | Maximal number of non-zero basis functions:       46 in task     1
  | Maximal number of non-zero basis functions:       46 in task     2
  | Maximal number of non-zero basis functions:       46 in task     3
  | Maximal number of non-zero basis functions:       46 in task     4
  | Maximal number of non-zero basis functions:       46 in task     5
  | Maximal number of non-zero basis functions:       46 in task     6
  | Maximal number of non-zero basis functions:       46 in task     7
  | Maximal number of non-zero basis functions:       46 in task     8
  | Maximal number of non-zero basis functions:       46 in task     9
  | Maximal number of non-zero basis functions:       46 in task    10
  | Maximal number of non-zero basis functions:       46 in task    11
  | Maximal number of non-zero basis functions:       46 in task    12
  | Maximal number of non-zero basis functions:       46 in task    13
  | Maximal number of non-zero basis functions:       46 in task    14
  | Maximal number of non-zero basis functions:       46 in task    15
  | Maximal number of non-zero basis functions:       46 in task    16
  | Maximal number of non-zero basis functions:       45 in task    17
  | Maximal number of non-zero basis functions:       46 in task    18
  | Maximal number of non-zero basis functions:       46 in task    19
  | Maximal number of non-zero basis functions:       46 in task    20
  | Maximal number of non-zero basis functions:       46 in task    21
  | Maximal number of non-zero basis functions:       46 in task    22
  | Maximal number of non-zero basis functions:       45 in task    23
  | Maximal number of non-zero basis functions:       46 in task    24
  | Maximal number of non-zero basis functions:       46 in task    25
  | Maximal number of non-zero basis functions:       46 in task    26
  | Maximal number of non-zero basis functions:       46 in task    27
  | Maximal number of non-zero basis functions:       46 in task    28
  | Maximal number of non-zero basis functions:       46 in task    29
  | Maximal number of non-zero basis functions:       46 in task    30
  | Maximal number of non-zero basis functions:       46 in task    31
  | Maximal number of non-zero basis functions:       46 in task    32
  | Maximal number of non-zero basis functions:       46 in task    33
  | Maximal number of non-zero basis functions:       45 in task    34
  | Maximal number of non-zero basis functions:       46 in task    35
  | Maximal number of non-zero basis functions:       46 in task    36
  | Maximal number of non-zero basis functions:       46 in task    37
  | Maximal number of non-zero basis functions:       46 in task    38
  | Maximal number of non-zero basis functions:       46 in task    39
  | Maximal number of non-zero basis functions:       46 in task    40
  | Maximal number of non-zero basis functions:       46 in task    41
  | Maximal number of non-zero basis functions:       46 in task    42
  | Maximal number of non-zero basis functions:       45 in task    43
  | Maximal number of non-zero basis functions:       46 in task    44
  | Maximal number of non-zero basis functions:       45 in task    45
  | Maximal number of non-zero basis functions:       46 in task    46
  | Maximal number of non-zero basis functions:       46 in task    47
  | Maximal number of non-zero basis functions:       46 in task    48
  | Maximal number of non-zero basis functions:       46 in task    49
  | Maximal number of non-zero basis functions:       46 in task    50
  | Maximal number of non-zero basis functions:       46 in task    51
  | Maximal number of non-zero basis functions:       46 in task    52
  | Maximal number of non-zero basis functions:       45 in task    53
  | Maximal number of non-zero basis functions:       46 in task    54
  | Maximal number of non-zero basis functions:       46 in task    55
  | Maximal number of non-zero basis functions:       46 in task    56
  | Maximal number of non-zero basis functions:       45 in task    57
  | Maximal number of non-zero basis functions:       46 in task    58
  | Maximal number of non-zero basis functions:       46 in task    59
  | Maximal number of non-zero basis functions:       46 in task    60
  | Maximal number of non-zero basis functions:       46 in task    61
  | Maximal number of non-zero basis functions:       46 in task    62
  | Maximal number of non-zero basis functions:       46 in task    63
  Selecting the method for density update.
  Loop over occupied states selected for charge density update.
  Available memory per node after get_n_compute_maxes_p1 [GB]:   1007.45
  Allocating        0.007 MB for KS_eigenvector
  Available memory per node after allocate_matrices [GB]:   1007.45
  Available memory per node after init_comm_sparse_local_matrix_scalapack [GB]:   1007.45
  Integrating Hamiltonian matrix: batch-based integration.
  Time summed over all CPUs for integration: real work        0.111 s, elapsed        0.223 s => Consider using load balancing!
  Available memory per node after integrate hamiltonian matrix [GB]:   1007.45
  Integrating overlap matrix.
  Time summed over all CPUs for integration: real work        0.032 s, elapsed        0.121 s
  Available memory per node after integrate ovlp matrix [GB]:   1007.45
  Deallocating overlap matrix.
  Available memory per node after save_overlap_scalapack [GB]:   1007.45

  Updating Kohn-Sham eigenvalues and eigenvectors using ELSI and the ELPA eigensolver.
  Overlap matrix is not singular
  | Lowest and highest eigenvalues :  0.4208E-01,  0.1958E+01
  Finished singularity check of overlap matrix
  | Time :     0.151 s
  Starting ELPA eigensolver
  Finished Cholesky decomposition
  | Time :     0.001 s
  Finished transformation to standard eigenproblem
  | Time :     0.001 s
  Finished solving standard eigenproblem
  | Time :     0.019 s
  Finished back-transformation of eigenvectors
  | Time :     0.001 s

  Obtaining occupation numbers and electronic chemical potential using ELSI.
  | Note that, for insulating systems, the printed 'chemical potential' value is not uniquely defined.
  | It can be anywhere in the energy gap, as long as it correctly separates occupied and unoccupied states.
  | In systems with a gap, the physically relevant chemical potential is the VBM or HOMO.

  | Chemical potential (Fermi level):    -5.66788849 eV
  Available memory per node after advance_KS_solution [GB]:   1007.45
  Writing Kohn-Sham eigenvalues.

  State    Occupation    Eigenvalue [Ha]    Eigenvalue [eV]
      1       2.00000         -88.685632        -2413.25883
      2       2.00000         -46.366435        -1261.69490
      3       2.00000          -7.787012         -211.89537
      4       2.00000          -5.757605         -156.67240
      5       2.00000          -5.757038         -156.65698
      6       2.00000          -5.757038         -156.65698
      7       2.00000          -2.934884          -79.86226
      8       2.00000          -1.713906          -46.63775
      9       2.00000          -1.713237          -46.61954
     10       2.00000          -1.713237          -46.61954
     11       2.00000          -0.646592          -17.59466
     12       2.00000          -0.295422           -8.03885
     13       2.00000          -0.267520           -7.27958
     14       2.00000          -0.267520           -7.27958
     15       0.00000          -0.149063           -4.05620
     16       0.00000          -0.027928           -0.75995
     17       0.00000          -0.027928           -0.75995
     18       0.00000           0.017731            0.48249
     19       0.00000           0.083374            2.26872
     20       0.00000           0.110702            3.01235

  Highest occupied state (VBM) at     -7.27957853 eV
  | Occupation number:      2.00000000

  Lowest unoccupied state (CBM) at    -4.05619846 eV
  | Occupation number:      0.00000000

  Overall HOMO-LUMO gap:      3.22338007 eV.
  Calculating total energy contributions from superposition of free atom densities.

  Total energy components:
  | Sum of eigenvalues            :        -339.32615208 Ha       -9233.53439509 eV
  | XC energy correction          :         -41.87614696 Ha       -1139.50793632 eV
  | XC potential correction       :          54.06592053 Ha        1471.20855194 eV
  | Free-atom electrostatic energy:        -273.18239678 Ha       -7433.67123748 eV
  | Hartree energy correction     :          -0.00000000 Ha          -0.00000000 eV
  | Entropy correction            :          -0.00000000 Ha          -0.00000000 eV
  | ---------------------------
  | Total energy                  :        -600.31877529 Ha      -16335.50501694 eV
  | Total energy, T -> 0          :        -600.31877529 Ha      -16335.50501694 eV  <-- do not rely on this value for anything but (periodic) metals
  | Electronic free energy        :        -600.31877529 Ha      -16335.50501694 eV

  Derived energy quantities:
  | Kinetic energy                :         601.71447760 Ha       16373.48400931 eV
  | Electrostatic energy          :       -1160.15710593 Ha      -31569.48108994 eV
  | Energy correction for multipole
  | error in Hartree potential    :           0.00000000 Ha           0.00000000 eV
  | Sum of eigenvalues per atom                           :       -4616.76719754 eV
  | Total energy (T->0) per atom                          :       -8167.75250847 eV  <-- do not rely on this value for anything but (periodic) metals
  | Electronic free energy per atom                       :       -8167.75250847 eV
  Initialize hartree_potential_storage
  Max. number of atoms included in rho_multipole:            2

  End scf initialization - timings             :  max(cpu_time)    wall_clock(cpu1)
  | Time for scf. initialization                :        0.174 s           0.207 s
  | Boundary condition initialization           :        0.003 s           0.003 s
  | Integration                                 :        0.008 s           0.008 s
  | Solution of K.-S. eqns.                     :        0.145 s           0.176 s
  | Grid partitioning                           :        0.015 s           0.015 s
  | Preloading free-atom quantities on grid     :        0.004 s           0.005 s
  | Free-atom superposition energy              :        0.001 s           0.001 s
  | Total energy evaluation                     :        0.000 s           0.000 s

  Partial memory accounting:
  | Current value for overall tracked memory usage:
  |   Minimum:        0.017 MB (on task 36)
  |   Maximum:        0.018 MB (on task  0)
  |   Average:        0.017 MB
  | Peak value for overall tracked memory usage:
  |   Minimum:        0.191 MB (on task 45 after allocating wave)
  |   Maximum:        0.222 MB (on task 37 after allocating grid_partition)
  |   Average:        0.195 MB
  | Largest tracked array allocation so far:
  |   Minimum:        0.050 MB (H_times_psi on task  0)
  |   Maximum:        0.147 MB (all_coords on task 37)
  |   Average:        0.058 MB
  Note:  These values currently only include a subset of arrays which are explicitly tracked.
  The "true" memory usage will be greater.
------------------------------------------------------------
  Available memory after initialize_scf [GB]:   1007.43
  Available memory after allocating mixing [GB]:   1007.43
  Evaluating new KS density.
  Integration grid: deviation in total charge (<rho> - N_e) =   0.000000E+00

  Time for density update prior                :  max(cpu_time)    wall_clock(cpu1)
  | self-consistency iterative process          :        0.001 s           0.002 s
  Available memory before start of SCF loop [GB]:   1007.43

------------------------------------------------------------
          Begin self-consistency iteration #    1

  Date     :  20260724, Time     :  132355.221
------------------------------------------------------------
  Pulay mixing of updated and previous charge densities.
  Available memory per node after mixing [GB]:   1007.43
  Renormalizing the density to the exact electron count on the 3D integration grid.
  | Formal number of electrons (from input files) :      28.0000000000
  | Integrated number of electrons on 3D grid     :      28.0000000000
  | Charge integration error                      :       0.0000000000
  | Normalization factor for density and gradient :       1.0000000000

  Evaluating partitioned Hartree potential by multipole expansion.
  | Original multipole sum: apparent total charge =   0.106754E-13
  | Sum of charges compensated after spline to logarithmic grids =   0.824658E-06
  | Analytical far-field extrapolation by fixed multipoles:
  | Hartree multipole sum: apparent total charge =   0.106016E-13
  Summing up the Hartree potential.
  Time summed over all CPUs for potential: real work        0.002 s, elapsed        0.002 s
  | RMS charge density error from multipole expansion :   0.114184E-03

  Integrating Hamiltonian matrix: batch-based integration.
  Time summed over all CPUs for integration: real work        0.075 s, elapsed        0.085 s

  Updating Kohn-Sham eigenvalues and eigenvectors using ELSI and the ELPA eigensolver.
  Starting ELPA eigensolver
  Finished transformation to standard eigenproblem
  | Time :     0.001 s
  Finished solving standard eigenproblem
  | Time :     0.029 s
  Finished back-transformation of eigenvectors
  | Time :     0.000 s

  Obtaining occupation numbers and electronic chemical potential using ELSI.
  | Note that, for insulating systems, the printed 'chemical potential' value is not uniquely defined.
  | It can be anywhere in the energy gap, as long as it correctly separates occupied and unoccupied states.
  | In systems with a gap, the physically relevant chemical potential is the VBM or HOMO.

  | Chemical potential (Fermi level):    -5.26374876 eV
  Writing Kohn-Sham eigenvalues.

  State    Occupation    Eigenvalue [Ha]    Eigenvalue [eV]
      1       2.00000         -88.609648        -2411.19120
      2       2.00000         -46.398950        -1262.57968
      3       2.00000          -7.719374         -210.05486
      4       2.00000          -5.689493         -154.81899
      5       2.00000          -5.688497         -154.79187
      6       2.00000          -5.688497         -154.79187
      7       2.00000          -2.963643          -80.64483
      8       2.00000          -1.742247          -47.40896
      9       2.00000          -1.742247          -47.40896
     10       2.00000          -1.742217          -47.40814
     11       2.00000          -0.601850          -16.37716
     12       2.00000          -0.264347           -7.19325
     13       2.00000          -0.228665           -6.22228
     14       2.00000          -0.228665           -6.22228
     15       0.00000          -0.158214           -4.30521
     16       0.00000          -0.037359           -1.01660
     17       0.00000          -0.037359           -1.01660
     18       0.00000           0.011967            0.32564
     19       0.00000           0.081095            2.20672
     20       0.00000           0.106017            2.88487

  Highest occupied state (VBM) at     -6.22228325 eV
  | Occupation number:      2.00000000

  Lowest unoccupied state (CBM) at    -4.30521428 eV
  | Occupation number:      0.00000000

  Overall HOMO-LUMO gap:      1.91706897 eV.

  Total energy components:
  | Sum of eigenvalues            :        -338.61667871 Ha       -9214.22864241 eV
  | XC energy correction          :         -41.91569678 Ha       -1140.58414162 eV
  | XC potential correction       :          54.11801092 Ha        1472.62600353 eV
  | Free-atom electrostatic energy:        -273.18239678 Ha       -7433.67123748 eV
  | Hartree energy correction     :          -0.64860689 Ha         -17.64949144 eV
  | Entropy correction            :          -0.00000000 Ha          -0.00000000 eV
  | ---------------------------
  | Total energy                  :        -600.24536824 Ha      -16333.50750942 eV
  | Total energy, T -> 0          :        -600.24536824 Ha      -16333.50750942 eV  <-- do not rely on this value for anything but (periodic) metals
  | Electronic free energy        :        -600.24536824 Ha      -16333.50750942 eV

  Derived energy quantities:
  | Kinetic energy                :         601.99257729 Ha       16381.05148686 eV
  | Electrostatic energy          :       -1160.32224875 Ha      -31573.97485466 eV
  | Energy correction for multipole
  | error in Hartree potential    :           0.00001040 Ha           0.00028296 eV
  | Sum of eigenvalues per atom                           :       -4607.11432120 eV
  | Total energy (T->0) per atom                          :       -8166.75375471 eV  <-- do not rely on this value for anything but (periodic) metals
  | Electronic free energy per atom                       :       -8166.75375471 eV
  Evaluating new KS density.
  Integration grid: deviation in total charge (<rho> - N_e) =   7.105427E-15

  Self-consistency convergence accuracy:
  | Change of charge density      :  0.2125E+00
  | Change of unmixed KS density  :  0.3395E+02
  | Change of sum of eigenvalues  :  0.1931E+02 eV
  | Change of total energy        :  0.1998E+01 eV


------------------------------------------------------------
  End self-consistency iteration #     1       :  max(cpu_time)    wall_clock(cpu1)
  | Time for this iteration                     :        0.037 s           0.036 s
  | Charge density update                       :        0.001 s           0.001 s
  | Density mixing                              :        0.000 s           0.000 s
  | Hartree multipole update                    :        0.001 s           0.001 s
  | Hartree multipole summation                 :        0.002 s           0.003 s
  | Integration                                 :        0.001 s           0.001 s
  | Solution of K.-S. eqns.                     :        0.030 s           0.030 s
  | Total energy evaluation                     :        0.000 s           0.000 s

  Partial memory accounting:
  | Current value for overall tracked memory usage:
  |   Minimum:        0.354 MB (on task 27)
  |   Maximum:        0.420 MB (on task  3)
  |   Average:        0.377 MB
  | Peak value for overall tracked memory usage:
  |   Minimum:        0.557 MB (on task 27 after allocating gradient_basis_wave)
  |   Maximum:        0.623 MB (on task  3 after allocating gradient_basis_wave)
  |   Average:        0.580 MB
  | Largest tracked array allocation so far:
  |   Minimum:        0.149 MB (gradient_basis_wave on task  0)
  |   Maximum:        0.153 MB (gradient_basis_wave on task  1)
  |   Average:        0.152 MB
  Note:  These values currently only include a subset of arrays which are explicitly tracked.
  The "true" memory usage will be greater.
------------------------------------------------------------

------------------------------------------------------------
          Begin self-consistency iteration #    2

  Date     :  20260724, Time     :  132355.464
------------------------------------------------------------
  Pulay mixing of updated and previous charge densities.
  Available memory per node after mixing [GB]:   1007.38
  Renormalizing the density to the exact electron count on the 3D integration grid.
  | Formal number of electrons (from input files) :      28.0000000000
  | Integrated number of electrons on 3D grid     :      28.0000000000
  | Charge integration error                      :      -0.0000000000
  | Normalization factor for density and gradient :       1.0000000000

  Evaluating partitioned Hartree potential by multipole expansion.
  | Original multipole sum: apparent total charge =   0.285334E-14
  | Sum of charges compensated after spline to logarithmic grids =   0.246605E-05
  | Analytical far-field extrapolation by fixed multipoles:
  | Hartree multipole sum: apparent total charge =   0.245977E-14
  Summing up the Hartree potential.
  Time summed over all CPUs for potential: real work        0.001 s, elapsed        0.002 s
  | RMS charge density error from multipole expansion :   0.360130E-03

  Integrating Hamiltonian matrix: batch-based integration.
  Time summed over all CPUs for integration: real work        0.079 s, elapsed        0.093 s

  Updating Kohn-Sham eigenvalues and eigenvectors using ELSI and the ELPA eigensolver.
  Starting ELPA eigensolver
  Finished transformation to standard eigenproblem
  | Time :     0.000 s
  Finished solving standard eigenproblem
  | Time :     0.001 s
  Finished back-transformation of eigenvectors
  | Time :     0.000 s

  Obtaining occupation numbers and electronic chemical potential using ELSI.
  | Note that, for insulating systems, the printed 'chemical potential' value is not uniquely defined.
  | It can be anywhere in the energy gap, as long as it correctly separates occupied and unoccupied states.
  | In systems with a gap, the physically relevant chemical potential is the VBM or HOMO.

  | Chemical potential (Fermi level):    -4.44455515 eV
  Highest occupied state (VBM) at     -4.49811067 eV
  | Occupation number:      2.00000000

  Lowest unoccupied state (CBM) at    -4.39099964 eV
  | Occupation number:      0.00000000

  Overall HOMO-LUMO gap:      0.10711104 eV.

  Checking to see if s.c.f. parameters should be adjusted.

  Total energy components:
  | Sum of eigenvalues            :        -337.56571052 Ha       -9185.63034286 eV
  | XC energy correction          :         -41.97600129 Ha       -1142.22511085 eV
  | XC potential correction       :          54.19762648 Ha        1474.79245314 eV
  | Free-atom electrostatic energy:        -273.18239678 Ha       -7433.67123748 eV
  | Hartree energy correction     :          -1.66783763 Ha         -45.38417094 eV
  | Entropy correction            :          -0.00000000 Ha          -0.00000000 eV
  | ---------------------------
  | Total energy                  :        -600.19431973 Ha      -16332.11840899 eV
  | Total energy, T -> 0          :        -600.19431973 Ha      -16332.11840899 eV  <-- do not rely on this value for anything but (periodic) metals
  | Electronic free energy        :        -600.19431973 Ha      -16332.11840899 eV

  Derived energy quantities:
  | Kinetic energy                :         602.25909934 Ha       16388.30392067 eV
  | Electrostatic energy          :       -1160.47741778 Ha      -31578.19721881 eV
  | Energy correction for multipole
  | error in Hartree potential    :          -0.00005996 Ha          -0.00163150 eV
  | Sum of eigenvalues per atom                           :       -4592.81517143 eV
  | Total energy (T->0) per atom                          :       -8166.05920450 eV  <-- do not rely on this value for anything but (periodic) metals
  | Electronic free energy per atom                       :       -8166.05920450 eV
  Evaluating new KS density.
  Integration grid: deviation in total charge (<rho> - N_e) =  -2.486900E-14

  Self-consistency convergence accuracy:
  | Change of charge density      :  0.1453E+00
  | Change of unmixed KS density  :  0.6102E-01
  | Change of sum of eigenvalues  :  0.2860E+02 eV
  | Change of total energy        :  0.1389E+01 eV


------------------------------------------------------------
  End self-consistency iteration #     2       :  max(cpu_time)    wall_clock(cpu1)
  | Time for this iteration                     :        0.266 s           0.075 s
  | Charge density update                       :        0.001 s           0.001 s
  | Density mixing                              :        0.258 s           0.067 s
  | Hartree multipole update                    :        0.001 s           0.002 s
  | Hartree multipole summation                 :        0.002 s           0.002 s
  | Integration                                 :        0.002 s           0.002 s
  | Solution of K.-S. eqns.                     :        0.001 s           0.001 s
  | Total energy evaluation                     :        0.000 s           0.000 s

  Partial memory accounting:
  | Current value for overall tracked memory usage:
  |   Minimum:        0.354 MB (on task 27)
  |   Maximum:        0.420 MB (on task  3)
  |   Average:        0.378 MB
  | Peak value for overall tracked memory usage:
  |   Minimum:        0.558 MB (on task 27 after allocating gradient_basis_wave)
  |   Maximum:        0.624 MB (on task  3 after allocating gradient_basis_wave)
  |   Average:        0.581 MB
  | Largest tracked array allocation so far:
  |   Minimum:        0.149 MB (gradient_basis_wave on task  0)
  |   Maximum:        0.153 MB (gradient_basis_wave on task  1)
  |   Average:        0.152 MB
  Note:  These values currently only include a subset of arrays which are explicitly tracked.
  The "true" memory usage will be greater.
------------------------------------------------------------

------------------------------------------------------------
          Begin self-consistency iteration #    3

  Date     :  20260724, Time     :  132355.610
------------------------------------------------------------
  Pulay mixing of updated and previous charge densities.
  Available memory per node after mixing [GB]:   1007.37
  Renormalizing the density to the exact electron count on the 3D integration grid.
  | Formal number of electrons (from input files) :      28.0000000000
  | Integrated number of electrons on 3D grid     :      28.0000000000
  | Charge integration error                      :      -0.0000000000
  | Normalization factor for density and gradient :       1.0000000000

  Evaluating partitioned Hartree potential by multipole expansion.
  | Original multipole sum: apparent total charge =  -0.295173E-15
  | Sum of charges compensated after spline to logarithmic grids =   0.202183E-05
  | Analytical far-field extrapolation by fixed multipoles:
  | Hartree multipole sum: apparent total charge =  -0.688737E-15
  Summing up the Hartree potential.
  Time summed over all CPUs for potential: real work        0.001 s, elapsed        0.001 s
  | RMS charge density error from multipole expansion :   0.317164E-03

  Integrating Hamiltonian matrix: batch-based integration.
  Time summed over all CPUs for integration: real work        0.077 s, elapsed        0.089 s

  Updating Kohn-Sham eigenvalues and eigenvectors using ELSI and the ELPA eigensolver.
  Starting ELPA eigensolver
  Finished transformation to standard eigenproblem
  | Time :     0.000 s
  Finished solving standard eigenproblem
  | Time :     0.001 s
  Finished back-transformation of eigenvectors
  | Time :     0.000 s

  Obtaining occupation numbers and electronic chemical potential using ELSI.
  | Note that, for insulating systems, the printed 'chemical potential' value is not uniquely defined.
  | It can be anywhere in the energy gap, as long as it correctly separates occupied and unoccupied states.
  | In systems with a gap, the physically relevant chemical potential is the VBM or HOMO.

  | Chemical potential (Fermi level):    -4.86506921 eV
  Highest occupied state (VBM) at     -5.23227380 eV
  | Occupation number:      2.00000000

  Lowest unoccupied state (CBM) at    -4.49786463 eV
  | Occupation number:      0.00000000

  Overall HOMO-LUMO gap:      0.73440917 eV.

  Total energy components:
  | Sum of eigenvalues            :        -338.10451536 Ha       -9200.29196864 eV
  | XC energy correction          :         -41.94096548 Ha       -1141.27173790 eV
  | XC potential correction       :          54.15148555 Ha        1473.53689466 eV
  | Free-atom electrostatic energy:        -273.18239678 Ha       -7433.67123748 eV
  | Hartree energy correction     :          -1.12266888 Ha         -30.54937443 eV
  | Entropy correction            :          -0.00000000 Ha          -0.00000000 eV
  | ---------------------------
  | Total energy                  :        -600.19906094 Ha      -16332.24742379 eV
  | Total energy, T -> 0          :        -600.19906094 Ha      -16332.24742379 eV  <-- do not rely on this value for anything but (periodic) metals
  | Electronic free energy        :        -600.19906094 Ha      -16332.24742379 eV

  Derived energy quantities:
  | Kinetic energy                :         602.07764829 Ha       16383.36638648 eV
  | Electrostatic energy          :       -1160.33574375 Ha      -31574.34207237 eV
  | Energy correction for multipole
  | error in Hartree potential    :          -0.00010547 Ha          -0.00287007 eV
  | Sum of eigenvalues per atom                           :       -4600.14598432 eV
  | Total energy (T->0) per atom                          :       -8166.12371189 eV  <-- do not rely on this value for anything but (periodic) metals
  | Electronic free energy per atom                       :       -8166.12371189 eV
  Evaluating new KS density.
  Integration grid: deviation in total charge (<rho> - N_e) =   2.131628E-14

  Self-consistency convergence accuracy:
  | Change of charge density      :  0.1222E+00
  | Change of unmixed KS density  :  0.1817E+00
  | Change of sum of eigenvalues  : -0.1466E+02 eV
  | Change of total energy        : -0.1290E+00 eV


------------------------------------------------------------
  End self-consistency iteration #     3       :  max(cpu_time)    wall_clock(cpu1)
  | Time for this iteration                     :        0.282 s           0.224 s
  | Charge density update                       :        0.001 s           0.000 s
  | Density mixing                              :        0.275 s           0.217 s
  | Hartree multipole update                    :        0.001 s           0.001 s
  | Hartree multipole summation                 :        0.002 s           0.003 s
  | Integration                                 :        0.002 s           0.001 s
  | Solution of K.-S. eqns.                     :        0.001 s           0.001 s
  | Total energy evaluation                     :        0.000 s           0.000 s

  Partial memory accounting:
  | Current value for overall tracked memory usage:
  |   Minimum:        0.354 MB (on task 27)
  |   Maximum:        0.420 MB (on task  3)
  |   Average:        0.378 MB
  | Peak value for overall tracked memory usage:
  |   Minimum:        0.558 MB (on task 27 after allocating gradient_basis_wave)
  |   Maximum:        0.624 MB (on task  3 after allocating gradient_basis_wave)
  |   Average:        0.581 MB
  | Largest tracked array allocation so far:
  |   Minimum:        0.149 MB (gradient_basis_wave on task  0)
  |   Maximum:        0.153 MB (gradient_basis_wave on task  1)
  |   Average:        0.152 MB
  Note:  These values currently only include a subset of arrays which are explicitly tracked.
  The "true" memory usage will be greater.
------------------------------------------------------------

------------------------------------------------------------
          Begin self-consistency iteration #    4

  Date     :  20260724, Time     :  132355.940
------------------------------------------------------------
  Pulay mixing of updated and previous charge densities.
  Available memory per node after mixing [GB]:   1007.37
  Renormalizing the density to the exact electron count on the 3D integration grid.
  | Formal number of electrons (from input files) :      28.0000000000
  | Integrated number of electrons on 3D grid     :      28.0000000000
  | Charge integration error                      :       0.0000000000
  | Normalization factor for density and gradient :       1.0000000000

  Evaluating partitioned Hartree potential by multipole expansion.
  | Original multipole sum: apparent total charge =   0.265656E-14
  | Sum of charges compensated after spline to logarithmic grids =   0.455603E-05
  | Analytical far-field extrapolation by fixed multipoles:
  | Hartree multipole sum: apparent total charge =   0.314851E-14
  Summing up the Hartree potential.
  Time summed over all CPUs for potential: real work        0.001 s, elapsed        0.002 s
  | RMS charge density error from multipole expansion :   0.957855E-03

  Integrating Hamiltonian matrix: batch-based integration.
  Time summed over all CPUs for integration: real work        0.075 s, elapsed        0.083 s

  Updating Kohn-Sham eigenvalues and eigenvectors using ELSI and the ELPA eigensolver.
  Starting ELPA eigensolver
  Finished transformation to standard eigenproblem
  | Time :     0.000 s
  Finished solving standard eigenproblem
  | Time :     0.001 s
  Finished back-transformation of eigenvectors
  | Time :     0.000 s

  Obtaining occupation numbers and electronic chemical potential using ELSI.
  | Note that, for insulating systems, the printed 'chemical potential' value is not uniquely defined.
  | It can be anywhere in the energy gap, as long as it correctly separates occupied and unoccupied states.
  | In systems with a gap, the physically relevant chemical potential is the VBM or HOMO.

  | Chemical potential (Fermi level):    -4.60685635 eV
  Highest occupied state (VBM) at     -4.60685635 eV
  | Occupation number:      1.00000000

  Lowest unoccupied state (CBM) at    -1.54954889 eV
  | Occupation number:      0.00000000

  This system has fractional occupation numbers. Thus, it is a degenerate system
  within the approximate finite broadening function (occupation_type)
  applied to determine the occupation numbers.
  This may not be harmful. However, for some systems (free atoms), a different, non-degenerate
  ground state might exist by using a smaller broadening (see keyword occupation_type).
  Overall HOMO-LUMO gap:      0.00000000 eV.

  Total energy components:
  | Sum of eigenvalues            :        -338.38002893 Ha       -9207.78907447 eV
  | XC energy correction          :         -41.91177720 Ha       -1140.47748458 eV
  | XC potential correction       :          54.11366613 Ha        1472.50777581 eV
  | Free-atom electrostatic energy:        -273.18239678 Ha       -7433.67123748 eV
  | Hartree energy correction     :          -0.83485323 Ha         -22.71751215 eV
  | Entropy correction            :          -0.00020734 Ha          -0.00564190 eV
  | ---------------------------
  | Total energy                  :        -600.19539002 Ha      -16332.14753287 eV
  | Total energy, T -> 0          :        -600.19559735 Ha      -16332.15317477 eV  <-- do not rely on this value for anything but (periodic) metals
  | Electronic free energy        :        -600.19580469 Ha      -16332.15881666 eV

  Derived energy quantities:
  | Kinetic energy                :         601.54437717 Ha       16368.85534104 eV
  | Electrostatic energy          :       -1159.82798998 Ha      -31560.52538933 eV
  | Energy correction for multipole
  | error in Hartree potential    :          -0.00068595 Ha          -0.01866557 eV
  | Sum of eigenvalues per atom                           :       -4603.89453723 eV
  | Total energy (T->0) per atom                          :       -8166.07658738 eV  <-- do not rely on this value for anything but (periodic) metals
  | Electronic free energy per atom                       :       -8166.07940833 eV
  Evaluating new KS density.
  Integration grid: deviation in total charge (<rho> - N_e) =   7.324985E-10

  Self-consistency convergence accuracy:
  | Change of charge density      :  0.8004E-01
  | Change of unmixed KS density  :  0.1011E+00
  | Change of sum of eigenvalues  : -0.7497E+01 eV
  | Change of total energy        :  0.9989E-01 eV


------------------------------------------------------------
  End self-consistency iteration #     4       :  max(cpu_time)    wall_clock(cpu1)
  | Time for this iteration                     :        0.266 s           0.172 s
  | Charge density update                       :        0.001 s           0.001 s
  | Density mixing                              :        0.259 s           0.165 s
  | Hartree multipole update                    :        0.001 s           0.001 s
  | Hartree multipole summation                 :        0.002 s           0.002 s
  | Integration                                 :        0.001 s           0.002 s
  | Solution of K.-S. eqns.                     :        0.001 s           0.001 s
  | Total energy evaluation                     :        0.000 s           0.000 s

  Partial memory accounting:
  | Current value for overall tracked memory usage:
  |   Minimum:        0.354 MB (on task 27)
  |   Maximum:        0.420 MB (on task  3)
  |   Average:        0.378 MB
  | Peak value for overall tracked memory usage:
  |   Minimum:        0.558 MB (on task 27 after allocating gradient_basis_wave)
  |   Maximum:        0.624 MB (on task  3 after allocating gradient_basis_wave)
  |   Average:        0.581 MB
  | Largest tracked array allocation so far:
  |   Minimum:        0.149 MB (gradient_basis_wave on task  0)
  |   Maximum:        0.153 MB (gradient_basis_wave on task  1)
  |   Average:        0.152 MB
  Note:  These values currently only include a subset of arrays which are explicitly tracked.
  The "true" memory usage will be greater.
------------------------------------------------------------

------------------------------------------------------------
          Begin self-consistency iteration #    5

  Date     :  20260724, Time     :  132356.231
------------------------------------------------------------
  Pulay mixing of updated and previous charge densities.
  Available memory per node after mixing [GB]:   1007.37
  Renormalizing the density to the exact electron count on the 3D integration grid.
  | Formal number of electrons (from input files) :      28.0000000000
  | Integrated number of electrons on 3D grid     :      28.0000000000
  | Charge integration error                      :       0.0000000000
  | Normalization factor for density and gradient :       1.0000000000

  Evaluating partitioned Hartree potential by multipole expansion.
  | Original multipole sum: apparent total charge =   0.983910E-14
  | Sum of charges compensated after spline to logarithmic grids =   0.320485E-05
  | Analytical far-field extrapolation by fixed multipoles:
  | Hartree multipole sum: apparent total charge =   0.944553E-14
  Summing up the Hartree potential.
  Time summed over all CPUs for potential: real work        0.001 s, elapsed        0.001 s
  | RMS charge density error from multipole expansion :   0.640777E-03

  Integrating Hamiltonian matrix: batch-based integration.
  Time summed over all CPUs for integration: real work        0.074 s, elapsed        0.086 s

  Updating Kohn-Sham eigenvalues and eigenvectors using ELSI and the ELPA eigensolver.
  Starting ELPA eigensolver
  Finished transformation to standard eigenproblem
  | Time :     0.000 s
  Finished solving standard eigenproblem
  | Time :     0.001 s
  Finished back-transformation of eigenvectors
  | Time :     0.000 s

  Obtaining occupation numbers and electronic chemical potential using ELSI.
  | Note that, for insulating systems, the printed 'chemical potential' value is not uniquely defined.
  | It can be anywhere in the energy gap, as long as it correctly separates occupied and unoccupied states.
  | In systems with a gap, the physically relevant chemical potential is the VBM or HOMO.

  | Chemical potential (Fermi level):    -4.94661784 eV
  Highest occupied state (VBM) at     -5.23875311 eV
  | Occupation number:      2.00000000

  Lowest unoccupied state (CBM) at    -4.65448256 eV
  | Occupation number:      0.00000000

  Overall HOMO-LUMO gap:      0.58427055 eV.

  Total energy components:
  | Sum of eigenvalues            :        -338.47401012 Ha       -9210.34643254 eV
  | XC energy correction          :         -41.90990731 Ha       -1140.42660215 eV
  | XC potential correction       :          54.11094208 Ha        1472.43365064 eV
  | Free-atom electrostatic energy:        -273.18239678 Ha       -7433.67123748 eV
  | Hartree energy correction     :          -0.74026983 Ha         -20.14376691 eV
  | Entropy correction            :          -0.00000000 Ha          -0.00000000 eV
  | ---------------------------
  | Total energy                  :        -600.19564195 Ha      -16332.15438845 eV
  | Total energy, T -> 0          :        -600.19564195 Ha      -16332.15438845 eV  <-- do not rely on this value for anything but (periodic) metals
  | Electronic free energy        :        -600.19564195 Ha      -16332.15438845 eV

  Derived energy quantities:
  | Kinetic energy                :         601.73070716 Ha       16373.92563806 eV
  | Electrostatic energy          :       -1160.01644181 Ha      -31565.65342435 eV
  | Energy correction for multipole
  | error in Hartree potential    :          -0.00041849 Ha          -0.01138768 eV
  | Sum of eigenvalues per atom                           :       -4605.17321627 eV
  | Total energy (T->0) per atom                          :       -8166.07719422 eV  <-- do not rely on this value for anything but (periodic) metals
  | Electronic free energy per atom                       :       -8166.07719422 eV
  Evaluating new KS density.
  Integration grid: deviation in total charge (<rho> - N_e) =   0.000000E+00

  Self-consistency convergence accuracy:
  | Change of charge density      :  0.2130E+00
  | Change of unmixed KS density  :  0.2451E+00
  | Change of sum of eigenvalues  : -0.2557E+01 eV
  | Change of total energy        : -0.6856E-02 eV


------------------------------------------------------------
  End self-consistency iteration #     5       :  max(cpu_time)    wall_clock(cpu1)
  | Time for this iteration                     :        0.266 s           0.159 s
  | Charge density update                       :        0.001 s           0.001 s
  | Density mixing                              :        0.259 s           0.152 s
  | Hartree multipole update                    :        0.001 s           0.002 s
  | Hartree multipole summation                 :        0.002 s           0.001 s
  | Integration                                 :        0.001 s           0.002 s
  | Solution of K.-S. eqns.                     :        0.001 s           0.001 s
  | Total energy evaluation                     :        0.000 s           0.000 s

  Partial memory accounting:
  | Current value for overall tracked memory usage:
  |   Minimum:        0.354 MB (on task 27)
  |   Maximum:        0.420 MB (on task  3)
  |   Average:        0.378 MB
  | Peak value for overall tracked memory usage:
  |   Minimum:        0.558 MB (on task 27 after allocating gradient_basis_wave)
  |   Maximum:        0.624 MB (on task  3 after allocating gradient_basis_wave)
  |   Average:        0.581 MB
  | Largest tracked array allocation so far:
  |   Minimum:        0.149 MB (gradient_basis_wave on task  0)
  |   Maximum:        0.153 MB (gradient_basis_wave on task  1)
  |   Average:        0.152 MB
  Note:  These values currently only include a subset of arrays which are explicitly tracked.
  The "true" memory usage will be greater.
------------------------------------------------------------

------------------------------------------------------------
          Begin self-consistency iteration #    6

  Date     :  20260724, Time     :  132356.613
------------------------------------------------------------
  Pulay mixing of updated and previous charge densities.
  Available memory per node after mixing [GB]:   1007.36
  Renormalizing the density to the exact electron count on the 3D integration grid.
  | Formal number of electrons (from input files) :      28.0000000000
  | Integrated number of electrons on 3D grid     :      28.0000000000
  | Charge integration error                      :       0.0000000000
  | Normalization factor for density and gradient :       1.0000000000

  Evaluating partitioned Hartree potential by multipole expansion.
  | Original multipole sum: apparent total charge =   0.141683E-13
  | Sum of charges compensated after spline to logarithmic grids =   0.536023E-05
  | Analytical far-field extrapolation by fixed multipoles:
  | Hartree multipole sum: apparent total charge =   0.137747E-13
  Summing up the Hartree potential.
  Time summed over all CPUs for potential: real work        0.001 s, elapsed        0.002 s
  | RMS charge density error from multipole expansion :   0.107638E-02

  Integrating Hamiltonian matrix: batch-based integration.
  Time summed over all CPUs for integration: real work        0.074 s, elapsed        0.082 s

  Updating Kohn-Sham eigenvalues and eigenvectors using ELSI and the ELPA eigensolver.
  Starting ELPA eigensolver
  Finished transformation to standard eigenproblem
  | Time :     0.000 s
  Finished solving standard eigenproblem
  | Time :     0.001 s
  Finished back-transformation of eigenvectors
  | Time :     0.000 s

  Obtaining occupation numbers and electronic chemical potential using ELSI.
  | Note that, for insulating systems, the printed 'chemical potential' value is not uniquely defined.
  | It can be anywhere in the energy gap, as long as it correctly separates occupied and unoccupied states.
  | In systems with a gap, the physically relevant chemical potential is the VBM or HOMO.

  | Chemical potential (Fermi level):    -4.11010070 eV
  Highest occupied state (VBM) at     -4.11010070 eV
  | Occupation number:      1.00000000

  Lowest unoccupied state (CBM) at    -1.68165809 eV
  | Occupation number:      0.00000000

  This system has fractional occupation numbers. Thus, it is a degenerate system
  within the approximate finite broadening function (occupation_type)
  applied to determine the occupation numbers.
  This may not be harmful. However, for some systems (free atoms), a different, non-degenerate
  ground state might exist by using a smaller broadening (see keyword occupation_type).
  Overall HOMO-LUMO gap:      0.00000000 eV.

  Total energy components:
  | Sum of eigenvalues            :        -338.08600946 Ha       -9199.78839761 eV
  | XC energy correction          :         -41.93517725 Ha       -1141.11423235 eV
  | XC potential correction       :          54.14454204 Ha        1473.34795202 eV
  | Free-atom electrostatic energy:        -273.18239678 Ha       -7433.67123748 eV
  | Hartree energy correction     :          -1.16825652 Ha         -31.78987739 eV
  | Entropy correction            :          -0.00020734 Ha          -0.00564190 eV
  | ---------------------------
  | Total energy                  :        -600.22729798 Ha      -16333.01579281 eV
  | Total energy, T -> 0          :        -600.22750532 Ha      -16333.02143471 eV  <-- do not rely on this value for anything but (periodic) metals
  | Electronic free energy        :        -600.22771265 Ha      -16333.02707660 eV

  Derived energy quantities:
  | Kinetic energy                :         601.60298736 Ha       16370.45020532 eV
  | Electrostatic energy          :       -1159.89510809 Ha      -31562.35176578 eV
  | Energy correction for multipole
  | error in Hartree potential    :          -0.00070076 Ha          -0.01906868 eV
  | Sum of eigenvalues per atom                           :       -4599.89419880 eV
  | Total energy (T->0) per atom                          :       -8166.51071735 eV  <-- do not rely on this value for anything but (periodic) metals
  | Electronic free energy per atom                       :       -8166.51353830 eV
  Evaluating new KS density.
  Integration grid: deviation in total charge (<rho> - N_e) =   2.085514E-10

  Self-consistency convergence accuracy:
  | Change of charge density      :  0.7825E-01
  | Change of unmixed KS density  :  0.2511E+00
  | Change of sum of eigenvalues  :  0.1056E+02 eV
  | Change of total energy        : -0.8614E+00 eV


------------------------------------------------------------
  End self-consistency iteration #     6       :  max(cpu_time)    wall_clock(cpu1)
  | Time for this iteration                     :        0.271 s           0.062 s
  | Charge density update                       :        0.001 s           0.001 s
  | Density mixing                              :        0.264 s           0.055 s
  | Hartree multipole update                    :        0.001 s           0.001 s
  | Hartree multipole summation                 :        0.002 s           0.002 s
  | Integration                                 :        0.001 s           0.002 s
  | Solution of K.-S. eqns.                     :        0.001 s           0.001 s
  | Total energy evaluation                     :        0.000 s           0.000 s

  Partial memory accounting:
  | Current value for overall tracked memory usage:
  |   Minimum:        0.355 MB (on task 27)
  |   Maximum:        0.420 MB (on task  3)
  |   Average:        0.378 MB
  | Peak value for overall tracked memory usage:
  |   Minimum:        0.558 MB (on task 27 after allocating gradient_basis_wave)
  |   Maximum:        0.624 MB (on task  3 after allocating gradient_basis_wave)
  |   Average:        0.581 MB
  | Largest tracked array allocation so far:
  |   Minimum:        0.149 MB (gradient_basis_wave on task  0)
  |   Maximum:        0.153 MB (gradient_basis_wave on task  1)
  |   Average:        0.152 MB
  Note:  These values currently only include a subset of arrays which are explicitly tracked.
  The "true" memory usage will be greater.
------------------------------------------------------------

------------------------------------------------------------
          Begin self-consistency iteration #    7

  Date     :  20260724, Time     :  132356.875
------------------------------------------------------------
  Pulay mixing of updated and previous charge densities.
  Available memory per node after mixing [GB]:   1007.36
  Renormalizing the density to the exact electron count on the 3D integration grid.
  | Formal number of electrons (from input files) :      28.0000000000
  | Integrated number of electrons on 3D grid     :      28.0000000000
  | Charge integration error                      :       0.0000000000
  | Normalization factor for density and gradient :       1.0000000000

  Evaluating partitioned Hartree potential by multipole expansion.
  | Original multipole sum: apparent total charge =   0.521472E-14
  | Sum of charges compensated after spline to logarithmic grids =   0.673926E-05
  | Analytical far-field extrapolation by fixed multipoles:
  | Hartree multipole sum: apparent total charge =   0.206621E-14
  Summing up the Hartree potential.
  Time summed over all CPUs for potential: real work        0.002 s, elapsed        0.002 s
  | RMS charge density error from multipole expansion :   0.134150E-02

  Integrating Hamiltonian matrix: batch-based integration.
  Time summed over all CPUs for integration: real work        0.075 s, elapsed        0.085 s

  Updating Kohn-Sham eigenvalues and eigenvectors using ELSI and the ELPA eigensolver.
  Starting ELPA eigensolver
  Finished transformation to standard eigenproblem
  | Time :     0.000 s
  Finished solving standard eigenproblem
  | Time :     0.001 s
  Finished back-transformation of eigenvectors
  | Time :     0.000 s

  Obtaining occupation numbers and electronic chemical potential using ELSI.
  | Note that, for insulating systems, the printed 'chemical potential' value is not uniquely defined.
  | It can be anywhere in the energy gap, as long as it correctly separates occupied and unoccupied states.
  | In systems with a gap, the physically relevant chemical potential is the VBM or HOMO.

  | Chemical potential (Fermi level):    -3.69426028 eV
  Highest occupied state (VBM) at     -4.40661960 eV
  | Occupation number:      2.00000000

  Lowest unoccupied state (CBM) at    -3.69426028 eV
  | Occupation number:      1.00000000

  This system has fractional occupation numbers. Thus, it is a degenerate system
  within the approximate finite broadening function (occupation_type)
  applied to determine the occupation numbers.
  This may not be harmful. However, for some systems (free atoms), a different, non-degenerate
  ground state might exist by using a smaller broadening (see keyword occupation_type).
  Overall HOMO-LUMO gap:      0.00000000 eV.

  Total energy components:
  | Sum of eigenvalues            :        -337.93593483 Ha       -9195.70465896 eV
  | XC energy correction          :         -41.95079048 Ha       -1141.53908990 eV
  | XC potential correction       :          54.16524171 Ha        1473.91121869 eV
  | Free-atom electrostatic energy:        -273.18239678 Ha       -7433.67123748 eV
  | Hartree energy correction     :          -1.36048047 Ha         -37.02055708 eV
  | Entropy correction            :          -0.00020734 Ha          -0.00564190 eV
  | ---------------------------
  | Total energy                  :        -600.26436085 Ha      -16334.02432472 eV
  | Total energy, T -> 0          :        -600.26456819 Ha      -16334.02996662 eV  <-- do not rely on this value for anything but (periodic) metals
  | Electronic free energy        :        -600.26477552 Ha      -16334.03560851 eV

  Derived energy quantities:
  | Kinetic energy                :         601.54590539 Ha       16368.89692606 eV
  | Electrostatic energy          :       -1159.85947576 Ha      -31561.38216089 eV
  | Energy correction for multipole
  | error in Hartree potential    :          -0.00081336 Ha          -0.02213271 eV
  | Sum of eigenvalues per atom                           :       -4597.85232948 eV
  | Total energy (T->0) per atom                          :       -8167.01498331 eV  <-- do not rely on this value for anything but (periodic) metals
  | Electronic free energy per atom                       :       -8167.01780426 eV
  Evaluating new KS density.
  Integration grid: deviation in total charge (<rho> - N_e) =  -7.617977E-10

  Self-consistency convergence accuracy:
  | Change of charge density      :  0.2279E+00
  | Change of unmixed KS density  :  0.2680E+00
  | Change of sum of eigenvalues  :  0.4084E+01 eV
  | Change of total energy        : -0.1009E+01 eV


------------------------------------------------------------
  End self-consistency iteration #     7       :  max(cpu_time)    wall_clock(cpu1)
  | Time for this iteration                     :        0.261 s           0.070 s
  | Charge density update                       :        0.001 s           0.001 s
  | Density mixing                              :        0.253 s           0.062 s
  | Hartree multipole update                    :        0.001 s           0.002 s
  | Hartree multipole summation                 :        0.003 s           0.002 s
  | Integration                                 :        0.001 s           0.002 s
  | Solution of K.-S. eqns.                     :        0.001 s           0.001 s
  | Total energy evaluation                     :        0.000 s           0.000 s

  Partial memory accounting:
  | Current value for overall tracked memory usage:
  |   Minimum:        0.355 MB (on task 27)
  |   Maximum:        0.420 MB (on task  3)
  |   Average:        0.378 MB
  | Peak value for overall tracked memory usage:
  |   Minimum:        0.558 MB (on task 27 after allocating gradient_basis_wave)
  |   Maximum:        0.624 MB (on task  3 after allocating gradient_basis_wave)
  |   Average:        0.581 MB
  | Largest tracked array allocation so far:
  |   Minimum:        0.149 MB (gradient_basis_wave on task  0)
  |   Maximum:        0.153 MB (gradient_basis_wave on task  1)
  |   Average:        0.152 MB
  Note:  These values currently only include a subset of arrays which are explicitly tracked.
  The "true" memory usage will be greater.
------------------------------------------------------------

------------------------------------------------------------
          Begin self-consistency iteration #    8

  Date     :  20260724, Time     :  132356.957
------------------------------------------------------------
  Pulay mixing of updated and previous charge densities.
  Available memory per node after mixing [GB]:   1007.36
  Renormalizing the density to the exact electron count on the 3D integration grid.
  | Formal number of electrons (from input files) :      28.0000000000
  | Integrated number of electrons on 3D grid     :      27.9999999998
  | Charge integration error                      :      -0.0000000002
  | Normalization factor for density and gradient :       1.0000000000

  Evaluating partitioned Hartree potential by multipole expansion.
  | Original multipole sum: apparent total charge =   0.206621E-14
  | Sum of charges compensated after spline to logarithmic grids =   0.502836E-05
  | Analytical far-field extrapolation by fixed multipoles:
  | Hartree multipole sum: apparent total charge =   0.275495E-14
  Summing up the Hartree potential.
  Time summed over all CPUs for potential: real work        0.001 s, elapsed        0.001 s
  | RMS charge density error from multipole expansion :   0.100435E-02

  Integrating Hamiltonian matrix: batch-based integration.
  Time summed over all CPUs for integration: real work        0.075 s, elapsed        0.080 s

  Updating Kohn-Sham eigenvalues and eigenvectors using ELSI and the ELPA eigensolver.
  Starting ELPA eigensolver
  Finished transformation to standard eigenproblem
  | Time :     0.000 s
  Finished solving standard eigenproblem
  | Time :     0.030 s
  Finished back-transformation of eigenvectors
  | Time :     0.000 s

  Obtaining occupation numbers and electronic chemical potential using ELSI.
  | Note that, for insulating systems, the printed 'chemical potential' value is not uniquely defined.
  | It can be anywhere in the energy gap, as long as it correctly separates occupied and unoccupied states.
  | In systems with a gap, the physically relevant chemical potential is the VBM or HOMO.

  | Chemical potential (Fermi level):    -4.65763299 eV
  Highest occupied state (VBM) at     -4.65763299 eV
  | Occupation number:      1.00000012

  Lowest unoccupied state (CBM) at    -1.52826873 eV
  | Occupation number:      0.00000000

  This system has fractional occupation numbers. Thus, it is a degenerate system
  within the approximate finite broadening function (occupation_type)
  applied to determine the occupation numbers.
  This may not be harmful. However, for some systems (free atoms), a different, non-degenerate
  ground state might exist by using a smaller broadening (see keyword occupation_type).
  Overall HOMO-LUMO gap:      0.00000000 eV.

  Total energy components:
  | Sum of eigenvalues            :        -338.29153130 Ha       -9205.38093124 eV
  | XC energy correction          :         -41.92163040 Ha       -1140.74560374 eV
  | XC potential correction       :          54.12662917 Ha        1472.86051815 eV
  | Free-atom electrostatic energy:        -273.18239678 Ha       -7433.67123748 eV
  | Hartree energy correction     :          -0.91849381 Ha         -24.99348822 eV
  | Entropy correction            :          -0.00020734 Ha          -0.00564190 eV
  | ---------------------------
  | Total energy                  :        -600.18742312 Ha      -16331.93074254 eV
  | Total energy, T -> 0          :        -600.18763045 Ha      -16331.93638444 eV  <-- do not rely on this value for anything but (periodic) metals
  | Electronic free energy        :        -600.18783779 Ha      -16331.94202634 eV

  Derived energy quantities:
  | Kinetic energy                :         601.66014723 Ha       16372.00560451 eV
  | Electrostatic energy          :       -1159.92593994 Ha      -31563.19074330 eV
  | Energy correction for multipole
  | error in Hartree potential    :          -0.00060695 Ha          -0.01651589 eV
  | Sum of eigenvalues per atom                           :       -4602.69046562 eV
  | Total energy (T->0) per atom                          :       -8165.96819222 eV  <-- do not rely on this value for anything but (periodic) metals
  | Electronic free energy per atom                       :       -8165.97101317 eV
  Evaluating new KS density.
  Integration grid: deviation in total charge (<rho> - N_e) =   7.181065E-10

  Self-consistency convergence accuracy:
  | Change of charge density      :  0.2495E+00
  | Change of unmixed KS density  :  0.2950E-01
  | Change of sum of eigenvalues  : -0.9676E+01 eV
  | Change of total energy        :  0.2094E+01 eV


------------------------------------------------------------
  End self-consistency iteration #     8       :  max(cpu_time)    wall_clock(cpu1)
  | Time for this iteration                     :        0.292 s           0.290 s
  | Charge density update                       :        0.001 s           0.001 s
  | Density mixing                              :        0.256 s           0.254 s
  | Hartree multipole update                    :        0.001 s           0.001 s
  | Hartree multipole summation                 :        0.002 s           0.002 s
  | Integration                                 :        0.001 s           0.001 s
  | Solution of K.-S. eqns.                     :        0.030 s           0.031 s
  | Total energy evaluation                     :        0.000 s           0.000 s

  Partial memory accounting:
  | Current value for overall tracked memory usage:
  |   Minimum:        0.355 MB (on task 27)
  |   Maximum:        0.420 MB (on task  3)
  |   Average:        0.378 MB
  | Peak value for overall tracked memory usage:
  |   Minimum:        0.558 MB (on task 27 after allocating gradient_basis_wave)
  |   Maximum:        0.624 MB (on task  3 after allocating gradient_basis_wave)
  |   Average:        0.581 MB
  | Largest tracked array allocation so far:
  |   Minimum:        0.149 MB (gradient_basis_wave on task  0)
  |   Maximum:        0.153 MB (gradient_basis_wave on task  1)
  |   Average:        0.152 MB
  Note:  These values currently only include a subset of arrays which are explicitly tracked.
  The "true" memory usage will be greater.
------------------------------------------------------------

------------------------------------------------------------
          Begin self-consistency iteration #    9

  Date     :  20260724, Time     :  132357.300
------------------------------------------------------------
  Pulay mixing of updated and previous charge densities.
  Available memory per node after mixing [GB]:   1007.36
  Renormalizing the density to the exact electron count on the 3D integration grid.
  | Formal number of electrons (from input files) :      28.0000000000
  | Integrated number of electrons on 3D grid     :      28.0000000000
  | Charge integration error                      :       0.0000000000
  | Normalization factor for density and gradient :       1.0000000000

  Evaluating partitioned Hartree potential by multipole expansion.
  | Original multipole sum: apparent total charge =   0.413242E-14
  | Sum of charges compensated after spline to logarithmic grids =   0.502290E-05
  | Analytical far-field extrapolation by fixed multipoles:
  | Hartree multipole sum: apparent total charge =   0.354207E-14
  Summing up the Hartree potential.
  Time summed over all CPUs for potential: real work        0.001 s, elapsed        0.002 s
  | RMS charge density error from multipole expansion :   0.995873E-03

  Integrating Hamiltonian matrix: batch-based integration.
  Time summed over all CPUs for integration: real work        0.074 s, elapsed        0.081 s

  Updating Kohn-Sham eigenvalues and eigenvectors using ELSI and the ELPA eigensolver.
  Starting ELPA eigensolver
  Finished transformation to standard eigenproblem
  | Time :     0.000 s
  Finished solving standard eigenproblem
  | Time :     0.001 s
  Finished back-transformation of eigenvectors
  | Time :     0.000 s

  Obtaining occupation numbers and electronic chemical potential using ELSI.
  | Note that, for insulating systems, the printed 'chemical potential' value is not uniquely defined.
  | It can be anywhere in the energy gap, as long as it correctly separates occupied and unoccupied states.
  | In systems with a gap, the physically relevant chemical potential is the VBM or HOMO.

  | Chemical potential (Fermi level):    -4.69792171 eV
  Highest occupied state (VBM) at     -4.72459868 eV
  | Occupation number:      1.99983851

  Lowest unoccupied state (CBM) at    -4.67249325 eV
  | Occupation number:      0.00032299

  Overall HOMO-LUMO gap:      0.05210543 eV.

  Total energy components:
  | Sum of eigenvalues            :        -338.28301477 Ha       -9205.14918471 eV
  | XC energy correction          :         -41.92371308 Ha       -1140.80227637 eV
  | XC potential correction       :          54.12933844 Ha        1472.93424111 eV
  | Free-atom electrostatic energy:        -273.18239678 Ha       -7433.67123748 eV
  | Hartree energy correction     :          -0.92571062 Ha         -25.18986749 eV
  | Entropy correction            :          -0.00000033 Ha          -0.00000897 eV
  | ---------------------------
  | Total energy                  :        -600.18549681 Ha      -16331.87832494 eV
  | Total energy, T -> 0          :        -600.18549714 Ha      -16331.87833391 eV  <-- do not rely on this value for anything but (periodic) metals
  | Electronic free energy        :        -600.18549747 Ha      -16331.87834287 eV

  Derived energy quantities:
  | Kinetic energy                :         601.69842378 Ha       16373.04716262 eV
  | Electrostatic energy          :       -1159.96020751 Ha      -31564.12321120 eV
  | Energy correction for multipole
  | error in Hartree potential    :          -0.00056789 Ha          -0.01545318 eV
  | Sum of eigenvalues per atom                           :       -4602.57459236 eV
  | Total energy (T->0) per atom                          :       -8165.93916695 eV  <-- do not rely on this value for anything but (periodic) metals
  | Electronic free energy per atom                       :       -8165.93917144 eV
  Evaluating new KS density.
  Integration grid: deviation in total charge (<rho> - N_e) =  -4.835243E-12

  Self-consistency convergence accuracy:
  | Change of charge density      :  0.1959E+00
  | Change of unmixed KS density  :  0.5398E-01
  | Change of sum of eigenvalues  :  0.2317E+00 eV
  | Change of total energy        :  0.5242E-01 eV


------------------------------------------------------------
  End self-consistency iteration #     9       :  max(cpu_time)    wall_clock(cpu1)
  | Time for this iteration                     :        0.304 s           0.265 s
  | Charge density update                       :        0.001 s           0.002 s
  | Density mixing                              :        0.298 s           0.258 s
  | Hartree multipole update                    :        0.001 s           0.001 s
  | Hartree multipole summation                 :        0.002 s           0.002 s
  | Integration                                 :        0.001 s           0.001 s
  | Solution of K.-S. eqns.                     :        0.001 s           0.001 s
  | Total energy evaluation                     :        0.000 s           0.000 s

  Partial memory accounting:
  | Current value for overall tracked memory usage:
  |   Minimum:        0.355 MB (on task 27)
  |   Maximum:        0.421 MB (on task  3)
  |   Average:        0.378 MB
  | Peak value for overall tracked memory usage:
  |   Minimum:        0.558 MB (on task 27 after allocating gradient_basis_wave)
  |   Maximum:        0.624 MB (on task  3 after allocating gradient_basis_wave)
  |   Average:        0.581 MB
  | Largest tracked array allocation so far:
  |   Minimum:        0.149 MB (gradient_basis_wave on task  0)
  |   Maximum:        0.153 MB (gradient_basis_wave on task  1)
  |   Average:        0.152 MB
  Note:  These values currently only include a subset of arrays which are explicitly tracked.
  The "true" memory usage will be greater.
------------------------------------------------------------

------------------------------------------------------------
          Begin self-consistency iteration #   10

  Date     :  20260724, Time     :  132357.778
------------------------------------------------------------
  Pulay mixing of updated and previous charge densities.
  Available memory per node after mixing [GB]:   1007.36
  Renormalizing the density to the exact electron count on the 3D integration grid.
  | Formal number of electrons (from input files) :      28.0000000000
  | Integrated number of electrons on 3D grid     :      28.0000000000
  | Charge integration error                      :      -0.0000000000
  | Normalization factor for density and gradient :       1.0000000000

  Evaluating partitioned Hartree potential by multipole expansion.
  | Original multipole sum: apparent total charge =   0.167265E-14
  | Sum of charges compensated after spline to logarithmic grids =   0.464228E-05
  | Analytical far-field extrapolation by fixed multipoles:
  | Hartree multipole sum: apparent total charge =   0.132828E-14
  Summing up the Hartree potential.
  Time summed over all CPUs for potential: real work        0.001 s, elapsed        0.001 s
  | RMS charge density error from multipole expansion :   0.918914E-03

  Integrating Hamiltonian matrix: batch-based integration.
  Time summed over all CPUs for integration: real work        0.075 s, elapsed        0.085 s

  Updating Kohn-Sham eigenvalues and eigenvectors using ELSI and the ELPA eigensolver.
  Starting ELPA eigensolver
  Finished transformation to standard eigenproblem
  | Time :     0.000 s
  Finished solving standard eigenproblem
  | Time :     0.001 s
  Finished back-transformation of eigenvectors
  | Time :     0.000 s

  Obtaining occupation numbers and electronic chemical potential using ELSI.
  | Note that, for insulating systems, the printed 'chemical potential' value is not uniquely defined.
  | It can be anywhere in the energy gap, as long as it correctly separates occupied and unoccupied states.
  | In systems with a gap, the physically relevant chemical potential is the VBM or HOMO.

  | Chemical potential (Fermi level):    -4.80308706 eV
  Highest occupied state (VBM) at     -4.93593755 eV
  | Occupation number:      2.00000000

  Lowest unoccupied state (CBM) at    -4.67023656 eV
  | Occupation number:      0.00000000

  Overall HOMO-LUMO gap:      0.26570098 eV.

  Total energy components:
  | Sum of eigenvalues            :        -338.36252892 Ha       -9207.31287491 eV
  | XC energy correction          :         -41.91918918 Ha       -1140.67917461 eV
  | XC potential correction       :          54.12333165 Ha        1472.77078804 eV
  | Free-atom electrostatic energy:        -273.18239678 Ha       -7433.67123748 eV
  | Hartree energy correction     :          -0.84714172 Ha         -23.05189907 eV
  | Entropy correction            :          -0.00000000 Ha          -0.00000000 eV
  | ---------------------------
  | Total energy                  :        -600.18792495 Ha      -16331.94439803 eV
  | Total energy, T -> 0          :        -600.18792495 Ha      -16331.94439803 eV  <-- do not rely on this value for anything but (periodic) metals
  | Electronic free energy        :        -600.18792495 Ha      -16331.94439803 eV

  Derived energy quantities:
  | Kinetic energy                :         601.71292524 Ha       16373.44176741 eV
  | Electrostatic energy          :       -1159.98166101 Ha      -31564.70699083 eV
  | Energy correction for multipole
  | error in Hartree potential    :          -0.00051481 Ha          -0.01400866 eV
  | Sum of eigenvalues per atom                           :       -4603.65643746 eV
  | Total energy (T->0) per atom                          :       -8165.97219902 eV  <-- do not rely on this value for anything but (periodic) metals
  | Electronic free energy per atom                       :       -8165.97219902 eV
  Evaluating new KS density.
  Integration grid: deviation in total charge (<rho> - N_e) =   1.421085E-14

  Self-consistency convergence accuracy:
  | Change of charge density      :  0.4638E-01
  | Change of unmixed KS density  :  0.2297E+00
  | Change of sum of eigenvalues  : -0.2164E+01 eV
  | Change of total energy        : -0.6607E-01 eV


------------------------------------------------------------
  End self-consistency iteration #    10       :  max(cpu_time)    wall_clock(cpu1)
  | Time for this iteration                     :        0.259 s           0.058 s
  | Charge density update                       :        0.001 s           0.001 s
  | Density mixing                              :        0.252 s           0.051 s
  | Hartree multipole update                    :        0.001 s           0.001 s
  | Hartree multipole summation                 :        0.002 s           0.002 s
  | Integration                                 :        0.001 s           0.002 s
  | Solution of K.-S. eqns.                     :        0.001 s           0.001 s
  | Total energy evaluation                     :        0.000 s           0.000 s

  Partial memory accounting:
  | Current value for overall tracked memory usage:
  |   Minimum:        0.355 MB (on task 27)
  |   Maximum:        0.421 MB (on task  3)
  |   Average:        0.378 MB
  | Peak value for overall tracked memory usage:
  |   Minimum:        0.558 MB (on task 27 after allocating gradient_basis_wave)
  |   Maximum:        0.624 MB (on task  3 after allocating gradient_basis_wave)
  |   Average:        0.581 MB
  | Largest tracked array allocation so far:
  |   Minimum:        0.149 MB (gradient_basis_wave on task  0)
  |   Maximum:        0.153 MB (gradient_basis_wave on task  1)
  |   Average:        0.152 MB
  Note:  These values currently only include a subset of arrays which are explicitly tracked.
  The "true" memory usage will be greater.
------------------------------------------------------------

------------------------------------------------------------
          Begin self-consistency iteration #   11

  Date     :  20260724, Time     :  132358.096
------------------------------------------------------------
  Pulay mixing of updated and previous charge densities.
  Available memory per node after mixing [GB]:   1007.36
  Renormalizing the density to the exact electron count on the 3D integration grid.
  | Formal number of electrons (from input files) :      28.0000000000
  | Integrated number of electrons on 3D grid     :      28.0000000000
  | Charge integration error                      :      -0.0000000000
  | Normalization factor for density and gradient :       1.0000000000

  Evaluating partitioned Hartree potential by multipole expansion.
  | Original multipole sum: apparent total charge =   0.865840E-14
  | Sum of charges compensated after spline to logarithmic grids =   0.481546E-05
  | Analytical far-field extrapolation by fixed multipoles:
  | Hartree multipole sum: apparent total charge =   0.728093E-14
  Summing up the Hartree potential.
  Time summed over all CPUs for potential: real work        0.001 s, elapsed        0.002 s
  | RMS charge density error from multipole expansion :   0.946799E-03

  Integrating Hamiltonian matrix: batch-based integration.
  Time summed over all CPUs for integration: real work        0.074 s, elapsed        0.082 s

  Updating Kohn-Sham eigenvalues and eigenvectors using ELSI and the ELPA eigensolver.
  Starting ELPA eigensolver
  Finished transformation to standard eigenproblem
  | Time :     0.000 s
  Finished solving standard eigenproblem
  | Time :     0.001 s
  Finished back-transformation of eigenvectors
  | Time :     0.000 s

  Obtaining occupation numbers and electronic chemical potential using ELSI.
  | Note that, for insulating systems, the printed 'chemical potential' value is not uniquely defined.
  | It can be anywhere in the energy gap, as long as it correctly separates occupied and unoccupied states.
  | In systems with a gap, the physically relevant chemical potential is the VBM or HOMO.

  | Chemical potential (Fermi level):    -4.71364133 eV
  Highest occupied state (VBM) at     -4.77596274 eV
  | Occupation number:      2.00000000

  Lowest unoccupied state (CBM) at    -4.65131993 eV
  | Occupation number:      0.00000000

  Overall HOMO-LUMO gap:      0.12464281 eV.

  Total energy components:
  | Sum of eigenvalues            :        -338.26999251 Ha       -9204.79483092 eV
  | XC energy correction          :         -41.92459822 Ha       -1140.82636226 eV
  | XC potential correction       :          54.13049805 Ha        1472.96579556 eV
  | Free-atom electrostatic energy:        -273.18239678 Ha       -7433.67123748 eV
  | Hartree energy correction     :          -0.93985134 Ha         -25.57465631 eV
  | Entropy correction            :          -0.00000000 Ha          -0.00000000 eV
  | ---------------------------
  | Total energy                  :        -600.18634081 Ha      -16331.90129140 eV
  | Total energy, T -> 0          :        -600.18634081 Ha      -16331.90129140 eV  <-- do not rely on this value for anything but (periodic) metals
  | Electronic free energy        :        -600.18634081 Ha      -16331.90129140 eV

  Derived energy quantities:
  | Kinetic energy                :         601.72171748 Ha       16373.68101630 eV
  | Electrostatic energy          :       -1159.98346006 Ha      -31564.75594544 eV
  | Energy correction for multipole
  | error in Hartree potential    :          -0.00052389 Ha          -0.01425585 eV
  | Sum of eigenvalues per atom                           :       -4602.39741546 eV
  | Total energy (T->0) per atom                          :       -8165.95064570 eV  <-- do not rely on this value for anything but (periodic) metals
  | Electronic free energy per atom                       :       -8165.95064570 eV
  Evaluating new KS density.
  Integration grid: deviation in total charge (<rho> - N_e) =   1.421085E-14

  Self-consistency convergence accuracy:
  | Change of charge density      :  0.5259E-01
  | Change of unmixed KS density  :  0.2667E-01
  | Change of sum of eigenvalues  :  0.2518E+01 eV
  | Change of total energy        :  0.4311E-01 eV


------------------------------------------------------------
  End self-consistency iteration #    11       :  max(cpu_time)    wall_clock(cpu1)
  | Time for this iteration                     :        0.265 s           0.016 s
  | Charge density update                       :        0.001 s           0.001 s
  | Density mixing                              :        0.258 s           0.009 s
  | Hartree multipole update                    :        0.001 s           0.002 s
  | Hartree multipole summation                 :        0.002 s           0.001 s
  | Integration                                 :        0.001 s           0.002 s
  | Solution of K.-S. eqns.                     :        0.001 s           0.001 s
  | Total energy evaluation                     :        0.000 s           0.000 s

  Partial memory accounting:
  | Current value for overall tracked memory usage:
  |   Minimum:        0.355 MB (on task 27)
  |   Maximum:        0.421 MB (on task  3)
  |   Average:        0.378 MB
  | Peak value for overall tracked memory usage:
  |   Minimum:        0.558 MB (on task 27 after allocating gradient_basis_wave)
  |   Maximum:        0.624 MB (on task  3 after allocating gradient_basis_wave)
  |   Average:        0.581 MB
  | Largest tracked array allocation so far:
  |   Minimum:        0.149 MB (gradient_basis_wave on task  0)
  |   Maximum:        0.153 MB (gradient_basis_wave on task  1)
  |   Average:        0.152 MB
  Note:  These values currently only include a subset of arrays which are explicitly tracked.
  The "true" memory usage will be greater.
------------------------------------------------------------

------------------------------------------------------------
          Begin self-consistency iteration #   12

  Date     :  20260724, Time     :  132358.135
------------------------------------------------------------
  Pulay mixing of updated and previous charge densities.
  Available memory per node after mixing [GB]:   1007.36
  Renormalizing the density to the exact electron count on the 3D integration grid.
  | Formal number of electrons (from input files) :      28.0000000000
  | Integrated number of electrons on 3D grid     :      28.0000000001
  | Charge integration error                      :       0.0000000001
  | Normalization factor for density and gradient :       1.0000000000

  Evaluating partitioned Hartree potential by multipole expansion.
  | Original multipole sum: apparent total charge =   0.393564E-15
  | Sum of charges compensated after spline to logarithmic grids =   0.506995E-05
  | Analytical far-field extrapolation by fixed multipoles:
  | Hartree multipole sum: apparent total charge =   0.157426E-14
  Summing up the Hartree potential.
  Time summed over all CPUs for potential: real work        0.001 s, elapsed        0.001 s
  | RMS charge density error from multipole expansion :   0.100555E-02

  Integrating Hamiltonian matrix: batch-based integration.
  Time summed over all CPUs for integration: real work        0.075 s, elapsed        0.088 s

  Updating Kohn-Sham eigenvalues and eigenvectors using ELSI and the ELPA eigensolver.
  Starting ELPA eigensolver
  Finished transformation to standard eigenproblem
  | Time :     0.000 s
  Finished solving standard eigenproblem
  | Time :     0.026 s
  Finished back-transformation of eigenvectors
  | Time :     0.000 s

  Obtaining occupation numbers and electronic chemical potential using ELSI.
  | Note that, for insulating systems, the printed 'chemical potential' value is not uniquely defined.
  | It can be anywhere in the energy gap, as long as it correctly separates occupied and unoccupied states.
  | In systems with a gap, the physically relevant chemical potential is the VBM or HOMO.

  | Chemical potential (Fermi level):    -4.70360531 eV
  Highest occupied state (VBM) at     -4.73294015 eV
  | Occupation number:      1.99996654

  Lowest unoccupied state (CBM) at    -4.67541288 eV
  | Occupation number:      0.00006691

  Overall HOMO-LUMO gap:      0.05752727 eV.

  Total energy components:
  | Sum of eigenvalues            :        -338.28791643 Ha       -9205.28256577 eV
  | XC energy correction          :         -41.92382497 Ha       -1140.80532094 eV
  | XC potential correction       :          54.12946561 Ha        1472.93770161 eV
  | Free-atom electrostatic energy:        -273.18239678 Ha       -7433.67123748 eV
  | Hartree energy correction     :          -0.92079144 Ha         -25.05601001 eV
  | Entropy correction            :          -0.00000007 Ha          -0.00000203 eV
  | ---------------------------
  | Total energy                  :        -600.18546401 Ha      -16331.87743259 eV
  | Total energy, T -> 0          :        -600.18546409 Ha      -16331.87743462 eV  <-- do not rely on this value for anything but (periodic) metals
  | Electronic free energy        :        -600.18546416 Ha      -16331.87743665 eV

  Derived energy quantities:
  | Kinetic energy                :         601.70265206 Ha       16373.16221978 eV
  | Electrostatic energy          :       -1159.96429110 Ha      -31564.23433143 eV
  | Energy correction for multipole
  | error in Hartree potential    :          -0.00057280 Ha          -0.01558666 eV
  | Sum of eigenvalues per atom                           :       -4602.64128289 eV
  | Total energy (T->0) per atom                          :       -8165.93871731 eV  <-- do not rely on this value for anything but (periodic) metals
  | Electronic free energy per atom                       :       -8165.93871832 eV
  Evaluating new KS density.
  Integration grid: deviation in total charge (<rho> - N_e) =  -5.165859E-10

  Self-consistency convergence accuracy:
  | Change of charge density      :  0.5338E-01
  | Change of unmixed KS density  :  0.2331E-01
  | Change of sum of eigenvalues  : -0.4877E+00 eV
  | Change of total energy        :  0.2386E-01 eV


------------------------------------------------------------
  End self-consistency iteration #    12       :  max(cpu_time)    wall_clock(cpu1)
  | Time for this iteration                     :        0.282 s           0.271 s
  | Charge density update                       :        0.001 s           0.001 s
  | Density mixing                              :        0.250 s           0.239 s
  | Hartree multipole update                    :        0.001 s           0.001 s
  | Hartree multipole summation                 :        0.002 s           0.002 s
  | Integration                                 :        0.002 s           0.002 s
  | Solution of K.-S. eqns.                     :        0.026 s           0.026 s
  | Total energy evaluation                     :        0.000 s           0.000 s

  Partial memory accounting:
  | Current value for overall tracked memory usage:
  |   Minimum:        0.355 MB (on task 27)
  |   Maximum:        0.421 MB (on task  3)
  |   Average:        0.378 MB
  | Peak value for overall tracked memory usage:
  |   Minimum:        0.558 MB (on task 27 after allocating gradient_basis_wave)
  |   Maximum:        0.624 MB (on task  3 after allocating gradient_basis_wave)
  |   Average:        0.581 MB
  | Largest tracked array allocation so far:
  |   Minimum:        0.149 MB (gradient_basis_wave on task  0)
  |   Maximum:        0.153 MB (gradient_basis_wave on task  1)
  |   Average:        0.152 MB
  Note:  These values currently only include a subset of arrays which are explicitly tracked.
  The "true" memory usage will be greater.
------------------------------------------------------------

------------------------------------------------------------
          Begin self-consistency iteration #   13

  Date     :  20260724, Time     :  132358.654
------------------------------------------------------------
  Pulay mixing of updated and previous charge densities.
  Available memory per node after mixing [GB]:   1007.36
  Renormalizing the density to the exact electron count on the 3D integration grid.
  | Formal number of electrons (from input files) :      28.0000000000
  | Integrated number of electrons on 3D grid     :      27.9999999997
  | Charge integration error                      :      -0.0000000003
  | Normalization factor for density and gradient :       1.0000000000

  Evaluating partitioned Hartree potential by multipole expansion.
  | Original multipole sum: apparent total charge =   0.196782E-15
  | Sum of charges compensated after spline to logarithmic grids =   0.475714E-05
  | Analytical far-field extrapolation by fixed multipoles:
  | Hartree multipole sum: apparent total charge =   0.196782E-15
  Summing up the Hartree potential.
  Time summed over all CPUs for potential: real work        0.001 s, elapsed        0.001 s
  | RMS charge density error from multipole expansion :   0.946376E-03

  Integrating Hamiltonian matrix: batch-based integration.
  Time summed over all CPUs for integration: real work        0.075 s, elapsed        0.085 s

  Updating Kohn-Sham eigenvalues and eigenvectors using ELSI and the ELPA eigensolver.
  Starting ELPA eigensolver
  Finished transformation to standard eigenproblem
  | Time :     0.000 s
  Finished solving standard eigenproblem
  | Time :     0.001 s
  Finished back-transformation of eigenvectors
  | Time :     0.000 s

  Obtaining occupation numbers and electronic chemical potential using ELSI.
  | Note that, for insulating systems, the printed 'chemical potential' value is not uniquely defined.
  | It can be anywhere in the energy gap, as long as it correctly separates occupied and unoccupied states.
  | In systems with a gap, the physically relevant chemical potential is the VBM or HOMO.

  | Chemical potential (Fermi level):    -4.79447289 eV
  Highest occupied state (VBM) at     -4.92428001 eV
  | Occupation number:      2.00000000

  Lowest unoccupied state (CBM) at    -4.66466578 eV
  | Occupation number:      0.00000000

  Overall HOMO-LUMO gap:      0.25961423 eV.

  Total energy components:
  | Sum of eigenvalues            :        -338.35086443 Ha       -9206.99546788 eV
  | XC energy correction          :         -41.91994015 Ha       -1140.69960965 eV
  | XC potential correction       :          54.12424778 Ha        1472.79571714 eV
  | Free-atom electrostatic energy:        -273.18239678 Ha       -7433.67123748 eV
  | Hartree energy correction     :          -0.85889834 Ha         -23.37181303 eV
  | Entropy correction            :          -0.00000000 Ha          -0.00000000 eV
  | ---------------------------
  | Total energy                  :        -600.18785192 Ha      -16331.94241091 eV
  | Total energy, T -> 0          :        -600.18785192 Ha      -16331.94241091 eV  <-- do not rely on this value for anything but (periodic) metals
  | Electronic free energy        :        -600.18785192 Ha      -16331.94241091 eV

  Derived energy quantities:
  | Kinetic energy                :         601.72173097 Ha       16373.68138333 eV
  | Electrostatic energy          :       -1159.98964274 Ha      -31564.92418459 eV
  | Energy correction for multipole
  | error in Hartree potential    :          -0.00054336 Ha          -0.01478549 eV
  | Sum of eigenvalues per atom                           :       -4603.49773394 eV
  | Total energy (T->0) per atom                          :       -8165.97120545 eV  <-- do not rely on this value for anything but (periodic) metals
  | Electronic free energy per atom                       :       -8165.97120545 eV
  Evaluating new KS density.
  Integration grid: deviation in total charge (<rho> - N_e) =  -3.552714E-15

  Self-consistency convergence accuracy:
  | Change of charge density      :  0.4415E-01
  | Change of unmixed KS density  :  0.2202E-02
  | Change of sum of eigenvalues  : -0.1713E+01 eV
  | Change of total energy        : -0.6498E-01 eV


------------------------------------------------------------
  End self-consistency iteration #    13       :  max(cpu_time)    wall_clock(cpu1)
  | Time for this iteration                     :        0.261 s           0.026 s
  | Charge density update                       :        0.001 s           0.001 s
  | Density mixing                              :        0.254 s           0.019 s
  | Hartree multipole update                    :        0.001 s           0.002 s
  | Hartree multipole summation                 :        0.002 s           0.001 s
  | Integration                                 :        0.001 s           0.002 s
  | Solution of K.-S. eqns.                     :        0.001 s           0.001 s
  | Total energy evaluation                     :        0.000 s           0.000 s

  Partial memory accounting:
  | Current value for overall tracked memory usage:
  |   Minimum:        0.355 MB (on task 27)
  |   Maximum:        0.421 MB (on task  3)
  |   Average:        0.378 MB
  | Peak value for overall tracked memory usage:
  |   Minimum:        0.558 MB (on task 27 after allocating gradient_basis_wave)
  |   Maximum:        0.624 MB (on task  3 after allocating gradient_basis_wave)
  |   Average:        0.581 MB
  | Largest tracked array allocation so far:
  |   Minimum:        0.149 MB (gradient_basis_wave on task  0)
  |   Maximum:        0.153 MB (gradient_basis_wave on task  1)
  |   Average:        0.152 MB
  Note:  These values currently only include a subset of arrays which are explicitly tracked.
  The "true" memory usage will be greater.
------------------------------------------------------------

------------------------------------------------------------
          Begin self-consistency iteration #   14

  Date     :  20260724, Time     :  132358.924
------------------------------------------------------------
  Pulay mixing of updated and previous charge densities.
  Available memory per node after mixing [GB]:   1007.36
  Renormalizing the density to the exact electron count on the 3D integration grid.
  | Formal number of electrons (from input files) :      28.0000000000
  | Integrated number of electrons on 3D grid     :      28.0000000000
  | Charge integration error                      :      -0.0000000000
  | Normalization factor for density and gradient :       1.0000000000

  Evaluating partitioned Hartree potential by multipole expansion.
  | Original multipole sum: apparent total charge =   0.905197E-14
  | Sum of charges compensated after spline to logarithmic grids =   0.498831E-05
  | Analytical far-field extrapolation by fixed multipoles:
  | Hartree multipole sum: apparent total charge =   0.846162E-14
  Summing up the Hartree potential.
  Time summed over all CPUs for potential: real work        0.001 s, elapsed        0.002 s
  | RMS charge density error from multipole expansion :   0.992054E-03

  Integrating Hamiltonian matrix: batch-based integration.
  Time summed over all CPUs for integration: real work        0.075 s, elapsed        0.088 s

  Updating Kohn-Sham eigenvalues and eigenvectors using ELSI and the ELPA eigensolver.
  Starting ELPA eigensolver
  Finished transformation to standard eigenproblem
  | Time :     0.000 s
  Finished solving standard eigenproblem
  | Time :     0.001 s
  Finished back-transformation of eigenvectors
  | Time :     0.000 s

  Obtaining occupation numbers and electronic chemical potential using ELSI.
  | Note that, for insulating systems, the printed 'chemical potential' value is not uniquely defined.
  | It can be anywhere in the energy gap, as long as it correctly separates occupied and unoccupied states.
  | In systems with a gap, the physically relevant chemical potential is the VBM or HOMO.

  | Chemical potential (Fermi level):    -4.75153391 eV
  Highest occupied state (VBM) at     -4.83418449 eV
  | Occupation number:      2.00000000

  Lowest unoccupied state (CBM) at    -4.66888333 eV
  | Occupation number:      0.00000000

  Overall HOMO-LUMO gap:      0.16530116 eV.

  Total energy components:
  | Sum of eigenvalues            :        -338.31432545 Ha       -9206.00119177 eV
  | XC energy correction          :         -41.92259768 Ha       -1140.77192484 eV
  | XC potential correction       :          54.12774906 Ha        1472.89099185 eV
  | Free-atom electrostatic energy:        -273.18239678 Ha       -7433.67123748 eV
  | Hartree energy correction     :          -0.89486703 Ha         -24.35057083 eV
  | Entropy correction            :          -0.00000000 Ha          -0.00000000 eV
  | ---------------------------
  | Total energy                  :        -600.18643789 Ha      -16331.90393307 eV
  | Total energy, T -> 0          :        -600.18643789 Ha      -16331.90393307 eV  <-- do not rely on this value for anything but (periodic) metals
  | Electronic free energy        :        -600.18643789 Ha      -16331.90393307 eV

  Derived energy quantities:
  | Kinetic energy                :         601.72420074 Ha       16373.74858935 eV
  | Electrostatic energy          :       -1159.98804095 Ha      -31564.88059759 eV
  | Energy correction for multipole
  | error in Hartree potential    :          -0.00056939 Ha          -0.01549376 eV
  | Sum of eigenvalues per atom                           :       -4603.00059589 eV
  | Total energy (T->0) per atom                          :       -8165.95196654 eV  <-- do not rely on this value for anything but (periodic) metals
  | Electronic free energy per atom                       :       -8165.95196654 eV
  Evaluating new KS density.
  Integration grid: deviation in total charge (<rho> - N_e) =   1.776357E-14

  Self-consistency convergence accuracy:
  | Change of charge density      :  0.4907E-01
  | Change of unmixed KS density  :  0.2871E-01
  | Change of sum of eigenvalues  :  0.9943E+00 eV
  | Change of total energy        :  0.3848E-01 eV


------------------------------------------------------------
  End self-consistency iteration #    14       :  max(cpu_time)    wall_clock(cpu1)
  | Time for this iteration                     :        0.266 s           0.031 s
  | Charge density update                       :        0.001 s           0.001 s
  | Density mixing                              :        0.259 s           0.024 s
  | Hartree multipole update                    :        0.001 s           0.001 s
  | Hartree multipole summation                 :        0.002 s           0.002 s
  | Integration                                 :        0.002 s           0.002 s
  | Solution of K.-S. eqns.                     :        0.001 s           0.001 s
  | Total energy evaluation                     :        0.000 s           0.000 s

  Partial memory accounting:
  | Current value for overall tracked memory usage:
  |   Minimum:        0.355 MB (on task 27)
  |   Maximum:        0.421 MB (on task  3)
  |   Average:        0.378 MB
  | Peak value for overall tracked memory usage:
  |   Minimum:        0.558 MB (on task 27 after allocating gradient_basis_wave)
  |   Maximum:        0.624 MB (on task  3 after allocating gradient_basis_wave)
  |   Average:        0.581 MB
  | Largest tracked array allocation so far:
  |   Minimum:        0.149 MB (gradient_basis_wave on task  0)
  |   Maximum:        0.153 MB (gradient_basis_wave on task  1)
  |   Average:        0.152 MB
  Note:  These values currently only include a subset of arrays which are explicitly tracked.
  The "true" memory usage will be greater.
------------------------------------------------------------

------------------------------------------------------------
          Begin self-consistency iteration #   15

  Date     :  20260724, Time     :  132359.096
------------------------------------------------------------
  Pulay mixing of updated and previous charge densities.
  Available memory per node after mixing [GB]:   1007.37
  Renormalizing the density to the exact electron count on the 3D integration grid.
  | Formal number of electrons (from input files) :      28.0000000000
  | Integrated number of electrons on 3D grid     :      28.0000000000
  | Charge integration error                      :      -0.0000000000
  | Normalization factor for density and gradient :       1.0000000000

  Evaluating partitioned Hartree potential by multipole expansion.
  | Original multipole sum: apparent total charge =  -0.354207E-14
  | Sum of charges compensated after spline to logarithmic grids =   0.498951E-05
  | Analytical far-field extrapolation by fixed multipoles:
  | Hartree multipole sum: apparent total charge =  -0.285334E-14
  Summing up the Hartree potential.
  Time summed over all CPUs for potential: real work        0.001 s, elapsed        0.001 s
  | RMS charge density error from multipole expansion :   0.992107E-03

  Integrating Hamiltonian matrix: batch-based integration.
  Time summed over all CPUs for integration: real work        0.075 s, elapsed        0.088 s

  Updating Kohn-Sham eigenvalues and eigenvectors using ELSI and the ELPA eigensolver.
  Starting ELPA eigensolver
  Finished transformation to standard eigenproblem
  | Time :     0.000 s
  Finished solving standard eigenproblem
  | Time :     0.001 s
  Finished back-transformation of eigenvectors
  | Time :     0.000 s

  Obtaining occupation numbers and electronic chemical potential using ELSI.
  | Note that, for insulating systems, the printed 'chemical potential' value is not uniquely defined.
  | It can be anywhere in the energy gap, as long as it correctly separates occupied and unoccupied states.
  | In systems with a gap, the physically relevant chemical potential is the VBM or HOMO.

  | Chemical potential (Fermi level):    -4.75094079 eV
  Highest occupied state (VBM) at     -4.83358800 eV
  | Occupation number:      2.00000000

  Lowest unoccupied state (CBM) at    -4.66829358 eV
  | Occupation number:      0.00000000

  Overall HOMO-LUMO gap:      0.16529442 eV.

  Total energy components:
  | Sum of eigenvalues            :        -338.31348748 Ha       -9205.97838925 eV
  | XC energy correction          :         -41.92265082 Ha       -1140.77337064 eV
  | XC potential correction       :          54.12781974 Ha        1472.89291503 eV
  | Free-atom electrostatic energy:        -273.18239678 Ha       -7433.67123748 eV
  | Hartree energy correction     :          -0.89572280 Ha         -24.37385757 eV
  | Entropy correction            :          -0.00000000 Ha          -0.00000000 eV
  | ---------------------------
  | Total energy                  :        -600.18643814 Ha      -16331.90393991 eV
  | Total energy, T -> 0          :        -600.18643814 Ha      -16331.90393991 eV  <-- do not rely on this value for anything but (periodic) metals
  | Electronic free energy        :        -600.18643814 Ha      -16331.90393991 eV

  Derived energy quantities:
  | Kinetic energy                :         601.72435302 Ha       16373.75273299 eV
  | Electrostatic energy          :       -1159.98814034 Ha      -31564.88330225 eV
  | Energy correction for multipole
  | error in Hartree potential    :          -0.00056898 Ha          -0.01548260 eV
  | Sum of eigenvalues per atom                           :       -4602.98919462 eV
  | Total energy (T->0) per atom                          :       -8165.95196995 eV  <-- do not rely on this value for anything but (periodic) metals
  | Electronic free energy per atom                       :       -8165.95196995 eV
  Evaluating new KS density.
  Integration grid: deviation in total charge (<rho> - N_e) =   3.552714E-15

  Self-consistency convergence accuracy:
  | Change of charge density      :  0.4195E-01
  | Change of unmixed KS density  :  0.1057E-01
  | Change of sum of eigenvalues  :  0.2280E-01 eV
  | Change of total energy        : -0.6836E-05 eV


------------------------------------------------------------
  End self-consistency iteration #    15       :  max(cpu_time)    wall_clock(cpu1)
  | Time for this iteration                     :        0.268 s           0.139 s
  | Charge density update                       :        0.001 s           0.001 s
  | Density mixing                              :        0.262 s           0.132 s
  | Hartree multipole update                    :        0.001 s           0.001 s
  | Hartree multipole summation                 :        0.002 s           0.002 s
  | Integration                                 :        0.002 s           0.002 s
  | Solution of K.-S. eqns.                     :        0.001 s           0.001 s
  | Total energy evaluation                     :        0.000 s           0.000 s

  Partial memory accounting:
  | Current value for overall tracked memory usage:
  |   Minimum:        0.355 MB (on task 27)
  |   Maximum:        0.421 MB (on task  3)
  |   Average:        0.378 MB
  | Peak value for overall tracked memory usage:
  |   Minimum:        0.558 MB (on task 27 after allocating gradient_basis_wave)
  |   Maximum:        0.624 MB (on task  3 after allocating gradient_basis_wave)
  |   Average:        0.581 MB
  | Largest tracked array allocation so far:
  |   Minimum:        0.149 MB (gradient_basis_wave on task  0)
  |   Maximum:        0.153 MB (gradient_basis_wave on task  1)
  |   Average:        0.152 MB
  Note:  These values currently only include a subset of arrays which are explicitly tracked.
  The "true" memory usage will be greater.
------------------------------------------------------------

------------------------------------------------------------
          Begin self-consistency iteration #   16

  Date     :  20260724, Time     :  132359.246
------------------------------------------------------------
  Pulay mixing of updated and previous charge densities.
  Available memory per node after mixing [GB]:   1007.37
  Renormalizing the density to the exact electron count on the 3D integration grid.
  | Formal number of electrons (from input files) :      28.0000000000
  | Integrated number of electrons on 3D grid     :      28.0000000001
  | Charge integration error                      :       0.0000000001
  | Normalization factor for density and gradient :       1.0000000000

  Evaluating partitioned Hartree potential by multipole expansion.
  | Original multipole sum: apparent total charge =  -0.482116E-14
  | Sum of charges compensated after spline to logarithmic grids =   0.503081E-05
  | Analytical far-field extrapolation by fixed multipoles:
  | Hartree multipole sum: apparent total charge =  -0.501794E-14
  Summing up the Hartree potential.
  Time summed over all CPUs for potential: real work        0.001 s, elapsed        0.002 s
  | RMS charge density error from multipole expansion :   0.100442E-02

  Integrating Hamiltonian matrix: batch-based integration.
  Time summed over all CPUs for integration: real work        0.075 s, elapsed        0.085 s

  Updating Kohn-Sham eigenvalues and eigenvectors using ELSI and the ELPA eigensolver.
  Starting ELPA eigensolver
  Finished transformation to standard eigenproblem
  | Time :     0.000 s
  Finished solving standard eigenproblem
  | Time :     0.044 s
  Finished back-transformation of eigenvectors
  | Time :     0.000 s

  Obtaining occupation numbers and electronic chemical potential using ELSI.
  | Note that, for insulating systems, the printed 'chemical potential' value is not uniquely defined.
  | It can be anywhere in the energy gap, as long as it correctly separates occupied and unoccupied states.
  | In systems with a gap, the physically relevant chemical potential is the VBM or HOMO.

  | Chemical potential (Fermi level):    -4.73900129 eV
  Highest occupied state (VBM) at     -4.79850212 eV
  | Occupation number:      2.00000000

  Lowest unoccupied state (CBM) at    -4.67950047 eV
  | Occupation number:      0.00000000

  Overall HOMO-LUMO gap:      0.11900165 eV.

  Total energy components:
  | Sum of eigenvalues            :        -338.30934087 Ha       -9205.86555449 eV
  | XC energy correction          :         -41.92257152 Ha       -1140.77121285 eV
  | XC potential correction       :          54.12771567 Ha        1472.89008322 eV
  | Free-atom electrostatic energy:        -273.18239678 Ha       -7433.67123748 eV
  | Hartree energy correction     :          -0.89926188 Ha         -24.47016072 eV
  | Entropy correction            :          -0.00000000 Ha          -0.00000000 eV
  | ---------------------------
  | Total energy                  :        -600.18585538 Ha      -16331.88808231 eV
  | Total energy, T -> 0          :        -600.18585538 Ha      -16331.88808231 eV  <-- do not rely on this value for anything but (periodic) metals
  | Electronic free energy        :        -600.18585538 Ha      -16331.88808231 eV

  Derived energy quantities:
  | Kinetic energy                :         601.71853174 Ha       16373.59432790 eV
  | Electrostatic energy          :       -1159.98181560 Ha      -31564.71119736 eV
  | Energy correction for multipole
  | error in Hartree potential    :          -0.00058776 Ha          -0.01599378 eV
  | Sum of eigenvalues per atom                           :       -4602.93277724 eV
  | Total energy (T->0) per atom                          :       -8165.94404116 eV  <-- do not rely on this value for anything but (periodic) metals
  | Electronic free energy per atom                       :       -8165.94404116 eV
  Evaluating new KS density.
  Integration grid: deviation in total charge (<rho> - N_e) =   7.105427E-15

  Self-consistency convergence accuracy:
  | Change of charge density      :  0.4206E-01
  | Change of unmixed KS density  :  0.1785E-03
  | Change of sum of eigenvalues  :  0.1128E+00 eV
  | Change of total energy        :  0.1586E-01 eV


------------------------------------------------------------
  End self-consistency iteration #    16       :  max(cpu_time)    wall_clock(cpu1)
  | Time for this iteration                     :        0.292 s           0.292 s
  | Charge density update                       :        0.001 s           0.001 s
  | Density mixing                              :        0.242 s           0.242 s
  | Hartree multipole update                    :        0.001 s           0.002 s
  | Hartree multipole summation                 :        0.002 s           0.001 s
  | Integration                                 :        0.001 s           0.002 s
  | Solution of K.-S. eqns.                     :        0.044 s           0.044 s
  | Total energy evaluation                     :        0.000 s           0.000 s

  Partial memory accounting:
  | Current value for overall tracked memory usage:
  |   Minimum:        0.355 MB (on task 27)
  |   Maximum:        0.421 MB (on task  3)
  |   Average:        0.378 MB
  | Peak value for overall tracked memory usage:
  |   Minimum:        0.558 MB (on task 27 after allocating gradient_basis_wave)
  |   Maximum:        0.624 MB (on task  3 after allocating gradient_basis_wave)
  |   Average:        0.581 MB
  | Largest tracked array allocation so far:
  |   Minimum:        0.149 MB (gradient_basis_wave on task  0)
  |   Maximum:        0.153 MB (gradient_basis_wave on task  1)
  |   Average:        0.152 MB
  Note:  These values currently only include a subset of arrays which are explicitly tracked.
  The "true" memory usage will be greater.
------------------------------------------------------------

------------------------------------------------------------
          Begin self-consistency iteration #   17

  Date     :  20260724, Time     :  132359.562
------------------------------------------------------------
  Pulay mixing of updated and previous charge densities.
  Available memory per node after mixing [GB]:   1007.37
  Renormalizing the density to the exact electron count on the 3D integration grid.
  | Formal number of electrons (from input files) :      28.0000000000
  | Integrated number of electrons on 3D grid     :      28.0000000000
  | Charge integration error                      :      -0.0000000000
  | Normalization factor for density and gradient :       1.0000000000

  Evaluating partitioned Hartree potential by multipole expansion.
  | Original multipole sum: apparent total charge =   0.138731E-13
  | Sum of charges compensated after spline to logarithmic grids =   0.506362E-05
  | Analytical far-field extrapolation by fixed multipoles:
  | Hartree multipole sum: apparent total charge =   0.164313E-13
  Summing up the Hartree potential.
  Time summed over all CPUs for potential: real work        0.001 s, elapsed        0.002 s
  | RMS charge density error from multipole expansion :   0.100935E-02

  Integrating Hamiltonian matrix: batch-based integration.
  Time summed over all CPUs for integration: real work        0.076 s, elapsed        0.088 s

  Updating Kohn-Sham eigenvalues and eigenvectors using ELSI and the ELPA eigensolver.
  Starting ELPA eigensolver
  Finished transformation to standard eigenproblem
  | Time :     0.001 s
  Finished solving standard eigenproblem
  | Time :     0.000 s
  Finished back-transformation of eigenvectors
  | Time :     0.000 s

  Obtaining occupation numbers and electronic chemical potential using ELSI.
  | Note that, for insulating systems, the printed 'chemical potential' value is not uniquely defined.
  | It can be anywhere in the energy gap, as long as it correctly separates occupied and unoccupied states.
  | In systems with a gap, the physically relevant chemical potential is the VBM or HOMO.

  | Chemical potential (Fermi level):    -4.72933234 eV
  Highest occupied state (VBM) at     -4.78140717 eV
  | Occupation number:      2.00000000

  Lowest unoccupied state (CBM) at    -4.67725750 eV
  | Occupation number:      0.00000000

  Overall HOMO-LUMO gap:      0.10414967 eV.

  Total energy components:
  | Sum of eigenvalues            :        -338.29829444 Ha       -9205.56496579 eV
  | XC energy correction          :         -41.92318075 Ha       -1140.78779085 eV
  | XC potential correction       :          54.12852744 Ha        1472.91217249 eV
  | Free-atom electrostatic energy:        -273.18239678 Ha       -7433.67123748 eV
  | Hartree energy correction     :          -0.91034144 Ha         -24.77165105 eV
  | Entropy correction            :          -0.00000000 Ha          -0.00000000 eV
  | ---------------------------
  | Total energy                  :        -600.18568598 Ha      -16331.88347268 eV
  | Total energy, T -> 0          :        -600.18568598 Ha      -16331.88347268 eV  <-- do not rely on this value for anything but (periodic) metals
  | Electronic free energy        :        -600.18568598 Ha      -16331.88347268 eV

  Derived energy quantities:
  | Kinetic energy                :         601.72010575 Ha       16373.63715883 eV
  | Electrostatic energy          :       -1159.98261098 Ha      -31564.73284066 eV
  | Energy correction for multipole
  | error in Hartree potential    :          -0.00058937 Ha          -0.01603768 eV
  | Sum of eigenvalues per atom                           :       -4602.78248290 eV
  | Total energy (T->0) per atom                          :       -8165.94173634 eV  <-- do not rely on this value for anything but (periodic) metals
  | Electronic free energy per atom                       :       -8165.94173634 eV
  Evaluating new KS density.
  Integration grid: deviation in total charge (<rho> - N_e) =  -1.705303E-13

  Self-consistency convergence accuracy:
  | Change of charge density      :  0.3728E-01
  | Change of unmixed KS density  :  0.2433E-02
  | Change of sum of eigenvalues  :  0.3006E+00 eV
  | Change of total energy        :  0.4610E-02 eV


------------------------------------------------------------
  End self-consistency iteration #    17       :  max(cpu_time)    wall_clock(cpu1)
  | Time for this iteration                     :        0.250 s           0.238 s
  | Charge density update                       :        0.001 s           0.001 s
  | Density mixing                              :        0.243 s           0.231 s
  | Hartree multipole update                    :        0.001 s           0.001 s
  | Hartree multipole summation                 :        0.002 s           0.002 s
  | Integration                                 :        0.002 s           0.001 s
  | Solution of K.-S. eqns.                     :        0.001 s           0.001 s
  | Total energy evaluation                     :        0.000 s           0.000 s

  Partial memory accounting:
  | Current value for overall tracked memory usage:
  |   Minimum:        0.355 MB (on task 27)
  |   Maximum:        0.421 MB (on task  3)
  |   Average:        0.378 MB
  | Peak value for overall tracked memory usage:
  |   Minimum:        0.558 MB (on task 27 after allocating gradient_basis_wave)
  |   Maximum:        0.624 MB (on task  3 after allocating gradient_basis_wave)
  |   Average:        0.581 MB
  | Largest tracked array allocation so far:
  |   Minimum:        0.149 MB (gradient_basis_wave on task  0)
  |   Maximum:        0.153 MB (gradient_basis_wave on task  1)
  |   Average:        0.152 MB
  Note:  These values currently only include a subset of arrays which are explicitly tracked.
  The "true" memory usage will be greater.
------------------------------------------------------------

------------------------------------------------------------
          Begin self-consistency iteration #   18

  Date     :  20260724, Time     :  132359.969
------------------------------------------------------------
  Pulay mixing of updated and previous charge densities.
  Available memory per node after mixing [GB]:   1007.36
  Renormalizing the density to the exact electron count on the 3D integration grid.
  | Formal number of electrons (from input files) :      28.0000000000
  | Integrated number of electrons on 3D grid     :      28.0000000003
  | Charge integration error                      :       0.0000000003
  | Normalization factor for density and gradient :       1.0000000000

  Evaluating partitioned Hartree potential by multipole expansion.
  | Original multipole sum: apparent total charge =  -0.432920E-14
  | Sum of charges compensated after spline to logarithmic grids =   0.556163E-05
  | Analytical far-field extrapolation by fixed multipoles:
  | Hartree multipole sum: apparent total charge =  -0.413242E-14
  Summing up the Hartree potential.
  Time summed over all CPUs for potential: real work        0.001 s, elapsed        0.002 s
  | RMS charge density error from multipole expansion :   0.112957E-02

  Integrating Hamiltonian matrix: batch-based integration.
  Time summed over all CPUs for integration: real work        0.076 s, elapsed        0.083 s

  Updating Kohn-Sham eigenvalues and eigenvectors using ELSI and the ELPA eigensolver.
  Starting ELPA eigensolver
  Finished transformation to standard eigenproblem
  | Time :     0.000 s
  Finished solving standard eigenproblem
  | Time :     0.000 s
  Finished back-transformation of eigenvectors
  | Time :     0.001 s

  Obtaining occupation numbers and electronic chemical potential using ELSI.
  | Note that, for insulating systems, the printed 'chemical potential' value is not uniquely defined.
  | It can be anywhere in the energy gap, as long as it correctly separates occupied and unoccupied states.
  | In systems with a gap, the physically relevant chemical potential is the VBM or HOMO.

  | Chemical potential (Fermi level):    -4.50442653 eV
  Highest occupied state (VBM) at     -4.50442653 eV
  | Occupation number:      1.00000000

  Lowest unoccupied state (CBM) at    -1.54521939 eV
  | Occupation number:      0.00000000

  This system has fractional occupation numbers. Thus, it is a degenerate system
  within the approximate finite broadening function (occupation_type)
  applied to determine the occupation numbers.
  This may not be harmful. However, for some systems (free atoms), a different, non-degenerate
  ground state might exist by using a smaller broadening (see keyword occupation_type).
  Overall HOMO-LUMO gap:      0.00000000 eV.

  Total energy components:
  | Sum of eigenvalues            :        -338.27034389 Ha       -9204.80439264 eV
  | XC energy correction          :         -41.92593561 Ha       -1140.86275433 eV
  | XC potential correction       :          54.13211446 Ha        1473.00978037 eV
  | Free-atom electrostatic energy:        -273.18239678 Ha       -7433.67123748 eV
  | Hartree energy correction     :          -0.95452724 Ha         -25.97400770 eV
  | Entropy correction            :          -0.00020734 Ha          -0.00564190 eV
  | ---------------------------
  | Total energy                  :        -600.20108906 Ha      -16332.30261178 eV
  | Total energy, T -> 0          :        -600.20129640 Ha      -16332.30825367 eV  <-- do not rely on this value for anything but (periodic) metals
  | Electronic free energy        :        -600.20150373 Ha      -16332.31389557 eV

  Derived energy quantities:
  | Kinetic energy                :         601.66558098 Ha       16372.15346443 eV
  | Electrostatic energy          :       -1159.94073443 Ha      -31563.59332188 eV
  | Energy correction for multipole
  | error in Hartree potential    :          -0.00072423 Ha          -0.01970723 eV
  | Sum of eigenvalues per atom                           :       -4602.40219632 eV
  | Total energy (T->0) per atom                          :       -8166.15412684 eV  <-- do not rely on this value for anything but (periodic) metals
  | Electronic free energy per atom                       :       -8166.15694778 eV
  Evaluating new KS density.
  Integration grid: deviation in total charge (<rho> - N_e) =   9.732517E-10

  Self-consistency convergence accuracy:
  | Change of charge density      :  0.3671E-01
  | Change of unmixed KS density  :  0.2330E-02
  | Change of sum of eigenvalues  :  0.7606E+00 eV
  | Change of total energy        : -0.4191E+00 eV


------------------------------------------------------------
  End self-consistency iteration #    18       :  max(cpu_time)    wall_clock(cpu1)
  | Time for this iteration                     :        0.258 s           0.101 s
  | Charge density update                       :        0.001 s           0.001 s
  | Density mixing                              :        0.251 s           0.094 s
  | Hartree multipole update                    :        0.001 s           0.001 s
  | Hartree multipole summation                 :        0.002 s           0.002 s
  | Integration                                 :        0.001 s           0.001 s
  | Solution of K.-S. eqns.                     :        0.001 s           0.002 s
  | Total energy evaluation                     :        0.000 s           0.000 s

  Partial memory accounting:
  | Current value for overall tracked memory usage:
  |   Minimum:        0.355 MB (on task 27)
  |   Maximum:        0.421 MB (on task  3)
  |   Average:        0.378 MB
  | Peak value for overall tracked memory usage:
  |   Minimum:        0.558 MB (on task 27 after allocating gradient_basis_wave)
  |   Maximum:        0.624 MB (on task  3 after allocating gradient_basis_wave)
  |   Average:        0.581 MB
  | Largest tracked array allocation so far:
  |   Minimum:        0.149 MB (gradient_basis_wave on task  0)
  |   Maximum:        0.153 MB (gradient_basis_wave on task  1)
  |   Average:        0.152 MB
  Note:  These values currently only include a subset of arrays which are explicitly tracked.
  The "true" memory usage will be greater.
------------------------------------------------------------

------------------------------------------------------------
          Begin self-consistency iteration #   19

  Date     :  20260724, Time     :  132400.132
------------------------------------------------------------
  Pulay mixing of updated and previous charge densities.
  Available memory per node after mixing [GB]:   1007.36
  Renormalizing the density to the exact electron count on the 3D integration grid.
  | Formal number of electrons (from input files) :      28.0000000000
  | Integrated number of electrons on 3D grid     :      27.9999999998
  | Charge integration error                      :      -0.0000000002
  | Normalization factor for density and gradient :       1.0000000000

  Evaluating partitioned Hartree potential by multipole expansion.
  | Original multipole sum: apparent total charge =   0.255816E-14
  | Sum of charges compensated after spline to logarithmic grids =   0.511833E-05
  | Analytical far-field extrapolation by fixed multipoles:
  | Hartree multipole sum: apparent total charge =   0.423081E-14
  Summing up the Hartree potential.
  Time summed over all CPUs for potential: real work        0.002 s, elapsed        0.003 s
  | RMS charge density error from multipole expansion :   0.102060E-02

  Integrating Hamiltonian matrix: batch-based integration.
  Time summed over all CPUs for integration: real work        0.076 s, elapsed        0.090 s

  Updating Kohn-Sham eigenvalues and eigenvectors using ELSI and the ELPA eigensolver.
  Starting ELPA eigensolver
  Finished transformation to standard eigenproblem
  | Time :     0.000 s
  Finished solving standard eigenproblem
  | Time :     0.001 s
  Finished back-transformation of eigenvectors
  | Time :     0.000 s

  Obtaining occupation numbers and electronic chemical potential using ELSI.
  | Note that, for insulating systems, the printed 'chemical potential' value is not uniquely defined.
  | It can be anywhere in the energy gap, as long as it correctly separates occupied and unoccupied states.
  | In systems with a gap, the physically relevant chemical potential is the VBM or HOMO.

  | Chemical potential (Fermi level):    -4.71789793 eV
  Highest occupied state (VBM) at     -4.75310430 eV
  | Occupation number:      1.99999936

  Lowest unoccupied state (CBM) at    -4.68365270 eV
  | Occupation number:      0.00000128

  Overall HOMO-LUMO gap:      0.06945160 eV.

  Total energy components:
  | Sum of eigenvalues            :        -338.29174327 Ha       -9205.38669921 eV
  | XC energy correction          :         -41.92353716 Ha       -1140.79748935 eV
  | XC potential correction       :          54.12899299 Ha        1472.92484088 eV
  | Free-atom electrostatic energy:        -273.18239678 Ha       -7433.67123748 eV
  | Hartree energy correction     :          -0.91662347 Ha         -24.94259369 eV
  | Entropy correction            :          -0.00000000 Ha          -0.00000005 eV
  | ---------------------------
  | Total energy                  :        -600.18530769 Ha      -16331.87317884 eV
  | Total energy, T -> 0          :        -600.18530769 Ha      -16331.87317889 eV  <-- do not rely on this value for anything but (periodic) metals
  | Electronic free energy        :        -600.18530769 Ha      -16331.87317893 eV

  Derived energy quantities:
  | Kinetic energy                :         601.71839221 Ha       16373.59053104 eV
  | Electrostatic energy          :       -1159.98016273 Ha      -31564.66622053 eV
  | Energy correction for multipole
  | error in Hartree potential    :          -0.00060210 Ha          -0.01638408 eV
  | Sum of eigenvalues per atom                           :       -4602.69334960 eV
  | Total energy (T->0) per atom                          :       -8165.93658944 eV  <-- do not rely on this value for anything but (periodic) metals
  | Electronic free energy per atom                       :       -8165.93658947 eV
  Evaluating new KS density.
  Integration grid: deviation in total charge (<rho> - N_e) =   1.737526E-10

  Self-consistency convergence accuracy:
  | Change of charge density      :  0.2262E+00
  | Change of unmixed KS density  :  0.2366E+00
  | Change of sum of eigenvalues  : -0.5823E+00 eV
  | Change of total energy        :  0.4294E+00 eV


------------------------------------------------------------
  End self-consistency iteration #    19       :  max(cpu_time)    wall_clock(cpu1)
  | Time for this iteration                     :        0.263 s           0.211 s
  | Charge density update                       :        0.001 s           0.001 s
  | Density mixing                              :        0.256 s           0.203 s
  | Hartree multipole update                    :        0.001 s           0.002 s
  | Hartree multipole summation                 :        0.003 s           0.002 s
  | Integration                                 :        0.002 s           0.002 s
  | Solution of K.-S. eqns.                     :        0.001 s           0.001 s
  | Total energy evaluation                     :        0.000 s           0.000 s

  Partial memory accounting:
  | Current value for overall tracked memory usage:
  |   Minimum:        0.355 MB (on task 27)
  |   Maximum:        0.421 MB (on task  3)
  |   Average:        0.378 MB
  | Peak value for overall tracked memory usage:
  |   Minimum:        0.558 MB (on task 27 after allocating gradient_basis_wave)
  |   Maximum:        0.624 MB (on task  3 after allocating gradient_basis_wave)
  |   Average:        0.581 MB
  | Largest tracked array allocation so far:
  |   Minimum:        0.149 MB (gradient_basis_wave on task  0)
  |   Maximum:        0.153 MB (gradient_basis_wave on task  1)
  |   Average:        0.152 MB
  Note:  These values currently only include a subset of arrays which are explicitly tracked.
  The "true" memory usage will be greater.
------------------------------------------------------------

------------------------------------------------------------
          Begin self-consistency iteration #   20

  Date     :  20260724, Time     :  132400.509
------------------------------------------------------------
  Pulay mixing of updated and previous charge densities.
  Available memory per node after mixing [GB]:   1007.36
  Renormalizing the density to the exact electron count on the 3D integration grid.
  | Formal number of electrons (from input files) :      28.0000000000
  | Integrated number of electrons on 3D grid     :      27.9999999999
  | Charge integration error                      :      -0.0000000001
  | Normalization factor for density and gradient :       1.0000000000

  Evaluating partitioned Hartree potential by multipole expansion.
  | Original multipole sum: apparent total charge =   0.147586E-14
  | Sum of charges compensated after spline to logarithmic grids =   0.506759E-05
  | Analytical far-field extrapolation by fixed multipoles:
  | Hartree multipole sum: apparent total charge =   0.373886E-14
  Summing up the Hartree potential.
  Time summed over all CPUs for potential: real work        0.001 s, elapsed        0.002 s
  | RMS charge density error from multipole expansion :   0.101136E-02

  Integrating Hamiltonian matrix: batch-based integration.
  Time summed over all CPUs for integration: real work        0.075 s, elapsed        0.087 s

  Updating Kohn-Sham eigenvalues and eigenvectors using ELSI and the ELPA eigensolver.
  Starting ELPA eigensolver
  Finished transformation to standard eigenproblem
  | Time :     0.000 s
  Finished solving standard eigenproblem
  | Time :     0.000 s
  Finished back-transformation of eigenvectors
  | Time :     0.001 s

  Obtaining occupation numbers and electronic chemical potential using ELSI.
  | Note that, for insulating systems, the printed 'chemical potential' value is not uniquely defined.
  | It can be anywhere in the energy gap, as long as it correctly separates occupied and unoccupied states.
  | In systems with a gap, the physically relevant chemical potential is the VBM or HOMO.

  | Chemical potential (Fermi level):    -4.72961712 eV
  Highest occupied state (VBM) at     -4.78538697 eV
  | Occupation number:      2.00000000

  Lowest unoccupied state (CBM) at    -4.67384726 eV
  | Occupation number:      0.00000000

  Overall HOMO-LUMO gap:      0.11153970 eV.

  Total energy components:
  | Sum of eigenvalues            :        -338.29662268 Ha       -9205.51947486 eV
  | XC energy correction          :         -41.92341547 Ha       -1140.79417797 eV
  | XC potential correction       :          54.12883033 Ha        1472.92041459 eV
  | Free-atom electrostatic energy:        -273.18239678 Ha       -7433.67123748 eV
  | Hartree energy correction     :          -0.91216841 Ha         -24.82136521 eV
  | Entropy correction            :          -0.00000000 Ha          -0.00000000 eV
  | ---------------------------
  | Total energy                  :        -600.18577301 Ha      -16331.88584093 eV
  | Total energy, T -> 0          :        -600.18577301 Ha      -16331.88584093 eV  <-- do not rely on this value for anything but (periodic) metals
  | Electronic free energy        :        -600.18577301 Ha      -16331.88584093 eV

  Derived energy quantities:
  | Kinetic energy                :         601.72280650 Ha       16373.71065009 eV
  | Electrostatic energy          :       -1159.98516404 Ha      -31564.80231305 eV
  | Energy correction for multipole
  | error in Hartree potential    :          -0.00058817 Ha          -0.01600494 eV
  | Sum of eigenvalues per atom                           :       -4602.75973743 eV
  | Total energy (T->0) per atom                          :       -8165.94292046 eV  <-- do not rely on this value for anything but (periodic) metals
  | Electronic free energy per atom                       :       -8165.94292046 eV
  Evaluating new KS density.
  Integration grid: deviation in total charge (<rho> - N_e) =  -3.552714E-15

  Self-consistency convergence accuracy:
  | Change of charge density      :  0.3306E-01
  | Change of unmixed KS density  :  0.2355E+00
  | Change of sum of eigenvalues  : -0.1328E+00 eV
  | Change of total energy        : -0.1266E-01 eV


------------------------------------------------------------
  End self-consistency iteration #    20       :  max(cpu_time)    wall_clock(cpu1)
  | Time for this iteration                     :        0.261 s           0.105 s
  | Charge density update                       :        0.001 s           0.001 s
  | Density mixing                              :        0.254 s           0.098 s
  | Hartree multipole update                    :        0.001 s           0.001 s
  | Hartree multipole summation                 :        0.002 s           0.002 s
  | Integration                                 :        0.002 s           0.001 s
  | Solution of K.-S. eqns.                     :        0.001 s           0.002 s
  | Total energy evaluation                     :        0.000 s           0.000 s

  Partial memory accounting:
  | Current value for overall tracked memory usage:
  |   Minimum:        0.355 MB (on task 27)
  |   Maximum:        0.421 MB (on task  3)
  |   Average:        0.378 MB
  | Peak value for overall tracked memory usage:
  |   Minimum:        0.558 MB (on task 27 after allocating gradient_basis_wave)
  |   Maximum:        0.624 MB (on task  3 after allocating gradient_basis_wave)
  |   Average:        0.581 MB
  | Largest tracked array allocation so far:
  |   Minimum:        0.149 MB (gradient_basis_wave on task  0)
  |   Maximum:        0.153 MB (gradient_basis_wave on task  1)
  |   Average:        0.152 MB
  Note:  These values currently only include a subset of arrays which are explicitly tracked.
  The "true" memory usage will be greater.
------------------------------------------------------------

------------------------------------------------------------
          Begin self-consistency iteration #   21

  Date     :  20260724, Time     :  132400.736
------------------------------------------------------------
  Pulay mixing of updated and previous charge densities.
  Available memory per node after mixing [GB]:   1007.36
  Renormalizing the density to the exact electron count on the 3D integration grid.
  | Formal number of electrons (from input files) :      28.0000000000
  | Integrated number of electrons on 3D grid     :      27.9999999999
  | Charge integration error                      :      -0.0000000001
  | Normalization factor for density and gradient :       1.0000000000

  Evaluating partitioned Hartree potential by multipole expansion.
  | Original multipole sum: apparent total charge =   0.629702E-14
  | Sum of charges compensated after spline to logarithmic grids =   0.505270E-05
  | Analytical far-field extrapolation by fixed multipoles:
  | Hartree multipole sum: apparent total charge =   0.924875E-14
  Summing up the Hartree potential.
  Time summed over all CPUs for potential: real work        0.001 s, elapsed        0.001 s
  | RMS charge density error from multipole expansion :   0.100690E-02

  Integrating Hamiltonian matrix: batch-based integration.
  Time summed over all CPUs for integration: real work        0.075 s, elapsed        0.085 s

  Updating Kohn-Sham eigenvalues and eigenvectors using ELSI and the ELPA eigensolver.
  Starting ELPA eigensolver
  Finished transformation to standard eigenproblem
  | Time :     0.000 s
  Finished solving standard eigenproblem
  | Time :     0.001 s
  Finished back-transformation of eigenvectors
  | Time :     0.000 s

  Obtaining occupation numbers and electronic chemical potential using ELSI.
  | Note that, for insulating systems, the printed 'chemical potential' value is not uniquely defined.
  | It can be anywhere in the energy gap, as long as it correctly separates occupied and unoccupied states.
  | In systems with a gap, the physically relevant chemical potential is the VBM or HOMO.

  | Chemical potential (Fermi level):    -4.73462460 eV
  Highest occupied state (VBM) at     -4.79905620 eV
  | Occupation number:      2.00000000

  Lowest unoccupied state (CBM) at    -4.67019301 eV
  | Occupation number:      0.00000000

  Overall HOMO-LUMO gap:      0.12886318 eV.

  Total energy components:
  | Sum of eigenvalues            :        -338.29904786 Ha       -9205.58546731 eV
  | XC energy correction          :         -41.92340628 Ha       -1140.79392782 eV
  | XC potential correction       :          54.12881445 Ha        1472.91998243 eV
  | Free-atom electrostatic energy:        -273.18239678 Ha       -7433.67123748 eV
  | Hartree energy correction     :          -0.90994258 Ha         -24.76079739 eV
  | Entropy correction            :          -0.00000000 Ha          -0.00000000 eV
  | ---------------------------
  | Total energy                  :        -600.18597905 Ha      -16331.89144757 eV
  | Total energy, T -> 0          :        -600.18597905 Ha      -16331.89144757 eV  <-- do not rely on this value for anything but (periodic) metals
  | Electronic free energy        :        -600.18597905 Ha      -16331.89144757 eV

  Derived energy quantities:
  | Kinetic energy                :         601.72487524 Ha       16373.76694347 eV
  | Electrostatic energy          :       -1159.98744802 Ha      -31564.86446322 eV
  | Energy correction for multipole
  | error in Hartree potential    :          -0.00058206 Ha          -0.01583872 eV
  | Sum of eigenvalues per atom                           :       -4602.79273365 eV
  | Total energy (T->0) per atom                          :       -8165.94572378 eV  <-- do not rely on this value for anything but (periodic) metals
  | Electronic free energy per atom                       :       -8165.94572378 eV
  Evaluating new KS density.
  Integration grid: deviation in total charge (<rho> - N_e) =   7.105427E-15

  Self-consistency convergence accuracy:
  | Change of charge density      :  0.3753E-01
  | Change of unmixed KS density  :  0.2308E-02
  | Change of sum of eigenvalues  : -0.6599E-01 eV
  | Change of total energy        : -0.5607E-02 eV


------------------------------------------------------------
  End self-consistency iteration #    21       :  max(cpu_time)    wall_clock(cpu1)
  | Time for this iteration                     :        0.285 s           0.173 s
  | Charge density update                       :        0.001 s           0.001 s
  | Density mixing                              :        0.279 s           0.166 s
  | Hartree multipole update                    :        0.001 s           0.001 s
  | Hartree multipole summation                 :        0.002 s           0.002 s
  | Integration                                 :        0.001 s           0.002 s
  | Solution of K.-S. eqns.                     :        0.001 s           0.001 s
  | Total energy evaluation                     :        0.000 s           0.000 s

  Partial memory accounting:
  | Current value for overall tracked memory usage:
  |   Minimum:        0.355 MB (on task 27)
  |   Maximum:        0.421 MB (on task  3)
  |   Average:        0.378 MB
  | Peak value for overall tracked memory usage:
  |   Minimum:        0.558 MB (on task 27 after allocating gradient_basis_wave)
  |   Maximum:        0.624 MB (on task  3 after allocating gradient_basis_wave)
  |   Average:        0.581 MB
  | Largest tracked array allocation so far:
  |   Minimum:        0.149 MB (gradient_basis_wave on task  0)
  |   Maximum:        0.153 MB (gradient_basis_wave on task  1)
  |   Average:        0.152 MB
  Note:  These values currently only include a subset of arrays which are explicitly tracked.
  The "true" memory usage will be greater.
------------------------------------------------------------

------------------------------------------------------------
          Begin self-consistency iteration #   22

  Date     :  20260724, Time     :  132401.046
------------------------------------------------------------
  Pulay mixing of updated and previous charge densities.
  Available memory per node after mixing [GB]:   1007.36
  Renormalizing the density to the exact electron count on the 3D integration grid.
  | Formal number of electrons (from input files) :      28.0000000000
  | Integrated number of electrons on 3D grid     :      28.0000000008
  | Charge integration error                      :       0.0000000008
  | Normalization factor for density and gradient :       1.0000000000

  Evaluating partitioned Hartree potential by multipole expansion.
  | Original multipole sum: apparent total charge =   0.393564E-14
  | Sum of charges compensated after spline to logarithmic grids =   0.518592E-05
  | Analytical far-field extrapolation by fixed multipoles:
  | Hartree multipole sum: apparent total charge =   0.393564E-14
  Summing up the Hartree potential.
  Time summed over all CPUs for potential: real work        0.001 s, elapsed        0.001 s
  | RMS charge density error from multipole expansion :   0.104189E-02

  Integrating Hamiltonian matrix: batch-based integration.
  Time summed over all CPUs for integration: real work        0.075 s, elapsed        0.084 s

  Updating Kohn-Sham eigenvalues and eigenvectors using ELSI and the ELPA eigensolver.
  Starting ELPA eigensolver
  Finished transformation to standard eigenproblem
  | Time :     0.001 s
  Finished solving standard eigenproblem
  | Time :     0.000 s
  Finished back-transformation of eigenvectors
  | Time :     0.000 s

  Obtaining occupation numbers and electronic chemical potential using ELSI.
  | Note that, for insulating systems, the printed 'chemical potential' value is not uniquely defined.
  | It can be anywhere in the energy gap, as long as it correctly separates occupied and unoccupied states.
  | In systems with a gap, the physically relevant chemical potential is the VBM or HOMO.

  | Chemical potential (Fermi level):    -4.69584402 eV
  Highest occupied state (VBM) at     -4.69843207 eV
  | Occupation number:      1.28563920

  Lowest unoccupied state (CBM) at    -1.49171133 eV
  | Occupation number:      0.00000000

  This system has fractional occupation numbers. Thus, it is a degenerate system
  within the approximate finite broadening function (occupation_type)
  applied to determine the occupation numbers.
  This may not be harmful. However, for some systems (free atoms), a different, non-degenerate
  ground state might exist by using a smaller broadening (see keyword occupation_type).
  Overall HOMO-LUMO gap:      0.00000000 eV.

  Total energy components:
  | Sum of eigenvalues            :        -338.28518858 Ha       -9205.20833719 eV
  | XC energy correction          :         -41.92361565 Ha       -1140.79962516 eV
  | XC potential correction       :          54.12909569 Ha        1472.92763534 eV
  | Free-atom electrostatic energy:        -273.18239678 Ha       -7433.67123748 eV
  | Hartree energy correction     :          -0.92262224 Ha         -25.10582840 eV
  | Entropy correction            :          -0.00028222 Ha          -0.00767957 eV
  | ---------------------------
  | Total energy                  :        -600.18472757 Ha      -16331.85739290 eV
  | Total energy, T -> 0          :        -600.18500979 Ha      -16331.86507247 eV  <-- do not rely on this value for anything but (periodic) metals
  | Electronic free energy        :        -600.18529201 Ha      -16331.87275205 eV

  Derived energy quantities:
  | Kinetic energy                :         601.70959433 Ha       16373.35112852 eV
  | Electrostatic energy          :       -1159.97070624 Ha      -31564.40889626 eV
  | Energy correction for multipole
  | error in Hartree potential    :          -0.00062978 Ha          -0.01713716 eV
  | Sum of eigenvalues per atom                           :       -4602.60416859 eV
  | Total energy (T->0) per atom                          :       -8165.93253624 eV  <-- do not rely on this value for anything but (periodic) metals
  | Electronic free energy per atom                       :       -8165.93637602 eV
  Evaluating new KS density.
  Integration grid: deviation in total charge (<rho> - N_e) =   1.940954E-10

  Self-consistency convergence accuracy:
  | Change of charge density      :  0.3913E-01
  | Change of unmixed KS density  :  0.1150E-02
  | Change of sum of eigenvalues  :  0.3771E+00 eV
  | Change of total energy        :  0.3405E-01 eV


------------------------------------------------------------
  End self-consistency iteration #    22       :  max(cpu_time)    wall_clock(cpu1)
  | Time for this iteration                     :        0.266 s           0.141 s
  | Charge density update                       :        0.001 s           0.001 s
  | Density mixing                              :        0.259 s           0.134 s
  | Hartree multipole update                    :        0.001 s           0.001 s
  | Hartree multipole summation                 :        0.002 s           0.002 s
  | Integration                                 :        0.001 s           0.001 s
  | Solution of K.-S. eqns.                     :        0.001 s           0.002 s
  | Total energy evaluation                     :        0.000 s           0.000 s

  Partial memory accounting:
  | Current value for overall tracked memory usage:
  |   Minimum:        0.355 MB (on task 27)
  |   Maximum:        0.421 MB (on task  3)
  |   Average:        0.378 MB
  | Peak value for overall tracked memory usage:
  |   Minimum:        0.558 MB (on task 27 after allocating gradient_basis_wave)
  |   Maximum:        0.624 MB (on task  3 after allocating gradient_basis_wave)
  |   Average:        0.581 MB
  | Largest tracked array allocation so far:
  |   Minimum:        0.149 MB (gradient_basis_wave on task  0)
  |   Maximum:        0.153 MB (gradient_basis_wave on task  1)
  |   Average:        0.152 MB
  Note:  These values currently only include a subset of arrays which are explicitly tracked.
  The "true" memory usage will be greater.
------------------------------------------------------------

------------------------------------------------------------
          Begin self-consistency iteration #   23

  Date     :  20260724, Time     :  132401.349
------------------------------------------------------------
  Pulay mixing of updated and previous charge densities.
  Available memory per node after mixing [GB]:   1007.36
  Renormalizing the density to the exact electron count on the 3D integration grid.
  | Formal number of electrons (from input files) :      28.0000000000
  | Integrated number of electrons on 3D grid     :      27.9999999991
  | Charge integration error                      :      -0.0000000009
  | Normalization factor for density and gradient :       1.0000000000

  Evaluating partitioned Hartree potential by multipole expansion.
  | Original multipole sum: apparent total charge =   0.511633E-14
  | Sum of charges compensated after spline to logarithmic grids =   0.500274E-05
  | Analytical far-field extrapolation by fixed multipoles:
  | Hartree multipole sum: apparent total charge =   0.334529E-14
  Summing up the Hartree potential.
  Time summed over all CPUs for potential: real work        0.001 s, elapsed        0.002 s
  | RMS charge density error from multipole expansion :   0.998834E-03

  Integrating Hamiltonian matrix: batch-based integration.
  Time summed over all CPUs for integration: real work        0.075 s, elapsed        0.082 s

  Updating Kohn-Sham eigenvalues and eigenvectors using ELSI and the ELPA eigensolver.
  Starting ELPA eigensolver
  Finished transformation to standard eigenproblem
  | Time :     0.000 s
  Finished solving standard eigenproblem
  | Time :     0.001 s
  Finished back-transformation of eigenvectors
  | Time :     0.000 s

  Obtaining occupation numbers and electronic chemical potential using ELSI.
  | Note that, for insulating systems, the printed 'chemical potential' value is not uniquely defined.
  | It can be anywhere in the energy gap, as long as it correctly separates occupied and unoccupied states.
  | In systems with a gap, the physically relevant chemical potential is the VBM or HOMO.

  | Chemical potential (Fermi level):    -4.74603212 eV
  Highest occupied state (VBM) at     -4.82651827 eV
  | Occupation number:      2.00000000

  Lowest unoccupied state (CBM) at    -4.66554597 eV
  | Occupation number:      0.00000000

  Overall HOMO-LUMO gap:      0.16097230 eV.

  Total energy components:
  | Sum of eigenvalues            :        -338.30772833 Ha       -9205.82167498 eV
  | XC energy correction          :         -41.92297343 Ha       -1140.78214951 eV
  | XC potential correction       :          54.12824121 Ha        1472.90438397 eV
  | Free-atom electrostatic energy:        -273.18239678 Ha       -7433.67123748 eV
  | Hartree energy correction     :          -0.90152626 Ha         -24.53177761 eV
  | Entropy correction            :          -0.00000000 Ha          -0.00000000 eV
  | ---------------------------
  | Total energy                  :        -600.18638359 Ha      -16331.90245561 eV
  | Total energy, T -> 0          :        -600.18638359 Ha      -16331.90245561 eV  <-- do not rely on this value for anything but (periodic) metals
  | Electronic free energy        :        -600.18638359 Ha      -16331.90245561 eV

  Derived energy quantities:
  | Kinetic energy                :         601.72590798 Ha       16373.79504571 eV
  | Electrostatic energy          :       -1159.98931814 Ha      -31564.91535181 eV
  | Energy correction for multipole
  | error in Hartree potential    :          -0.00057310 Ha          -0.01559484 eV
  | Sum of eigenvalues per atom                           :       -4602.91083749 eV
  | Total energy (T->0) per atom                          :       -8165.95122781 eV  <-- do not rely on this value for anything but (periodic) metals
  | Electronic free energy per atom                       :       -8165.95122781 eV
  Evaluating new KS density.
  Integration grid: deviation in total charge (<rho> - N_e) =   1.421085E-14

  Self-consistency convergence accuracy:
  | Change of charge density      :  0.1376E+00
  | Change of unmixed KS density  :  0.1668E+00
  | Change of sum of eigenvalues  : -0.6133E+00 eV
  | Change of total energy        : -0.4506E-01 eV


------------------------------------------------------------
  End self-consistency iteration #    23       :  max(cpu_time)    wall_clock(cpu1)
  | Time for this iteration                     :        0.273 s           0.122 s
  | Charge density update                       :        0.001 s           0.001 s
  | Density mixing                              :        0.266 s           0.116 s
  | Hartree multipole update                    :        0.001 s           0.001 s
  | Hartree multipole summation                 :        0.002 s           0.001 s
  | Integration                                 :        0.001 s           0.002 s
  | Solution of K.-S. eqns.                     :        0.001 s           0.001 s
  | Total energy evaluation                     :        0.000 s           0.000 s

  Partial memory accounting:
  | Current value for overall tracked memory usage:
  |   Minimum:        0.355 MB (on task 27)
  |   Maximum:        0.421 MB (on task  3)
  |   Average:        0.378 MB
  | Peak value for overall tracked memory usage:
  |   Minimum:        0.558 MB (on task 27 after allocating gradient_basis_wave)
  |   Maximum:        0.624 MB (on task  3 after allocating gradient_basis_wave)
  |   Average:        0.581 MB
  | Largest tracked array allocation so far:
  |   Minimum:        0.149 MB (gradient_basis_wave on task  0)
  |   Maximum:        0.153 MB (gradient_basis_wave on task  1)
  |   Average:        0.152 MB
  Note:  These values currently only include a subset of arrays which are explicitly tracked.
  The "true" memory usage will be greater.
------------------------------------------------------------

------------------------------------------------------------
          Begin self-consistency iteration #   24

  Date     :  20260724, Time     :  132401.571
------------------------------------------------------------
  Pulay mixing of updated and previous charge densities.
  Available memory per node after mixing [GB]:   1007.36
  Renormalizing the density to the exact electron count on the 3D integration grid.
  | Formal number of electrons (from input files) :      28.0000000000
  | Integrated number of electrons on 3D grid     :      28.0000000001
  | Charge integration error                      :       0.0000000001
  | Normalization factor for density and gradient :       1.0000000000

  Evaluating partitioned Hartree potential by multipole expansion.
  | Original multipole sum: apparent total charge =   0.373886E-14
  | Sum of charges compensated after spline to logarithmic grids =   0.501004E-05
  | Analytical far-field extrapolation by fixed multipoles:
  | Hartree multipole sum: apparent total charge =   0.196782E-14
  Summing up the Hartree potential.
  Time summed over all CPUs for potential: real work        0.001 s, elapsed        0.002 s
  | RMS charge density error from multipole expansion :   0.100195E-02

  Integrating Hamiltonian matrix: batch-based integration.
  Time summed over all CPUs for integration: real work        0.075 s, elapsed        0.084 s

  Updating Kohn-Sham eigenvalues and eigenvectors using ELSI and the ELPA eigensolver.
  Starting ELPA eigensolver
  Finished transformation to standard eigenproblem
  | Time :     0.000 s
  Finished solving standard eigenproblem
  | Time :     0.001 s
  Finished back-transformation of eigenvectors
  | Time :     0.000 s

  Obtaining occupation numbers and electronic chemical potential using ELSI.
  | Note that, for insulating systems, the printed 'chemical potential' value is not uniquely defined.
  | It can be anywhere in the energy gap, as long as it correctly separates occupied and unoccupied states.
  | In systems with a gap, the physically relevant chemical potential is the VBM or HOMO.

  | Chemical potential (Fermi level):    -4.74408102 eV
  Highest occupied state (VBM) at     -4.81899634 eV
  | Occupation number:      2.00000000

  Lowest unoccupied state (CBM) at    -4.66916570 eV
  | Occupation number:      0.00000000

  Overall HOMO-LUMO gap:      0.14983064 eV.

  Total energy components:
  | Sum of eigenvalues            :        -338.30821686 Ha       -9205.83496848 eV
  | XC energy correction          :         -41.92285349 Ha       -1140.77888573 eV
  | XC potential correction       :          54.12808378 Ha        1472.90010005 eV
  | Free-atom electrostatic energy:        -273.18239678 Ha       -7433.67123748 eV
  | Hartree energy correction     :          -0.90085419 Ha         -24.51348972 eV
  | Entropy correction            :          -0.00000000 Ha          -0.00000000 eV
  | ---------------------------
  | Total energy                  :        -600.18623754 Ha      -16331.89848137 eV
  | Total energy, T -> 0          :        -600.18623754 Ha      -16331.89848137 eV  <-- do not rely on this value for anything but (periodic) metals
  | Electronic free energy        :        -600.18623754 Ha      -16331.89848137 eV

  Derived energy quantities:
  | Kinetic energy                :         601.72395024 Ha       16373.74177288 eV
  | Electrostatic energy          :       -1159.98733429 Ha      -31564.86136852 eV
  | Energy correction for multipole
  | error in Hartree potential    :          -0.00057797 Ha          -0.01572740 eV
  | Sum of eigenvalues per atom                           :       -4602.91748424 eV
  | Total energy (T->0) per atom                          :       -8165.94924068 eV  <-- do not rely on this value for anything but (periodic) metals
  | Electronic free energy per atom                       :       -8165.94924068 eV
  Evaluating new KS density.
  Integration grid: deviation in total charge (<rho> - N_e) =  -1.421085E-14

  Self-consistency convergence accuracy:
  | Change of charge density      :  0.4204E-01
  | Change of unmixed KS density  :  0.1679E+00
  | Change of sum of eigenvalues  : -0.1329E-01 eV
  | Change of total energy        :  0.3974E-02 eV


------------------------------------------------------------
  End self-consistency iteration #    24       :  max(cpu_time)    wall_clock(cpu1)
  | Time for this iteration                     :        0.269 s           0.182 s
  | Charge density update                       :        0.001 s           0.001 s
  | Density mixing                              :        0.262 s           0.175 s
  | Hartree multipole update                    :        0.001 s           0.002 s
  | Hartree multipole summation                 :        0.002 s           0.001 s
  | Integration                                 :        0.001 s           0.002 s
  | Solution of K.-S. eqns.                     :        0.001 s           0.001 s
  | Total energy evaluation                     :        0.000 s           0.000 s

  Partial memory accounting:
  | Current value for overall tracked memory usage:
  |   Minimum:        0.355 MB (on task 27)
  |   Maximum:        0.421 MB (on task  3)
  |   Average:        0.378 MB
  | Peak value for overall tracked memory usage:
  |   Minimum:        0.558 MB (on task 27 after allocating gradient_basis_wave)
  |   Maximum:        0.624 MB (on task  3 after allocating gradient_basis_wave)
  |   Average:        0.581 MB
  | Largest tracked array allocation so far:
  |   Minimum:        0.149 MB (gradient_basis_wave on task  0)
  |   Maximum:        0.153 MB (gradient_basis_wave on task  1)
  |   Average:        0.152 MB
  Note:  These values currently only include a subset of arrays which are explicitly tracked.
  The "true" memory usage will be greater.
------------------------------------------------------------

------------------------------------------------------------
          Begin self-consistency iteration #   25

  Date     :  20260724, Time     :  132401.895
------------------------------------------------------------
  SCF convergence analysis is based on: Mixed KS density changes
  Charge density: WARNING - The density does not seem to be converging.
                  The linear fit of ln(rho_delta) over the last 15 steps has a slope of   0.0070

  Pulay mixing of updated and previous charge densities.
  Available memory per node after mixing [GB]:   1007.36
  Renormalizing the density to the exact electron count on the 3D integration grid.
  | Formal number of electrons (from input files) :      28.0000000000
  | Integrated number of electrons on 3D grid     :      28.0000000013
  | Charge integration error                      :       0.0000000013
  | Normalization factor for density and gradient :       1.0000000000

  Evaluating partitioned Hartree potential by multipole expansion.
  | Original multipole sum: apparent total charge =  -0.983910E-15
  | Sum of charges compensated after spline to logarithmic grids =   0.520402E-05
  | Analytical far-field extrapolation by fixed multipoles:
  | Hartree multipole sum: apparent total charge =  -0.127908E-14
  Summing up the Hartree potential.
  Time summed over all CPUs for potential: real work        0.001 s, elapsed        0.001 s
  | RMS charge density error from multipole expansion :   0.105672E-02

  Integrating Hamiltonian matrix: batch-based integration.
  Time summed over all CPUs for integration: real work        0.075 s, elapsed        0.084 s

  Updating Kohn-Sham eigenvalues and eigenvectors using ELSI and the ELPA eigensolver.
  Starting ELPA eigensolver
  Finished transformation to standard eigenproblem
  | Time :     0.000 s
  Finished solving standard eigenproblem
  | Time :     0.001 s
  Finished back-transformation of eigenvectors
  | Time :     0.000 s

  Obtaining occupation numbers and electronic chemical potential using ELSI.
  | Note that, for insulating systems, the printed 'chemical potential' value is not uniquely defined.
  | It can be anywhere in the energy gap, as long as it correctly separates occupied and unoccupied states.
  | In systems with a gap, the physically relevant chemical potential is the VBM or HOMO.

  | Chemical potential (Fermi level):    -4.66249535 eV
  Highest occupied state (VBM) at     -4.66249535 eV
  | Occupation number:      1.00000000

  Lowest unoccupied state (CBM) at    -4.66249535 eV
  | Occupation number:      1.00000000

  This system has fractional occupation numbers. Thus, it is a degenerate system
  within the approximate finite broadening function (occupation_type)
  applied to determine the occupation numbers.
  This may not be harmful. However, for some systems (free atoms), a different, non-degenerate
  ground state might exist by using a smaller broadening (see keyword occupation_type).
  Overall HOMO-LUMO gap:      0.00000000 eV.

  Total energy components:
  | Sum of eigenvalues            :        -338.29113288 Ha       -9205.37008972 eV
  | XC energy correction          :         -41.92320417 Ha       -1140.78842804 eV
  | XC potential correction       :          54.12855134 Ha        1472.91282297 eV
  | Free-atom electrostatic energy:        -273.18239678 Ha       -7433.67123748 eV
  | Hartree energy correction     :          -0.91994988 Ha         -25.03311002 eV
  | Entropy correction            :          -0.00020734 Ha          -0.00564190 eV
  | ---------------------------
  | Total energy                  :        -600.18813237 Ha      -16331.95004229 eV
  | Total energy, T -> 0          :        -600.18833971 Ha      -16331.95568419 eV  <-- do not rely on this value for anything but (periodic) metals
  | Electronic free energy        :        -600.18854704 Ha      -16331.96132609 eV

  Derived energy quantities:
  | Kinetic energy                :         601.69555979 Ha       16372.96922932 eV
  | Electrostatic energy          :       -1159.96048799 Ha      -31564.13084357 eV
  | Energy correction for multipole
  | error in Hartree potential    :          -0.00065247 Ha          -0.01775460 eV
  | Sum of eigenvalues per atom                           :       -4602.68504486 eV
  | Total energy (T->0) per atom                          :       -8165.97784209 eV  <-- do not rely on this value for anything but (periodic) metals
  | Electronic free energy per atom                       :       -8165.98066304 eV
  Evaluating new KS density.
  Integration grid: deviation in total charge (<rho> - N_e) =  -2.278355E-10

  Self-consistency convergence accuracy:
  | Change of charge density      :  0.4076E-01
  | Change of unmixed KS density  :  0.4117E-03
  | Change of sum of eigenvalues  :  0.4649E+00 eV
  | Change of total energy        : -0.5156E-01 eV


------------------------------------------------------------
  End self-consistency iteration #    25       :  max(cpu_time)    wall_clock(cpu1)
  | Time for this iteration                     :        0.266 s           0.136 s
  | Charge density update                       :        0.001 s           0.001 s
  | Density mixing                              :        0.260 s           0.129 s
  | Hartree multipole update                    :        0.001 s           0.001 s
  | Hartree multipole summation                 :        0.002 s           0.002 s
  | Integration                                 :        0.001 s           0.002 s
  | Solution of K.-S. eqns.                     :        0.001 s           0.001 s
  | Total energy evaluation                     :        0.000 s           0.000 s

  Partial memory accounting:
  | Current value for overall tracked memory usage:
  |   Minimum:        0.355 MB (on task 27)
  |   Maximum:        0.421 MB (on task  3)
  |   Average:        0.378 MB
  | Peak value for overall tracked memory usage:
  |   Minimum:        0.558 MB (on task 27 after allocating gradient_basis_wave)
  |   Maximum:        0.624 MB (on task  3 after allocating gradient_basis_wave)
  |   Average:        0.581 MB
  | Largest tracked array allocation so far:
  |   Minimum:        0.149 MB (gradient_basis_wave on task  0)
  |   Maximum:        0.153 MB (gradient_basis_wave on task  1)
  |   Average:        0.152 MB
  Note:  These values currently only include a subset of arrays which are explicitly tracked.
  The "true" memory usage will be greater.
------------------------------------------------------------

------------------------------------------------------------
          Begin self-consistency iteration #   26

  Date     :  20260724, Time     :  132402.043
------------------------------------------------------------
  SCF convergence analysis is based on: Mixed KS density changes
  Charge density: WARNING - The density does not seem to be converging.
                  The linear fit of ln(rho_delta) over the last 15 steps has a slope of   0.0155

  Pulay mixing of updated and previous charge densities.
  Available memory per node after mixing [GB]:   1007.36
  Renormalizing the density to the exact electron count on the 3D integration grid.
  | Formal number of electrons (from input files) :      28.0000000000
  | Integrated number of electrons on 3D grid     :      27.9999999993
  | Charge integration error                      :      -0.0000000007
  | Normalization factor for density and gradient :       1.0000000000

  Evaluating partitioned Hartree potential by multipole expansion.
  | Original multipole sum: apparent total charge =   0.846162E-14
  | Sum of charges compensated after spline to logarithmic grids =   0.508397E-05
  | Analytical far-field extrapolation by fixed multipoles:
  | Hartree multipole sum: apparent total charge =   0.865840E-14
  Summing up the Hartree potential.
  Time summed over all CPUs for potential: real work        0.001 s, elapsed        0.002 s
  | RMS charge density error from multipole expansion :   0.102364E-02

  Integrating Hamiltonian matrix: batch-based integration.
  Time summed over all CPUs for integration: real work        0.074 s, elapsed        0.082 s

  Updating Kohn-Sham eigenvalues and eigenvectors using ELSI and the ELPA eigensolver.
  Starting ELPA eigensolver
  Finished transformation to standard eigenproblem
  | Time :     0.001 s
  Finished solving standard eigenproblem
  | Time :     0.000 s
  Finished back-transformation of eigenvectors
  | Time :     0.000 s

  Obtaining occupation numbers and electronic chemical potential using ELSI.
  | Note that, for insulating systems, the printed 'chemical potential' value is not uniquely defined.
  | It can be anywhere in the energy gap, as long as it correctly separates occupied and unoccupied states.
  | In systems with a gap, the physically relevant chemical potential is the VBM or HOMO.

  | Chemical potential (Fermi level):    -4.72039998 eV
  Highest occupied state (VBM) at     -4.75038921 eV
  | Occupation number:      1.99997776

  Lowest unoccupied state (CBM) at    -4.69152967 eV
  | Occupation number:      0.00004448

  Overall HOMO-LUMO gap:      0.05885955 eV.

  Total energy components:
  | Sum of eigenvalues            :        -338.29977442 Ha       -9205.60523813 eV
  | XC energy correction          :         -41.92282476 Ha       -1140.77810393 eV
  | XC potential correction       :          54.12804993 Ha        1472.89917891 eV
  | Free-atom electrostatic energy:        -273.18239678 Ha       -7433.67123748 eV
  | Hartree energy correction     :          -0.90825110 Ha         -24.71476985 eV
  | Entropy correction            :          -0.00000005 Ha          -0.00000138 eV
  | ---------------------------
  | Total energy                  :        -600.18519714 Ha      -16331.87017049 eV
  | Total energy, T -> 0          :        -600.18519719 Ha      -16331.87017186 eV  <-- do not rely on this value for anything but (periodic) metals
  | Electronic free energy        :        -600.18519724 Ha      -16331.87017324 eV

  Derived energy quantities:
  | Kinetic energy                :         601.71347375 Ha       16373.45669298 eV
  | Electrostatic energy          :       -1159.97584612 Ha      -31564.54875954 eV
  | Energy correction for multipole
  | error in Hartree potential    :          -0.00061110 Ha          -0.01662884 eV
  | Sum of eigenvalues per atom                           :       -4602.80261907 eV
  | Total energy (T->0) per atom                          :       -8165.93508593 eV  <-- do not rely on this value for anything but (periodic) metals
  | Electronic free energy per atom                       :       -8165.93508662 eV
  Evaluating new KS density.
  Integration grid: deviation in total charge (<rho> - N_e) =  -6.177814E-10

  Self-consistency convergence accuracy:
  | Change of charge density      :  0.2084E+00
  | Change of unmixed KS density  :  0.2338E+00
  | Change of sum of eigenvalues  : -0.2351E+00 eV
  | Change of total energy        :  0.7987E-01 eV


------------------------------------------------------------
  End self-consistency iteration #    26       :  max(cpu_time)    wall_clock(cpu1)
  | Time for this iteration                     :        0.266 s           0.263 s
  | Charge density update                       :        0.001 s           0.001 s
  | Density mixing                              :        0.259 s           0.257 s
  | Hartree multipole update                    :        0.001 s           0.001 s
  | Hartree multipole summation                 :        0.002 s           0.002 s
  | Integration                                 :        0.001 s           0.001 s
  | Solution of K.-S. eqns.                     :        0.001 s           0.001 s
  | Total energy evaluation                     :        0.000 s           0.000 s

  Partial memory accounting:
  | Current value for overall tracked memory usage:
  |   Minimum:        0.355 MB (on task 27)
  |   Maximum:        0.421 MB (on task  3)
  |   Average:        0.378 MB
  | Peak value for overall tracked memory usage:
  |   Minimum:        0.558 MB (on task 27 after allocating gradient_basis_wave)
  |   Maximum:        0.624 MB (on task  3 after allocating gradient_basis_wave)
  |   Average:        0.581 MB
  | Largest tracked array allocation so far:
  |   Minimum:        0.149 MB (gradient_basis_wave on task  0)
  |   Maximum:        0.153 MB (gradient_basis_wave on task  1)
  |   Average:        0.152 MB
  Note:  These values currently only include a subset of arrays which are explicitly tracked.
  The "true" memory usage will be greater.
------------------------------------------------------------

------------------------------------------------------------
          Begin self-consistency iteration #   27

  Date     :  20260724, Time     :  132402.317
------------------------------------------------------------
  SCF convergence analysis is based on: Mixed KS density changes
  Charge density: WARNING - The density does not seem to be converging.
                  The linear fit of ln(rho_delta) over the last 15 steps has a slope of   0.0132

  Pulay mixing of updated and previous charge densities.
  Available memory per node after mixing [GB]:   1007.36
  Renormalizing the density to the exact electron count on the 3D integration grid.
  | Formal number of electrons (from input files) :      28.0000000000
  | Integrated number of electrons on 3D grid     :      28.0000000000
  | Charge integration error                      :       0.0000000000
  | Normalization factor for density and gradient :       1.0000000000

  Evaluating partitioned Hartree potential by multipole expansion.
  | Original multipole sum: apparent total charge =   0.334529E-14
  | Sum of charges compensated after spline to logarithmic grids =   0.513301E-05
  | Analytical far-field extrapolation by fixed multipoles:
  | Hartree multipole sum: apparent total charge =   0.226299E-14
  Summing up the Hartree potential.
  Time summed over all CPUs for potential: real work        0.001 s, elapsed        0.001 s
  | RMS charge density error from multipole expansion :   0.103387E-02

  Integrating Hamiltonian matrix: batch-based integration.
  Time summed over all CPUs for integration: real work        0.074 s, elapsed        0.081 s

  Updating Kohn-Sham eigenvalues and eigenvectors using ELSI and the ELPA eigensolver.
  Starting ELPA eigensolver
  Finished transformation to standard eigenproblem
  | Time :     0.000 s
  Finished solving standard eigenproblem
  | Time :     0.001 s
  Finished back-transformation of eigenvectors
  | Time :     0.000 s

  Obtaining occupation numbers and electronic chemical potential using ELSI.
  | Note that, for insulating systems, the printed 'chemical potential' value is not uniquely defined.
  | It can be anywhere in the energy gap, as long as it correctly separates occupied and unoccupied states.
  | In systems with a gap, the physically relevant chemical potential is the VBM or HOMO.

  | Chemical potential (Fermi level):    -4.70775566 eV
  Highest occupied state (VBM) at     -4.72100980 eV
  | Occupation number:      1.93912724

  Lowest unoccupied state (CBM) at    -4.69681327 eV
  | Occupation number:      0.12174552

  This system has fractional occupation numbers. Thus, it is a degenerate system
  within the approximate finite broadening function (occupation_type)
  applied to determine the occupation numbers.
  This may not be harmful. However, for some systems (free atoms), a different, non-degenerate
  ground state might exist by using a smaller broadening (see keyword occupation_type).
  Overall HOMO-LUMO gap:      0.00000000 eV.

  Total energy components:
  | Sum of eigenvalues            :        -338.29204436 Ha       -9205.39489244 eV
  | XC energy correction          :         -41.92318328 Ha       -1140.78785962 eV
  | XC potential correction       :          54.12852524 Ha        1472.91211286 eV
  | Free-atom electrostatic energy:        -273.18239678 Ha       -7433.67123748 eV
  | Hartree energy correction     :          -0.91566222 Ha         -24.91643679 eV
  | Entropy correction            :          -0.00006709 Ha          -0.00182574 eV
  | ---------------------------
  | Total energy                  :        -600.18476140 Ha      -16331.85831348 eV
  | Total energy, T -> 0          :        -600.18482849 Ha      -16331.86013922 eV  <-- do not rely on this value for anything but (periodic) metals
  | Electronic free energy        :        -600.18489559 Ha      -16331.86196496 eV

  Derived energy quantities:
  | Kinetic energy                :         601.71090438 Ha       16373.38677697 eV
  | Electrostatic energy          :       -1159.97248250 Ha      -31564.45723082 eV
  | Energy correction for multipole
  | error in Hartree potential    :          -0.00062234 Ha          -0.01693476 eV
  | Sum of eigenvalues per atom                           :       -4602.69744622 eV
  | Total energy (T->0) per atom                          :       -8165.93006961 eV  <-- do not rely on this value for anything but (periodic) metals
  | Electronic free energy per atom                       :       -8165.93098248 eV
  Evaluating new KS density.
  Integration grid: deviation in total charge (<rho> - N_e) =   8.006396E-10

  Self-consistency convergence accuracy:
  | Change of charge density      :  0.3110E-01
  | Change of unmixed KS density  :  0.2312E+00
  | Change of sum of eigenvalues  :  0.2103E+00 eV
  | Change of total energy        :  0.1186E-01 eV


------------------------------------------------------------
  End self-consistency iteration #    27       :  max(cpu_time)    wall_clock(cpu1)
  | Time for this iteration                     :        0.266 s           0.266 s
  | Charge density update                       :        0.001 s           0.001 s
  | Density mixing                              :        0.259 s           0.259 s
  | Hartree multipole update                    :        0.001 s           0.001 s
  | Hartree multipole summation                 :        0.002 s           0.001 s
  | Integration                                 :        0.001 s           0.002 s
  | Solution of K.-S. eqns.                     :        0.001 s           0.001 s
  | Total energy evaluation                     :        0.000 s           0.000 s

  Partial memory accounting:
  | Current value for overall tracked memory usage:
  |   Minimum:        0.355 MB (on task 27)
  |   Maximum:        0.421 MB (on task  3)
  |   Average:        0.378 MB
  | Peak value for overall tracked memory usage:
  |   Minimum:        0.558 MB (on task 27 after allocating gradient_basis_wave)
  |   Maximum:        0.624 MB (on task  3 after allocating gradient_basis_wave)
  |   Average:        0.581 MB
  | Largest tracked array allocation so far:
  |   Minimum:        0.149 MB (gradient_basis_wave on task  0)
  |   Maximum:        0.153 MB (gradient_basis_wave on task  1)
  |   Average:        0.152 MB
  Note:  These values currently only include a subset of arrays which are explicitly tracked.
  The "true" memory usage will be greater.
------------------------------------------------------------

------------------------------------------------------------
          Begin self-consistency iteration #   28

  Date     :  20260724, Time     :  132402.749
------------------------------------------------------------
  SCF convergence analysis is based on: Mixed KS density changes
  Charge density: WARNING - The density does not seem to be converging.
                  The linear fit of ln(rho_delta) over the last 15 steps has a slope of   0.0034

  Pulay mixing of updated and previous charge densities.
  Available memory per node after mixing [GB]:   1007.36
  Renormalizing the density to the exact electron count on the 3D integration grid.
  | Formal number of electrons (from input files) :      28.0000000000
  | Integrated number of electrons on 3D grid     :      28.0000000003
  | Charge integration error                      :       0.0000000003
  | Normalization factor for density and gradient :       1.0000000000

  Evaluating partitioned Hartree potential by multipole expansion.
  | Original multipole sum: apparent total charge =  -0.196782E-14
  | Sum of charges compensated after spline to logarithmic grids =   0.515308E-05
  | Analytical far-field extrapolation by fixed multipoles:
  | Hartree multipole sum: apparent total charge =  -0.226299E-14
  Summing up the Hartree potential.
  Time summed over all CPUs for potential: real work        0.001 s, elapsed        0.002 s
  | RMS charge density error from multipole expansion :   0.103955E-02

  Integrating Hamiltonian matrix: batch-based integration.
  Time summed over all CPUs for integration: real work        0.075 s, elapsed        0.085 s

  Updating Kohn-Sham eigenvalues and eigenvectors using ELSI and the ELPA eigensolver.
  Starting ELPA eigensolver
  Finished transformation to standard eigenproblem
  | Time :     0.000 s
  Finished solving standard eigenproblem
  | Time :     0.001 s
  Finished back-transformation of eigenvectors
  | Time :     0.000 s

  Obtaining occupation numbers and electronic chemical potential using ELSI.
  | Note that, for insulating systems, the printed 'chemical potential' value is not uniquely defined.
  | It can be anywhere in the energy gap, as long as it correctly separates occupied and unoccupied states.
  | In systems with a gap, the physically relevant chemical potential is the VBM or HOMO.

  | Chemical potential (Fermi level):    -4.70120779 eV
  Highest occupied state (VBM) at     -4.70174106 eV
  | Occupation number:      1.06011623

  Lowest unoccupied state (CBM) at    -1.49119793 eV
  | Occupation number:      0.00000000

  This system has fractional occupation numbers. Thus, it is a degenerate system
  within the approximate finite broadening function (occupation_type)
  applied to determine the occupation numbers.
  This may not be harmful. However, for some systems (free atoms), a different, non-degenerate
  ground state might exist by using a smaller broadening (see keyword occupation_type).
  Overall HOMO-LUMO gap:      0.00000000 eV.

  Total energy components:
  | Sum of eigenvalues            :        -338.29069848 Ha       -9205.35826912 eV
  | XC energy correction          :         -41.92319216 Ha       -1140.78810125 eV
  | XC potential correction       :          54.12853624 Ha        1472.91241209 eV
  | Free-atom electrostatic energy:        -273.18239678 Ha       -7433.67123748 eV
  | Hartree energy correction     :          -0.91679245 Ha         -24.94719179 eV
  | Entropy correction            :          -0.00027361 Ha          -0.00744536 eV
  | ---------------------------
  | Total energy                  :        -600.18454363 Ha      -16331.85238755 eV
  | Total energy, T -> 0          :        -600.18481724 Ha      -16331.85983291 eV  <-- do not rely on this value for anything but (periodic) metals
  | Electronic free energy        :        -600.18509085 Ha      -16331.86727827 eV

  Derived energy quantities:
  | Kinetic energy                :         601.70809582 Ha       16373.31035212 eV
  | Electrostatic energy          :       -1159.96944729 Ha      -31564.37463842 eV
  | Energy correction for multipole
  | error in Hartree potential    :          -0.00063022 Ha          -0.01714915 eV
  | Sum of eigenvalues per atom                           :       -4602.67913456 eV
  | Total energy (T->0) per atom                          :       -8165.92991646 eV  <-- do not rely on this value for anything but (periodic) metals
  | Electronic free energy per atom                       :       -8165.93363914 eV
  Evaluating new KS density.
  Integration grid: deviation in total charge (<rho> - N_e) =  -7.350991E-10

  Self-consistency convergence accuracy:
  | Change of charge density      :  0.1394E-01
  | Change of unmixed KS density  :  0.1514E-01
  | Change of sum of eigenvalues  :  0.3662E-01 eV
  | Change of total energy        :  0.5926E-02 eV


------------------------------------------------------------
  End self-consistency iteration #    28       :  max(cpu_time)    wall_clock(cpu1)
  | Time for this iteration                     :        0.268 s           0.112 s
  | Charge density update                       :        0.001 s           0.001 s
  | Density mixing                              :        0.261 s           0.105 s
  | Hartree multipole update                    :        0.001 s           0.001 s
  | Hartree multipole summation                 :        0.002 s           0.002 s
  | Integration                                 :        0.001 s           0.001 s
  | Solution of K.-S. eqns.                     :        0.001 s           0.001 s
  | Total energy evaluation                     :        0.000 s           0.000 s

  Partial memory accounting:
  | Current value for overall tracked memory usage:
  |   Minimum:        0.355 MB (on task 27)
  |   Maximum:        0.421 MB (on task  3)
  |   Average:        0.378 MB
  | Peak value for overall tracked memory usage:
  |   Minimum:        0.558 MB (on task 27 after allocating gradient_basis_wave)
  |   Maximum:        0.624 MB (on task  3 after allocating gradient_basis_wave)
  |   Average:        0.581 MB
  | Largest tracked array allocation so far:
  |   Minimum:        0.149 MB (gradient_basis_wave on task  0)
  |   Maximum:        0.153 MB (gradient_basis_wave on task  1)
  |   Average:        0.152 MB
  Note:  These values currently only include a subset of arrays which are explicitly tracked.
  The "true" memory usage will be greater.
------------------------------------------------------------

------------------------------------------------------------
          Begin self-consistency iteration #   29

  Date     :  20260724, Time     :  132402.971
------------------------------------------------------------
  SCF convergence analysis is based on: Mixed KS density changes
  Charge density: WARNING - The density does not seem to be converging.
                  The linear fit of ln(rho_delta) over the last 15 steps has a slope of   0.0011

  Pulay mixing of updated and previous charge densities.
  Available memory per node after mixing [GB]:   1007.36
  Renormalizing the density to the exact electron count on the 3D integration grid.
  | Formal number of electrons (from input files) :      28.0000000000
  | Integrated number of electrons on 3D grid     :      27.9999999994
  | Charge integration error                      :      -0.0000000006
  | Normalization factor for density and gradient :       1.0000000000

  Evaluating partitioned Hartree potential by multipole expansion.
  | Original multipole sum: apparent total charge =  -0.688737E-15
  | Sum of charges compensated after spline to logarithmic grids =   0.506181E-05
  | Analytical far-field extrapolation by fixed multipoles:
  | Hartree multipole sum: apparent total charge =  -0.137747E-14
  Summing up the Hartree potential.
  Time summed over all CPUs for potential: real work        0.001 s, elapsed        0.001 s
  | RMS charge density error from multipole expansion :   0.101752E-02

  Integrating Hamiltonian matrix: batch-based integration.
  Time summed over all CPUs for integration: real work        0.075 s, elapsed        0.086 s

  Updating Kohn-Sham eigenvalues and eigenvectors using ELSI and the ELPA eigensolver.
  Starting ELPA eigensolver
  Finished transformation to standard eigenproblem
  | Time :     0.000 s
  Finished solving standard eigenproblem
  | Time :     0.001 s
  Finished back-transformation of eigenvectors
  | Time :     0.000 s

  Obtaining occupation numbers and electronic chemical potential using ELSI.
  | Note that, for insulating systems, the printed 'chemical potential' value is not uniquely defined.
  | It can be anywhere in the energy gap, as long as it correctly separates occupied and unoccupied states.
  | In systems with a gap, the physically relevant chemical potential is the VBM or HOMO.

  | Chemical potential (Fermi level):    -4.72572296 eV
  Highest occupied state (VBM) at     -4.76642642 eV
  | Occupation number:      1.99999999

  Lowest unoccupied state (CBM) at    -4.68589744 eV
  | Occupation number:      0.00000002

  Overall HOMO-LUMO gap:      0.08052898 eV.

  Total energy components:
  | Sum of eigenvalues            :        -338.30103538 Ha       -9205.63955041 eV
  | XC energy correction          :         -41.92285840 Ha       -1140.77901924 eV
  | XC potential correction       :          54.12809419 Ha        1472.90038317 eV
  | Free-atom electrostatic energy:        -273.18239678 Ha       -7433.67123748 eV
  | Hartree energy correction     :          -0.90722500 Ha         -24.68684835 eV
  | Entropy correction            :          -0.00000000 Ha          -0.00000000 eV
  | ---------------------------
  | Total energy                  :        -600.18542137 Ha      -16331.87627232 eV
  | Total energy, T -> 0          :        -600.18542137 Ha      -16331.87627232 eV  <-- do not rely on this value for anything but (periodic) metals
  | Electronic free energy        :        -600.18542137 Ha      -16331.87627232 eV

  Derived energy quantities:
  | Kinetic energy                :         601.71630094 Ha       16373.53362488 eV
  | Electrostatic energy          :       -1159.97886392 Ha      -31564.63087796 eV
  | Energy correction for multipole
  | error in Hartree potential    :          -0.00060267 Ha          -0.01639941 eV
  | Sum of eigenvalues per atom                           :       -4602.81977520 eV
  | Total energy (T->0) per atom                          :       -8165.93813616 eV  <-- do not rely on this value for anything but (periodic) metals
  | Electronic free energy per atom                       :       -8165.93813616 eV
  Evaluating new KS density.
  Integration grid: deviation in total charge (<rho> - N_e) =   6.031442E-10

  Self-consistency convergence accuracy:
  | Change of charge density      :  0.9544E-01
  | Change of unmixed KS density  :  0.1077E+00
  | Change of sum of eigenvalues  : -0.2813E+00 eV
  | Change of total energy        : -0.2388E-01 eV


------------------------------------------------------------
  End self-consistency iteration #    29       :  max(cpu_time)    wall_clock(cpu1)
  | Time for this iteration                     :        0.271 s           0.173 s
  | Charge density update                       :        0.001 s           0.001 s
  | Density mixing                              :        0.264 s           0.166 s
  | Hartree multipole update                    :        0.001 s           0.002 s
  | Hartree multipole summation                 :        0.002 s           0.002 s
  | Integration                                 :        0.001 s           0.001 s
  | Solution of K.-S. eqns.                     :        0.001 s           0.001 s
  | Total energy evaluation                     :        0.000 s           0.000 s

  Partial memory accounting:
  | Current value for overall tracked memory usage:
  |   Minimum:        0.355 MB (on task 27)
  |   Maximum:        0.421 MB (on task  3)
  |   Average:        0.378 MB
  | Peak value for overall tracked memory usage:
  |   Minimum:        0.558 MB (on task 27 after allocating gradient_basis_wave)
  |   Maximum:        0.624 MB (on task  3 after allocating gradient_basis_wave)
  |   Average:        0.581 MB
  | Largest tracked array allocation so far:
  |   Minimum:        0.149 MB (gradient_basis_wave on task  0)
  |   Maximum:        0.153 MB (gradient_basis_wave on task  1)
  |   Average:        0.152 MB
  Note:  These values currently only include a subset of arrays which are explicitly tracked.
  The "true" memory usage will be greater.
------------------------------------------------------------

------------------------------------------------------------
          Begin self-consistency iteration #   30

  Date     :  20260724, Time     :  132403.156
------------------------------------------------------------
  SCF convergence analysis is based on: Mixed KS density changes
  Charge density: The charge density seems to be converging.
                  The linear fit of ln(rho_delta) over the last 15 steps has a slope of  -0.0072
  Estimated 633 more steps to reach target accuracy

  Pulay mixing of updated and previous charge densities.
  Available memory per node after mixing [GB]:   1007.36
  Renormalizing the density to the exact electron count on the 3D integration grid.
  | Formal number of electrons (from input files) :      28.0000000000
  | Integrated number of electrons on 3D grid     :      28.0000000001
  | Charge integration error                      :       0.0000000001
  | Normalization factor for density and gradient :       1.0000000000

  Evaluating partitioned Hartree potential by multipole expansion.
  | Original multipole sum: apparent total charge =   0.521472E-14
  | Sum of charges compensated after spline to logarithmic grids =   0.507303E-05
  | Analytical far-field extrapolation by fixed multipoles:
  | Hartree multipole sum: apparent total charge =   0.826484E-14
  Summing up the Hartree potential.
  Time summed over all CPUs for potential: real work        0.001 s, elapsed        0.002 s
  | RMS charge density error from multipole expansion :   0.101980E-02

  Integrating Hamiltonian matrix: batch-based integration.
  Time summed over all CPUs for integration: real work        0.075 s, elapsed        0.085 s

  Updating Kohn-Sham eigenvalues and eigenvectors using ELSI and the ELPA eigensolver.
  Starting ELPA eigensolver
  Finished transformation to standard eigenproblem
  | Time :     0.000 s
  Finished solving standard eigenproblem
  | Time :     0.001 s
  Finished back-transformation of eigenvectors
  | Time :     0.000 s

  Obtaining occupation numbers and electronic chemical potential using ELSI.
  | Note that, for insulating systems, the printed 'chemical potential' value is not uniquely defined.
  | It can be anywhere in the energy gap, as long as it correctly separates occupied and unoccupied states.
  | In systems with a gap, the physically relevant chemical potential is the VBM or HOMO.

  | Chemical potential (Fermi level):    -4.72306576 eV
  Highest occupied state (VBM) at     -4.75992494 eV
  | Occupation number:      1.99999981

  Lowest unoccupied state (CBM) at    -4.68712881 eV
  | Occupation number:      0.00000037

  Overall HOMO-LUMO gap:      0.07279613 eV.

  Total energy components:
  | Sum of eigenvalues            :        -338.29940247 Ha       -9205.59511662 eV
  | XC energy correction          :         -41.92293493 Ha       -1140.78110164 eV
  | XC potential correction       :          54.12819571 Ha        1472.90314569 eV
  | Free-atom electrostatic energy:        -273.18239678 Ha       -7433.67123748 eV
  | Hartree energy correction     :          -0.90880131 Ha         -24.72974184 eV
  | Entropy correction            :          -0.00000000 Ha          -0.00000001 eV
  | ---------------------------
  | Total energy                  :        -600.18533978 Ha      -16331.87405189 eV
  | Total energy, T -> 0          :        -600.18533978 Ha      -16331.87405190 eV  <-- do not rely on this value for anything but (periodic) metals
  | Electronic free energy        :        -600.18533978 Ha      -16331.87405192 eV

  Derived energy quantities:
  | Kinetic energy                :         601.71568205 Ha       16373.51678397 eV
  | Electrostatic energy          :       -1159.97808690 Ha      -31564.60973422 eV
  | Energy correction for multipole
  | error in Hartree potential    :          -0.00060516 Ha          -0.01646734 eV
  | Sum of eigenvalues per atom                           :       -4602.79755831 eV
  | Total energy (T->0) per atom                          :       -8165.93702595 eV  <-- do not rely on this value for anything but (periodic) metals
  | Electronic free energy per atom                       :       -8165.93702596 eV
  Evaluating new KS density.
  Integration grid: deviation in total charge (<rho> - N_e) =   7.115979E-10

  Self-consistency convergence accuracy:
  | Change of charge density      :  0.3351E-01
  | Change of unmixed KS density  :  0.1233E+00
  | Change of sum of eigenvalues  :  0.4443E-01 eV
  | Change of total energy        :  0.2220E-02 eV


------------------------------------------------------------
  End self-consistency iteration #    30       :  max(cpu_time)    wall_clock(cpu1)
  | Time for this iteration                     :        0.279 s           0.279 s
  | Charge density update                       :        0.001 s           0.001 s
  | Density mixing                              :        0.272 s           0.272 s
  | Hartree multipole update                    :        0.001 s           0.002 s
  | Hartree multipole summation                 :        0.002 s           0.001 s
  | Integration                                 :        0.001 s           0.002 s
  | Solution of K.-S. eqns.                     :        0.001 s           0.001 s
  | Total energy evaluation                     :        0.000 s           0.000 s

  Partial memory accounting:
  | Current value for overall tracked memory usage:
  |   Minimum:        0.355 MB (on task 27)
  |   Maximum:        0.421 MB (on task  3)
  |   Average:        0.378 MB
  | Peak value for overall tracked memory usage:
  |   Minimum:        0.558 MB (on task 27 after allocating gradient_basis_wave)
  |   Maximum:        0.624 MB (on task  3 after allocating gradient_basis_wave)
  |   Average:        0.581 MB
  | Largest tracked array allocation so far:
  |   Minimum:        0.149 MB (gradient_basis_wave on task  0)
  |   Maximum:        0.153 MB (gradient_basis_wave on task  1)
  |   Average:        0.152 MB
  Note:  These values currently only include a subset of arrays which are explicitly tracked.
  The "true" memory usage will be greater.
------------------------------------------------------------

------------------------------------------------------------
          Begin self-consistency iteration #   31

  Date     :  20260724, Time     :  132403.447
------------------------------------------------------------
  SCF convergence analysis is based on: Mixed KS density changes
  Charge density: The charge density seems to be converging.
                  The linear fit of ln(rho_delta) over the last 15 steps has a slope of  -0.0134
  Estimated 336 more steps to reach target accuracy

  Pulay mixing of updated and previous charge densities.
  Available memory per node after mixing [GB]:   1007.36
  Renormalizing the density to the exact electron count on the 3D integration grid.
  | Formal number of electrons (from input files) :      28.0000000000
  | Integrated number of electrons on 3D grid     :      28.0000000001
  | Charge integration error                      :       0.0000000001
  | Normalization factor for density and gradient :       1.0000000000

  Evaluating partitioned Hartree potential by multipole expansion.
  | Original multipole sum: apparent total charge =   0.285334E-14
  | Sum of charges compensated after spline to logarithmic grids =   0.508705E-05
  | Analytical far-field extrapolation by fixed multipoles:
  | Hartree multipole sum: apparent total charge =   0.885519E-15
  Summing up the Hartree potential.
  Time summed over all CPUs for potential: real work        0.001 s, elapsed        0.002 s
  | RMS charge density error from multipole expansion :   0.102334E-02

  Integrating Hamiltonian matrix: batch-based integration.
  Time summed over all CPUs for integration: real work        0.075 s, elapsed        0.087 s

  Updating Kohn-Sham eigenvalues and eigenvectors using ELSI and the ELPA eigensolver.
  Starting ELPA eigensolver
  Finished transformation to standard eigenproblem
  | Time :     0.000 s
  Finished solving standard eigenproblem
  | Time :     0.001 s
  Finished back-transformation of eigenvectors
  | Time :     0.000 s

  Obtaining occupation numbers and electronic chemical potential using ELSI.
  | Note that, for insulating systems, the printed 'chemical potential' value is not uniquely defined.
  | It can be anywhere in the energy gap, as long as it correctly separates occupied and unoccupied states.
  | In systems with a gap, the physically relevant chemical potential is the VBM or HOMO.

  | Chemical potential (Fermi level):    -4.71941518 eV
  Highest occupied state (VBM) at     -4.75005425 eV
  | Occupation number:      1.99998529

  Lowest unoccupied state (CBM) at    -4.68987262 eV
  | Occupation number:      0.00002942

  Overall HOMO-LUMO gap:      0.06018163 eV.

  Total energy components:
  | Sum of eigenvalues            :        -338.29787647 Ha       -9205.55359220 eV
  | XC energy correction          :         -41.92297131 Ha       -1140.78209157 eV
  | XC potential correction       :          54.12824424 Ha        1472.90446625 eV
  | Free-atom electrostatic energy:        -273.18239678 Ha       -7433.67123748 eV
  | Hartree energy correction     :          -0.91021011 Ha         -24.76807715 eV
  | Entropy correction            :          -0.00000003 Ha          -0.00000093 eV
  | ---------------------------
  | Total energy                  :        -600.18521043 Ha      -16331.87053215 eV
  | Total energy, T -> 0          :        -600.18521046 Ha      -16331.87053308 eV  <-- do not rely on this value for anything but (periodic) metals
  | Electronic free energy        :        -600.18521050 Ha      -16331.87053401 eV

  Derived energy quantities:
  | Kinetic energy                :         601.71426072 Ha       16373.47810756 eV
  | Electrostatic energy          :       -1159.97649984 Ha      -31564.56654813 eV
  | Energy correction for multipole
  | error in Hartree potential    :          -0.00060973 Ha          -0.01659169 eV
  | Sum of eigenvalues per atom                           :       -4602.77679610 eV
  | Total energy (T->0) per atom                          :       -8165.93526654 eV  <-- do not rely on this value for anything but (periodic) metals
  | Electronic free energy per atom                       :       -8165.93526700 eV
  Evaluating new KS density.
  Integration grid: deviation in total charge (<rho> - N_e) =  -5.772485E-10

  Self-consistency convergence accuracy:
  | Change of charge density      :  0.3280E-01
  | Change of unmixed KS density  :  0.5834E-03
  | Change of sum of eigenvalues  :  0.4152E-01 eV
  | Change of total energy        :  0.3520E-02 eV


------------------------------------------------------------
  End self-consistency iteration #    31       :  max(cpu_time)    wall_clock(cpu1)
  | Time for this iteration                     :        0.294 s           0.294 s
  | Charge density update                       :        0.001 s           0.001 s
  | Density mixing                              :        0.287 s           0.287 s
  | Hartree multipole update                    :        0.001 s           0.001 s
  | Hartree multipole summation                 :        0.002 s           0.002 s
  | Integration                                 :        0.002 s           0.002 s
  | Solution of K.-S. eqns.                     :        0.001 s           0.001 s
  | Total energy evaluation                     :        0.000 s           0.000 s

  Partial memory accounting:
  | Current value for overall tracked memory usage:
  |   Minimum:        0.355 MB (on task 27)
  |   Maximum:        0.421 MB (on task  3)
  |   Average:        0.378 MB
  | Peak value for overall tracked memory usage:
  |   Minimum:        0.558 MB (on task 27 after allocating gradient_basis_wave)
  |   Maximum:        0.624 MB (on task  3 after allocating gradient_basis_wave)
  |   Average:        0.581 MB
  | Largest tracked array allocation so far:
  |   Minimum:        0.149 MB (gradient_basis_wave on task  0)
  |   Maximum:        0.153 MB (gradient_basis_wave on task  1)
  |   Average:        0.152 MB
  Note:  These values currently only include a subset of arrays which are explicitly tracked.
  The "true" memory usage will be greater.
------------------------------------------------------------

------------------------------------------------------------
          Begin self-consistency iteration #   32

  Date     :  20260724, Time     :  132403.864
------------------------------------------------------------
  SCF convergence analysis is based on: Mixed KS density changes
  Charge density: The charge density seems to be converging.
                  The linear fit of ln(rho_delta) over the last 15 steps has a slope of  -0.0186
  Estimated 242 more steps to reach target accuracy

  Pulay mixing of updated and previous charge densities.
  Available memory per node after mixing [GB]:   1007.36
  Renormalizing the density to the exact electron count on the 3D integration grid.
  | Formal number of electrons (from input files) :      28.0000000000
  | Integrated number of electrons on 3D grid     :      28.0000000000
  | Charge integration error                      :       0.0000000000
  | Normalization factor for density and gradient :       1.0000000000

  Evaluating partitioned Hartree potential by multipole expansion.
  | Original multipole sum: apparent total charge =  -0.373886E-14
  | Sum of charges compensated after spline to logarithmic grids =   0.508630E-05
  | Analytical far-field extrapolation by fixed multipoles:
  | Hartree multipole sum: apparent total charge =  -0.275495E-14
  Summing up the Hartree potential.
  Time summed over all CPUs for potential: real work        0.001 s, elapsed        0.002 s
  | RMS charge density error from multipole expansion :   0.102305E-02

  Integrating Hamiltonian matrix: batch-based integration.
  Time summed over all CPUs for integration: real work        0.075 s, elapsed        0.096 s

  Updating Kohn-Sham eigenvalues and eigenvectors using ELSI and the ELPA eigensolver.
  Starting ELPA eigensolver
  Finished transformation to standard eigenproblem
  | Time :     0.001 s
  Finished solving standard eigenproblem
  | Time :     0.000 s
  Finished back-transformation of eigenvectors
  | Time :     0.000 s

  Obtaining occupation numbers and electronic chemical potential using ELSI.
  | Note that, for insulating systems, the printed 'chemical potential' value is not uniquely defined.
  | It can be anywhere in the energy gap, as long as it correctly separates occupied and unoccupied states.
  | In systems with a gap, the physically relevant chemical potential is the VBM or HOMO.

  | Chemical potential (Fermi level):    -4.71966264 eV
  Highest occupied state (VBM) at     -4.75085061 eV
  | Occupation number:      1.99998969

  Lowest unoccupied state (CBM) at    -4.68955300 eV
  | Occupation number:      0.00002061

  Overall HOMO-LUMO gap:      0.06129761 eV.

  Total energy components:
  | Sum of eigenvalues            :        -338.29788889 Ha       -9205.55393005 eV
  | XC energy correction          :         -41.92297722 Ha       -1140.78225261 eV
  | XC potential correction       :          54.12825205 Ha        1472.90467872 eV
  | Free-atom electrostatic energy:        -273.18239678 Ha       -7433.67123748 eV
  | Hartree energy correction     :          -0.91021085 Ha         -24.76809745 eV
  | Entropy correction            :          -0.00000002 Ha          -0.00000066 eV
  | ---------------------------
  | Total energy                  :        -600.18522170 Ha      -16331.87083887 eV
  | Total energy, T -> 0          :        -600.18522172 Ha      -16331.87083954 eV  <-- do not rely on this value for anything but (periodic) metals
  | Electronic free energy        :        -600.18522175 Ha      -16331.87084020 eV

  Derived energy quantities:
  | Kinetic energy                :         601.71443398 Ha       16373.48282226 eV
  | Electrostatic energy          :       -1159.97667846 Ha      -31564.57140853 eV
  | Energy correction for multipole
  | error in Hartree potential    :          -0.00060928 Ha          -0.01657926 eV
  | Sum of eigenvalues per atom                           :       -4602.77696503 eV
  | Total energy (T->0) per atom                          :       -8165.93541977 eV  <-- do not rely on this value for anything but (periodic) metals
  | Electronic free energy per atom                       :       -8165.93542010 eV
  Evaluating new KS density.
  Integration grid: deviation in total charge (<rho> - N_e) =   2.648157E-10

  Self-consistency convergence accuracy:
  | Change of charge density      :  0.3150E-01
  | Change of unmixed KS density  :  0.7543E-03
  | Change of sum of eigenvalues  : -0.3379E-03 eV
  | Change of total energy        : -0.3067E-03 eV


------------------------------------------------------------
  End self-consistency iteration #    32       :  max(cpu_time)    wall_clock(cpu1)
  | Time for this iteration                     :        0.279 s           0.169 s
  | Charge density update                       :        0.001 s           0.001 s
  | Density mixing                              :        0.272 s           0.162 s
  | Hartree multipole update                    :        0.001 s           0.002 s
  | Hartree multipole summation                 :        0.002 s           0.002 s
  | Integration                                 :        0.002 s           0.001 s
  | Solution of K.-S. eqns.                     :        0.001 s           0.001 s
  | Total energy evaluation                     :        0.000 s           0.000 s

  Partial memory accounting:
  | Current value for overall tracked memory usage:
  |   Minimum:        0.355 MB (on task 27)
  |   Maximum:        0.421 MB (on task  3)
  |   Average:        0.378 MB
  | Peak value for overall tracked memory usage:
  |   Minimum:        0.558 MB (on task 27 after allocating gradient_basis_wave)
  |   Maximum:        0.624 MB (on task  3 after allocating gradient_basis_wave)
  |   Average:        0.581 MB
  | Largest tracked array allocation so far:
  |   Minimum:        0.149 MB (gradient_basis_wave on task  0)
  |   Maximum:        0.153 MB (gradient_basis_wave on task  1)
  |   Average:        0.152 MB
  Note:  These values currently only include a subset of arrays which are explicitly tracked.
  The "true" memory usage will be greater.
------------------------------------------------------------

------------------------------------------------------------
          Begin self-consistency iteration #   33

  Date     :  20260724, Time     :  132404.053
------------------------------------------------------------
  SCF convergence analysis is based on: Mixed KS density changes
  Charge density: The charge density seems to be converging.
                  The linear fit of ln(rho_delta) over the last 15 steps has a slope of  -0.0231
  Estimated 195 more steps to reach target accuracy

  Pulay mixing of updated and previous charge densities.
  Available memory per node after mixing [GB]:   1007.37
  Renormalizing the density to the exact electron count on the 3D integration grid.
  | Formal number of electrons (from input files) :      28.0000000000
  | Integrated number of electrons on 3D grid     :      27.9999999996
  | Charge integration error                      :      -0.0000000004
  | Normalization factor for density and gradient :       1.0000000000

  Evaluating partitioned Hartree potential by multipole expansion.
  | Original multipole sum: apparent total charge =   0.383725E-14
  | Sum of charges compensated after spline to logarithmic grids =   0.508631E-05
  | Analytical far-field extrapolation by fixed multipoles:
  | Hartree multipole sum: apparent total charge =   0.482116E-14
  Summing up the Hartree potential.
  Time summed over all CPUs for potential: real work        0.001 s, elapsed        0.001 s
  | RMS charge density error from multipole expansion :   0.102309E-02

  Integrating Hamiltonian matrix: batch-based integration.
  Time summed over all CPUs for integration: real work        0.074 s, elapsed        0.084 s

  Updating Kohn-Sham eigenvalues and eigenvectors using ELSI and the ELPA eigensolver.
  Starting ELPA eigensolver
  Finished transformation to standard eigenproblem
  | Time :     0.000 s
  Finished solving standard eigenproblem
  | Time :     0.001 s
  Finished back-transformation of eigenvectors
  | Time :     0.000 s

  Obtaining occupation numbers and electronic chemical potential using ELSI.
  | Note that, for insulating systems, the printed 'chemical potential' value is not uniquely defined.
  | It can be anywhere in the energy gap, as long as it correctly separates occupied and unoccupied states.
  | In systems with a gap, the physically relevant chemical potential is the VBM or HOMO.

  | Chemical potential (Fermi level):    -4.71964078 eV
  Highest occupied state (VBM) at     -4.75078483 eV
  | Occupation number:      1.99998939

  Lowest unoccupied state (CBM) at    -4.68957654 eV
  | Occupation number:      0.00002121

  Overall HOMO-LUMO gap:      0.06120830 eV.

  Total energy components:
  | Sum of eigenvalues            :        -338.29788189 Ha       -9205.55373977 eV
  | XC energy correction          :         -41.92297724 Ha       -1140.78225300 eV
  | XC potential correction       :          54.12825203 Ha        1472.90467837 eV
  | Free-atom electrostatic energy:        -273.18239678 Ha       -7433.67123748 eV
  | Hartree energy correction     :          -0.91021691 Ha         -24.76826241 eV
  | Entropy correction            :          -0.00000003 Ha          -0.00000068 eV
  | ---------------------------
  | Total energy                  :        -600.18522080 Ha      -16331.87081429 eV
  | Total energy, T -> 0          :        -600.18522082 Ha      -16331.87081497 eV  <-- do not rely on this value for anything but (periodic) metals
  | Electronic free energy        :        -600.18522085 Ha      -16331.87081566 eV

  Derived energy quantities:
  | Kinetic energy                :         601.71442737 Ha       16373.48264230 eV
  | Electrostatic energy          :       -1159.97667093 Ha      -31564.57120359 eV
  | Energy correction for multipole
  | error in Hartree potential    :          -0.00060932 Ha          -0.01658054 eV
  | Sum of eigenvalues per atom                           :       -4602.77686989 eV
  | Total energy (T->0) per atom                          :       -8165.93540749 eV  <-- do not rely on this value for anything but (periodic) metals
  | Electronic free energy per atom                       :       -8165.93540783 eV
  Evaluating new KS density.
  Integration grid: deviation in total charge (<rho> - N_e) =   8.230217E-10

  Self-consistency convergence accuracy:
  | Change of charge density      :  0.3163E-01
  | Change of unmixed KS density  :  0.4992E-04
  | Change of sum of eigenvalues  :  0.1903E-03 eV
  | Change of total energy        :  0.2458E-04 eV


------------------------------------------------------------
  End self-consistency iteration #    33       :  max(cpu_time)    wall_clock(cpu1)
  | Time for this iteration                     :        0.264 s           0.256 s
  | Charge density update                       :        0.001 s           0.001 s
  | Density mixing                              :        0.257 s           0.249 s
  | Hartree multipole update                    :        0.001 s           0.002 s
  | Hartree multipole summation                 :        0.002 s           0.001 s
  | Integration                                 :        0.001 s           0.002 s
  | Solution of K.-S. eqns.                     :        0.001 s           0.001 s
  | Total energy evaluation                     :        0.000 s           0.000 s

  Partial memory accounting:
  | Current value for overall tracked memory usage:
  |   Minimum:        0.355 MB (on task 27)
  |   Maximum:        0.421 MB (on task  3)
  |   Average:        0.378 MB
  | Peak value for overall tracked memory usage:
  |   Minimum:        0.558 MB (on task 27 after allocating gradient_basis_wave)
  |   Maximum:        0.624 MB (on task  3 after allocating gradient_basis_wave)
  |   Average:        0.581 MB
  | Largest tracked array allocation so far:
  |   Minimum:        0.149 MB (gradient_basis_wave on task  0)
  |   Maximum:        0.153 MB (gradient_basis_wave on task  1)
  |   Average:        0.152 MB
  Note:  These values currently only include a subset of arrays which are explicitly tracked.
  The "true" memory usage will be greater.
------------------------------------------------------------

------------------------------------------------------------
          Begin self-consistency iteration #   34

  Date     :  20260724, Time     :  132404.548
------------------------------------------------------------
  SCF convergence analysis is based on: Mixed KS density changes
  Charge density: The charge density seems to be converging.
                  The linear fit of ln(rho_delta) over the last 15 steps has a slope of  -0.0161
  Estimated 279 more steps to reach target accuracy

  Pulay mixing of updated and previous charge densities.
  Available memory per node after mixing [GB]:   1007.37
  Renormalizing the density to the exact electron count on the 3D integration grid.
  | Formal number of electrons (from input files) :      28.0000000000
  | Integrated number of electrons on 3D grid     :      27.9999999989
  | Charge integration error                      :      -0.0000000011
  | Normalization factor for density and gradient :       1.0000000000

  Evaluating partitioned Hartree potential by multipole expansion.
  | Original multipole sum: apparent total charge =   0.639541E-14
  | Sum of charges compensated after spline to logarithmic grids =   0.509216E-05
  | Analytical far-field extrapolation by fixed multipoles:
  | Hartree multipole sum: apparent total charge =   0.688737E-14
  Summing up the Hartree potential.
  Time summed over all CPUs for potential: real work        0.001 s, elapsed        0.002 s
  | RMS charge density error from multipole expansion :   0.102471E-02

  Integrating Hamiltonian matrix: batch-based integration.
  Time summed over all CPUs for integration: real work        0.075 s, elapsed        0.088 s

  Updating Kohn-Sham eigenvalues and eigenvectors using ELSI and the ELPA eigensolver.
  Starting ELPA eigensolver
  Finished transformation to standard eigenproblem
  | Time :     0.000 s
  Finished solving standard eigenproblem
  | Time :     0.001 s
  Finished back-transformation of eigenvectors
  | Time :     0.000 s

  Obtaining occupation numbers and electronic chemical potential using ELSI.
  | Note that, for insulating systems, the printed 'chemical potential' value is not uniquely defined.
  | It can be anywhere in the energy gap, as long as it correctly separates occupied and unoccupied states.
  | In systems with a gap, the physically relevant chemical potential is the VBM or HOMO.

  | Chemical potential (Fermi level):    -4.71804141 eV
  Highest occupied state (VBM) at     -4.74646694 eV
  | Occupation number:      1.99994180

  Lowest unoccupied state (CBM) at    -4.69079255 eV
  | Occupation number:      0.00011641

  Overall HOMO-LUMO gap:      0.05567438 eV.

  Total energy components:
  | Sum of eigenvalues            :        -338.29723147 Ha       -9205.53604084 eV
  | XC energy correction          :         -41.92299287 Ha       -1140.78267839 eV
  | XC potential correction       :          54.12827272 Ha        1472.90524131 eV
  | Free-atom electrostatic energy:        -273.18239678 Ha       -7433.67123748 eV
  | Hartree energy correction     :          -0.91081689 Ha         -24.78458853 eV
  | Entropy correction            :          -0.00000013 Ha          -0.00000343 eV
  | ---------------------------
  | Total energy                  :        -600.18516529 Ha      -16331.86930392 eV
  | Total energy, T -> 0          :        -600.18516542 Ha      -16331.86930735 eV  <-- do not rely on this value for anything but (periodic) metals
  | Electronic free energy        :        -600.18516554 Ha      -16331.86931078 eV

  Derived energy quantities:
  | Kinetic energy                :         601.71381273 Ha       16373.46591720 eV
  | Electrostatic energy          :       -1159.97598515 Ha      -31564.55254273 eV
  | Energy correction for multipole
  | error in Hartree potential    :          -0.00061140 Ha          -0.01663696 eV
  | Sum of eigenvalues per atom                           :       -4602.76802042 eV
  | Total energy (T->0) per atom                          :       -8165.93465368 eV  <-- do not rely on this value for anything but (periodic) metals
  | Electronic free energy per atom                       :       -8165.93465539 eV
  Evaluating new KS density.
  Integration grid: deviation in total charge (<rho> - N_e) =  -4.619913E-10

  Self-consistency convergence accuracy:
  | Change of charge density      :  0.3162E-01
  | Change of unmixed KS density  :  0.3934E-05
  | Change of sum of eigenvalues  :  0.1770E-01 eV
  | Change of total energy        :  0.1510E-02 eV


------------------------------------------------------------
  End self-consistency iteration #    34       :  max(cpu_time)    wall_clock(cpu1)
  | Time for this iteration                     :        0.342 s           0.114 s
  | Charge density update                       :        0.001 s           0.001 s
  | Density mixing                              :        0.335 s           0.107 s
  | Hartree multipole update                    :        0.001 s           0.002 s
  | Hartree multipole summation                 :        0.002 s           0.001 s
  | Integration                                 :        0.002 s           0.002 s
  | Solution of K.-S. eqns.                     :        0.001 s           0.001 s
  | Total energy evaluation                     :        0.000 s           0.000 s

  Partial memory accounting:
  | Current value for overall tracked memory usage:
  |   Minimum:        0.355 MB (on task 27)
  |   Maximum:        0.421 MB (on task  3)
  |   Average:        0.378 MB
  | Peak value for overall tracked memory usage:
  |   Minimum:        0.558 MB (on task 27 after allocating gradient_basis_wave)
  |   Maximum:        0.624 MB (on task  3 after allocating gradient_basis_wave)
  |   Average:        0.581 MB
  | Largest tracked array allocation so far:
  |   Minimum:        0.149 MB (gradient_basis_wave on task  0)
  |   Maximum:        0.153 MB (gradient_basis_wave on task  1)
  |   Average:        0.152 MB
  Note:  These values currently only include a subset of arrays which are explicitly tracked.
  The "true" memory usage will be greater.
------------------------------------------------------------

------------------------------------------------------------
          Begin self-consistency iteration #   35

  Date     :  20260724, Time     :  132404.794
------------------------------------------------------------
  SCF convergence analysis is based on: Mixed KS density changes
  Charge density: The charge density seems to be converging.
                  The linear fit of ln(rho_delta) over the last 15 steps has a slope of  -0.0244
  Estimated 184 more steps to reach target accuracy

  Pulay mixing of updated and previous charge densities.
  Available memory per node after mixing [GB]:   1007.37
  Renormalizing the density to the exact electron count on the 3D integration grid.
  | Formal number of electrons (from input files) :      28.0000000000
  | Integrated number of electrons on 3D grid     :      28.0000000001
  | Charge integration error                      :       0.0000000001
  | Normalization factor for density and gradient :       1.0000000000

  Evaluating partitioned Hartree potential by multipole expansion.
  | Original multipole sum: apparent total charge =   0.196782E-14
  | Sum of charges compensated after spline to logarithmic grids =   0.509253E-05
  | Analytical far-field extrapolation by fixed multipoles:
  | Hartree multipole sum: apparent total charge =   0.364047E-14
  Summing up the Hartree potential.
  Time summed over all CPUs for potential: real work        0.001 s, elapsed        0.002 s
  | RMS charge density error from multipole expansion :   0.102489E-02

  Integrating Hamiltonian matrix: batch-based integration.
  Time summed over all CPUs for integration: real work        0.082 s, elapsed        0.096 s

  Updating Kohn-Sham eigenvalues and eigenvectors using ELSI and the ELPA eigensolver.
  Starting ELPA eigensolver
  Finished transformation to standard eigenproblem
  | Time :     0.000 s
  Finished solving standard eigenproblem
  | Time :     0.001 s
  Finished back-transformation of eigenvectors
  | Time :     0.000 s

  Obtaining occupation numbers and electronic chemical potential using ELSI.
  | Note that, for insulating systems, the printed 'chemical potential' value is not uniquely defined.
  | It can be anywhere in the energy gap, as long as it correctly separates occupied and unoccupied states.
  | In systems with a gap, the physically relevant chemical potential is the VBM or HOMO.

  | Chemical potential (Fermi level):    -4.71787959 eV
  Highest occupied state (VBM) at     -4.74597329 eV
  | Occupation number:      1.99992904

  Lowest unoccupied state (CBM) at    -4.69097558 eV
  | Occupation number:      0.00014192

  Overall HOMO-LUMO gap:      0.05499771 eV.

  Total energy components:
  | Sum of eigenvalues            :        -338.29720822 Ha       -9205.53540805 eV
  | XC energy correction          :         -41.92299010 Ha       -1140.78260304 eV
  | XC potential correction       :          54.12826907 Ha        1472.90514199 eV
  | Free-atom electrostatic energy:        -273.18239678 Ha       -7433.67123748 eV
  | Hartree energy correction     :          -0.91083251 Ha         -24.78501362 eV
  | Entropy correction            :          -0.00000015 Ha          -0.00000413 eV
  | ---------------------------
  | Total energy                  :        -600.18515854 Ha      -16331.86912021 eV
  | Total energy, T -> 0          :        -600.18515869 Ha      -16331.86912434 eV  <-- do not rely on this value for anything but (periodic) metals
  | Electronic free energy        :        -600.18515884 Ha      -16331.86912847 eV

  Derived energy quantities:
  | Kinetic energy                :         601.71371343 Ha       16373.46321513 eV
  | Electrostatic energy          :       -1159.97588187 Ha      -31564.54973230 eV
  | Energy correction for multipole
  | error in Hartree potential    :          -0.00061167 Ha          -0.01664449 eV
  | Sum of eigenvalues per atom                           :       -4602.76770402 eV
  | Total energy (T->0) per atom                          :       -8165.93456217 eV  <-- do not rely on this value for anything but (periodic) metals
  | Electronic free energy per atom                       :       -8165.93456424 eV
  Evaluating new KS density.
  Integration grid: deviation in total charge (<rho> - N_e) =   5.195133E-10

  Self-consistency convergence accuracy:
  | Change of charge density      :  0.3103E-01
  | Change of unmixed KS density  :  0.3276E-03
  | Change of sum of eigenvalues  :  0.6328E-03 eV
  | Change of total energy        :  0.1837E-03 eV


------------------------------------------------------------
  End self-consistency iteration #    35       :  max(cpu_time)    wall_clock(cpu1)
  | Time for this iteration                     :        0.265 s           0.145 s
  | Charge density update                       :        0.001 s           0.001 s
  | Density mixing                              :        0.258 s           0.138 s
  | Hartree multipole update                    :        0.001 s           0.001 s
  | Hartree multipole summation                 :        0.002 s           0.002 s
  | Integration                                 :        0.002 s           0.002 s
  | Solution of K.-S. eqns.                     :        0.001 s           0.001 s
  | Total energy evaluation                     :        0.000 s           0.000 s

  Partial memory accounting:
  | Current value for overall tracked memory usage:
  |   Minimum:        0.355 MB (on task 27)
  |   Maximum:        0.421 MB (on task  3)
  |   Average:        0.378 MB
  | Peak value for overall tracked memory usage:
  |   Minimum:        0.558 MB (on task 27 after allocating gradient_basis_wave)
  |   Maximum:        0.624 MB (on task  3 after allocating gradient_basis_wave)
  |   Average:        0.581 MB
  | Largest tracked array allocation so far:
  |   Minimum:        0.149 MB (gradient_basis_wave on task  0)
  |   Maximum:        0.153 MB (gradient_basis_wave on task  1)
  |   Average:        0.152 MB
  Note:  These values currently only include a subset of arrays which are explicitly tracked.
  The "true" memory usage will be greater.
------------------------------------------------------------

------------------------------------------------------------
          Begin self-consistency iteration #   36

  Date     :  20260724, Time     :  132404.959
------------------------------------------------------------
  SCF convergence analysis is based on: Mixed KS density changes
  Charge density: The charge density seems to be converging.
                  The linear fit of ln(rho_delta) over the last 15 steps has a slope of  -0.0265
  Estimated 170 more steps to reach target accuracy

  Pulay mixing of updated and previous charge densities.
  Available memory per node after mixing [GB]:   1007.37
  Renormalizing the density to the exact electron count on the 3D integration grid.
  | Formal number of electrons (from input files) :      28.0000000000
  | Integrated number of electrons on 3D grid     :      28.0000000012
  | Charge integration error                      :       0.0000000012
  | Normalization factor for density and gradient :       1.0000000000

  Evaluating partitioned Hartree potential by multipole expansion.
  | Original multipole sum: apparent total charge =   0.541150E-14
  | Sum of charges compensated after spline to logarithmic grids =   0.510394E-05
  | Analytical far-field extrapolation by fixed multipoles:
  | Hartree multipole sum: apparent total charge =   0.688737E-14
  Summing up the Hartree potential.
  Time summed over all CPUs for potential: real work        0.001 s, elapsed        0.002 s
  | RMS charge density error from multipole expansion :   0.102777E-02

  Integrating Hamiltonian matrix: batch-based integration.
  Time summed over all CPUs for integration: real work        0.075 s, elapsed        0.091 s

  Updating Kohn-Sham eigenvalues and eigenvectors using ELSI and the ELPA eigensolver.
  Starting ELPA eigensolver
  Finished transformation to standard eigenproblem
  | Time :     0.000 s
  Finished solving standard eigenproblem
  | Time :     0.001 s
  Finished back-transformation of eigenvectors
  | Time :     0.000 s

  Obtaining occupation numbers and electronic chemical potential using ELSI.
  | Note that, for insulating systems, the printed 'chemical potential' value is not uniquely defined.
  | It can be anywhere in the energy gap, as long as it correctly separates occupied and unoccupied states.
  | In systems with a gap, the physically relevant chemical potential is the VBM or HOMO.

  | Chemical potential (Fermi level):    -4.71490747 eV
  Highest occupied state (VBM) at     -4.73808707 eV
  | Occupation number:      1.99895488

  Lowest unoccupied state (CBM) at    -4.69314908 eV
  | Occupation number:      0.00209024

  Overall HOMO-LUMO gap:      0.04493799 eV.

  Total energy components:
  | Sum of eigenvalues            :        -338.29600914 Ha       -9205.50277951 eV
  | XC energy correction          :         -41.92302235 Ha       -1140.78348048 eV
  | XC potential correction       :          54.12831186 Ha        1472.90630626 eV
  | Free-atom electrostatic energy:        -273.18239678 Ha       -7433.67123748 eV
  | Hartree energy correction     :          -0.91194114 Ha         -24.81518110 eV
  | Entropy correction            :          -0.00000187 Ha          -0.00005097 eV
  | ---------------------------
  | Total energy                  :        -600.18505756 Ha      -16331.86637232 eV
  | Total energy, T -> 0          :        -600.18505943 Ha      -16331.86642329 eV  <-- do not rely on this value for anything but (periodic) metals
  | Electronic free energy        :        -600.18506130 Ha      -16331.86647427 eV

  Derived energy quantities:
  | Kinetic energy                :         601.71256686 Ha       16373.43201519 eV
  | Electrostatic energy          :       -1159.97460207 Ha      -31564.51490703 eV
  | Energy correction for multipole
  | error in Hartree potential    :          -0.00061534 Ha          -0.01674437 eV
  | Sum of eigenvalues per atom                           :       -4602.75138976 eV
  | Total energy (T->0) per atom                          :       -8165.93321165 eV  <-- do not rely on this value for anything but (periodic) metals
  | Electronic free energy per atom                       :       -8165.93323713 eV
  Evaluating new KS density.
  Integration grid: deviation in total charge (<rho> - N_e) =   7.186927E-10

  Self-consistency convergence accuracy:
  | Change of charge density      :  0.3095E-01
  | Change of unmixed KS density  :  0.3478E-04
  | Change of sum of eigenvalues  :  0.3263E-01 eV
  | Change of total energy        :  0.2748E-02 eV


------------------------------------------------------------
  End self-consistency iteration #    36       :  max(cpu_time)    wall_clock(cpu1)
  | Time for this iteration                     :        0.260 s           0.252 s
  | Charge density update                       :        0.001 s           0.001 s
  | Density mixing                              :        0.253 s           0.245 s
  | Hartree multipole update                    :        0.001 s           0.002 s
  | Hartree multipole summation                 :        0.002 s           0.001 s
  | Integration                                 :        0.002 s           0.002 s
  | Solution of K.-S. eqns.                     :        0.001 s           0.001 s
  | Total energy evaluation                     :        0.000 s           0.000 s

  Partial memory accounting:
  | Current value for overall tracked memory usage:
  |   Minimum:        0.355 MB (on task 27)
  |   Maximum:        0.421 MB (on task  3)
  |   Average:        0.378 MB
  | Peak value for overall tracked memory usage:
  |   Minimum:        0.558 MB (on task 27 after allocating gradient_basis_wave)
  |   Maximum:        0.624 MB (on task  3 after allocating gradient_basis_wave)
  |   Average:        0.581 MB
  | Largest tracked array allocation so far:
  |   Minimum:        0.149 MB (gradient_basis_wave on task  0)
  |   Maximum:        0.153 MB (gradient_basis_wave on task  1)
  |   Average:        0.152 MB
  Note:  These values currently only include a subset of arrays which are explicitly tracked.
  The "true" memory usage will be greater.
------------------------------------------------------------

------------------------------------------------------------
          Begin self-consistency iteration #   37

  Date     :  20260724, Time     :  132405.329
------------------------------------------------------------
  SCF convergence analysis is based on: Mixed KS density changes
  Charge density: The charge density seems to be converging.
                  The linear fit of ln(rho_delta) over the last 15 steps has a slope of  -0.0284
  Estimated 157 more steps to reach target accuracy

  Pulay mixing of updated and previous charge densities.
  Available memory per node after mixing [GB]:   1007.37
  Renormalizing the density to the exact electron count on the 3D integration grid.
  | Formal number of electrons (from input files) :      28.0000000000
  | Integrated number of electrons on 3D grid     :      27.9999999840
  | Charge integration error                      :      -0.0000000160
  | Normalization factor for density and gradient :       1.0000000006

  Evaluating partitioned Hartree potential by multipole expansion.
  | Original multipole sum: apparent total charge =   0.737932E-14
  | Sum of charges compensated after spline to logarithmic grids =   0.511158E-05
  | Analytical far-field extrapolation by fixed multipoles:
  | Hartree multipole sum: apparent total charge =   0.688737E-14
  Summing up the Hartree potential.
  Time summed over all CPUs for potential: real work        0.001 s, elapsed        0.001 s
  | RMS charge density error from multipole expansion :   0.102967E-02

  Integrating Hamiltonian matrix: batch-based integration.
  Time summed over all CPUs for integration: real work        0.075 s, elapsed        0.082 s

  Updating Kohn-Sham eigenvalues and eigenvectors using ELSI and the ELPA eigensolver.
  Starting ELPA eigensolver
  Finished transformation to standard eigenproblem
  | Time :     0.000 s
  Finished solving standard eigenproblem
  | Time :     0.001 s
  Finished back-transformation of eigenvectors
  | Time :     0.000 s

  Obtaining occupation numbers and electronic chemical potential using ELSI.
  | Note that, for insulating systems, the printed 'chemical potential' value is not uniquely defined.
  | It can be anywhere in the energy gap, as long as it correctly separates occupied and unoccupied states.
  | In systems with a gap, the physically relevant chemical potential is the VBM or HOMO.

  | Chemical potential (Fermi level):    -4.71287779 eV
  Highest occupied state (VBM) at     -4.73281097 eV
  | Occupation number:      1.99518230

  Lowest unoccupied state (CBM) at    -4.69457329 eV
  | Occupation number:      0.00963539

  Overall HOMO-LUMO gap:      0.03823767 eV.

  Total energy components:
  | Sum of eigenvalues            :        -338.29509243 Ha       -9205.47783464 eV
  | XC energy correction          :         -41.92305020 Ha       -1140.78423839 eV
  | XC potential correction       :          54.12834863 Ha        1472.90730680 eV
  | Free-atom electrostatic energy:        -273.18239678 Ha       -7433.67123748 eV
  | Hartree energy correction     :          -0.91279332 Ha         -24.83836995 eV
  | Entropy correction            :          -0.00000754 Ha          -0.00020505 eV
  | ---------------------------
  | Total energy                  :        -600.18498411 Ha      -16331.86437365 eV
  | Total energy, T -> 0          :        -600.18499164 Ha      -16331.86457870 eV  <-- do not rely on this value for anything but (periodic) metals
  | Electronic free energy        :        -600.18499918 Ha      -16331.86478375 eV

  Derived energy quantities:
  | Kinetic energy                :         601.71188422 Ha       16373.41343971 eV
  | Electrostatic energy          :       -1159.97381813 Ha      -31564.49357498 eV
  | Energy correction for multipole
  | error in Hartree potential    :          -0.00061781 Ha          -0.01681157 eV
  | Sum of eigenvalues per atom                           :       -4602.73891732 eV
  | Total energy (T->0) per atom                          :       -8165.93228935 eV  <-- do not rely on this value for anything but (periodic) metals
  | Electronic free energy per atom                       :       -8165.93239187 eV
  Evaluating new KS density.
  Integration grid: deviation in total charge (<rho> - N_e) =  -4.370548E-11

  Self-consistency convergence accuracy:
  | Change of charge density      :  0.2969E-01
  | Change of unmixed KS density  :  0.7340E-03
  | Change of sum of eigenvalues  :  0.2494E-01 eV
  | Change of total energy        :  0.1999E-02 eV


------------------------------------------------------------
  End self-consistency iteration #    37       :  max(cpu_time)    wall_clock(cpu1)
  | Time for this iteration                     :        0.263 s           0.157 s
  | Charge density update                       :        0.001 s           0.001 s
  | Density mixing                              :        0.257 s           0.150 s
  | Hartree multipole update                    :        0.001 s           0.001 s
  | Hartree multipole summation                 :        0.002 s           0.002 s
  | Integration                                 :        0.001 s           0.001 s
  | Solution of K.-S. eqns.                     :        0.001 s           0.001 s
  | Total energy evaluation                     :        0.000 s           0.000 s

  Partial memory accounting:
  | Current value for overall tracked memory usage:
  |   Minimum:        0.355 MB (on task 27)
  |   Maximum:        0.421 MB (on task  3)
  |   Average:        0.378 MB
  | Peak value for overall tracked memory usage:
  |   Minimum:        0.558 MB (on task 27 after allocating gradient_basis_wave)
  |   Maximum:        0.624 MB (on task  3 after allocating gradient_basis_wave)
  |   Average:        0.581 MB
  | Largest tracked array allocation so far:
  |   Minimum:        0.149 MB (gradient_basis_wave on task  0)
  |   Maximum:        0.153 MB (gradient_basis_wave on task  1)
  |   Average:        0.152 MB
  Note:  These values currently only include a subset of arrays which are explicitly tracked.
  The "true" memory usage will be greater.
------------------------------------------------------------

------------------------------------------------------------
          Begin self-consistency iteration #   38

  Date     :  20260724, Time     :  132405.572
------------------------------------------------------------
  SCF convergence analysis is based on: Mixed KS density changes
  Charge density: The charge density seems to be converging.
                  The linear fit of ln(rho_delta) over the last 15 steps has a slope of  -0.0239
  Estimated 186 more steps to reach target accuracy

  Pulay mixing of updated and previous charge densities.
  Available memory per node after mixing [GB]:   1007.37
  Renormalizing the density to the exact electron count on the 3D integration grid.
  | Formal number of electrons (from input files) :      28.0000000000
  | Integrated number of electrons on 3D grid     :      27.9999999663
  | Charge integration error                      :      -0.0000000337
  | Normalization factor for density and gradient :       1.0000000012

  Evaluating partitioned Hartree potential by multipole expansion.
  | Original multipole sum: apparent total charge =   0.590346E-15
  | Sum of charges compensated after spline to logarithmic grids =   0.523960E-05
  | Analytical far-field extrapolation by fixed multipoles:
  | Hartree multipole sum: apparent total charge =  -0.167265E-14
  Summing up the Hartree potential.
  Time summed over all CPUs for potential: real work        0.001 s, elapsed        0.002 s
  | RMS charge density error from multipole expansion :   0.106242E-02

  Integrating Hamiltonian matrix: batch-based integration.
  Time summed over all CPUs for integration: real work        0.074 s, elapsed        0.088 s

  Updating Kohn-Sham eigenvalues and eigenvectors using ELSI and the ELPA eigensolver.
  Starting ELPA eigensolver
  Finished transformation to standard eigenproblem
  | Time :     0.000 s
  Finished solving standard eigenproblem
  | Time :     0.001 s
  Finished back-transformation of eigenvectors
  | Time :     0.000 s

  Obtaining occupation numbers and electronic chemical potential using ELSI.
  | Note that, for insulating systems, the printed 'chemical potential' value is not uniquely defined.
  | It can be anywhere in the energy gap, as long as it correctly separates occupied and unoccupied states.
  | In systems with a gap, the physically relevant chemical potential is the VBM or HOMO.

  | Chemical potential (Fermi level):    -4.64485599 eV
  Highest occupied state (VBM) at     -4.64485599 eV
  | Occupation number:      1.00000007

  Lowest unoccupied state (CBM) at    -4.64485599 eV
  | Occupation number:      0.99999993

  This system has fractional occupation numbers. Thus, it is a degenerate system
  within the approximate finite broadening function (occupation_type)
  applied to determine the occupation numbers.
  This may not be harmful. However, for some systems (free atoms), a different, non-degenerate
  ground state might exist by using a smaller broadening (see keyword occupation_type).
  Overall HOMO-LUMO gap:      0.00000000 eV.

  Total energy components:
  | Sum of eigenvalues            :        -338.28677879 Ha       -9205.25160884 eV
  | XC energy correction          :         -41.92357678 Ha       -1140.79856726 eV
  | XC potential correction       :          54.12904037 Ha        1472.92613012 eV
  | Free-atom electrostatic energy:        -273.18239678 Ha       -7433.67123748 eV
  | Hartree energy correction     :          -0.92577055 Ha         -25.19149828 eV
  | Entropy correction            :          -0.00020734 Ha          -0.00564190 eV
  | ---------------------------
  | Total energy                  :        -600.18948252 Ha      -16331.98678174 eV
  | Total energy, T -> 0          :        -600.18968986 Ha      -16331.99242364 eV  <-- do not rely on this value for anything but (periodic) metals
  | Electronic free energy        :        -600.18989719 Ha      -16331.99806553 eV

  Derived energy quantities:
  | Kinetic energy                :         601.69358866 Ha       16372.91559231 eV
  | Electrostatic energy          :       -1159.95949441 Ha      -31564.10380679 eV
  | Energy correction for multipole
  | error in Hartree potential    :          -0.00065875 Ha          -0.01792563 eV
  | Sum of eigenvalues per atom                           :       -4602.62580442 eV
  | Total energy (T->0) per atom                          :       -8165.99621182 eV  <-- do not rely on this value for anything but (periodic) metals
  | Electronic free energy per atom                       :       -8165.99903277 eV
  Evaluating new KS density.
  Integration grid: deviation in total charge (<rho> - N_e) =  -4.993908E-10

  Self-consistency convergence accuracy:
  | Change of charge density      :  0.2812E-01
  | Change of unmixed KS density  :  0.1108E-02
  | Change of sum of eigenvalues  :  0.2262E+00 eV
  | Change of total energy        : -0.1224E+00 eV


------------------------------------------------------------
  End self-consistency iteration #    38       :  max(cpu_time)    wall_clock(cpu1)
  | Time for this iteration                     :        0.265 s           0.191 s
  | Charge density update                       :        0.001 s           0.001 s
  | Density mixing                              :        0.258 s           0.183 s
  | Hartree multipole update                    :        0.001 s           0.001 s
  | Hartree multipole summation                 :        0.002 s           0.002 s
  | Integration                                 :        0.002 s           0.002 s
  | Solution of K.-S. eqns.                     :        0.001 s           0.001 s
  | Total energy evaluation                     :        0.000 s           0.000 s

  Partial memory accounting:
  | Current value for overall tracked memory usage:
  |   Minimum:        0.355 MB (on task 27)
  |   Maximum:        0.421 MB (on task  3)
  |   Average:        0.378 MB
  | Peak value for overall tracked memory usage:
  |   Minimum:        0.558 MB (on task 27 after allocating gradient_basis_wave)
  |   Maximum:        0.624 MB (on task  3 after allocating gradient_basis_wave)
  |   Average:        0.581 MB
  | Largest tracked array allocation so far:
  |   Minimum:        0.149 MB (gradient_basis_wave on task  0)
  |   Maximum:        0.153 MB (gradient_basis_wave on task  1)
  |   Average:        0.152 MB
  Note:  These values currently only include a subset of arrays which are explicitly tracked.
  The "true" memory usage will be greater.
------------------------------------------------------------

------------------------------------------------------------
          Begin self-consistency iteration #   39

  Date     :  20260724, Time     :  132405.790
------------------------------------------------------------
  SCF convergence analysis is based on: Mixed KS density changes
  Charge density: The charge density seems to be converging.
                  The linear fit of ln(rho_delta) over the last 15 steps has a slope of  -0.0058
  Estimated 919 more steps to reach target accuracy

  Pulay mixing of updated and previous charge densities.
  Available memory per node after mixing [GB]:   1007.37
  Renormalizing the density to the exact electron count on the 3D integration grid.
  | Formal number of electrons (from input files) :      28.0000000000
  | Integrated number of electrons on 3D grid     :      28.0000000398
  | Charge integration error                      :       0.0000000398
  | Normalization factor for density and gradient :       0.9999999986

  Evaluating partitioned Hartree potential by multipole expansion.
  | Original multipole sum: apparent total charge =   0.104294E-13
  | Sum of charges compensated after spline to logarithmic grids =   0.510408E-05
  | Analytical far-field extrapolation by fixed multipoles:
  | Hartree multipole sum: apparent total charge =   0.905197E-14
  Summing up the Hartree potential.
  Time summed over all CPUs for potential: real work        0.001 s, elapsed        0.002 s
  | RMS charge density error from multipole expansion :   0.102652E-02

  Integrating Hamiltonian matrix: batch-based integration.
  Time summed over all CPUs for integration: real work        0.076 s, elapsed        0.104 s => Consider using load balancing!

  Updating Kohn-Sham eigenvalues and eigenvectors using ELSI and the ELPA eigensolver.
  Starting ELPA eigensolver
  Finished transformation to standard eigenproblem
  | Time :     0.000 s
  Finished solving standard eigenproblem
  | Time :     0.001 s
  Finished back-transformation of eigenvectors
  | Time :     0.000 s

  Obtaining occupation numbers and electronic chemical potential using ELSI.
  | Note that, for insulating systems, the printed 'chemical potential' value is not uniquely defined.
  | It can be anywhere in the energy gap, as long as it correctly separates occupied and unoccupied states.
  | In systems with a gap, the physically relevant chemical potential is the VBM or HOMO.

  | Chemical potential (Fermi level):    -4.71566905 eV
  Highest occupied state (VBM) at     -4.74094713 eV
  | Occupation number:      1.99964959

  Lowest unoccupied state (CBM) at    -4.69170340 eV
  | Occupation number:      0.00070083

  Overall HOMO-LUMO gap:      0.04924374 eV.

  Total energy components:
  | Sum of eigenvalues            :        -338.29565012 Ha       -9205.49301007 eV
  | XC energy correction          :         -41.92308120 Ha       -1140.78508196 eV
  | XC potential correction       :          54.12838945 Ha        1472.90841771 eV
  | Free-atom electrostatic energy:        -273.18239678 Ha       -7433.67123748 eV
  | Hartree energy correction     :          -0.91236267 Ha         -24.82665133 eV
  | Entropy correction            :          -0.00000068 Ha          -0.00001851 eV
  | ---------------------------
  | Total energy                  :        -600.18510132 Ha      -16331.86756313 eV
  | Total energy, T -> 0          :        -600.18510200 Ha      -16331.86758164 eV  <-- do not rely on this value for anything but (periodic) metals
  | Electronic free energy        :        -600.18510268 Ha      -16331.86760014 eV

  Derived energy quantities:
  | Kinetic energy                :         601.71342591 Ha       16373.45539135 eV
  | Electrostatic energy          :       -1159.97544603 Ha      -31564.53787251 eV
  | Energy correction for multipole
  | error in Hartree potential    :          -0.00061332 Ha          -0.01668931 eV
  | Sum of eigenvalues per atom                           :       -4602.74650504 eV
  | Total energy (T->0) per atom                          :       -8165.93379082 eV  <-- do not rely on this value for anything but (periodic) metals
  | Electronic free energy per atom                       :       -8165.93380007 eV
  Evaluating new KS density.
  Integration grid: deviation in total charge (<rho> - N_e) =  -5.012772E-10

  Self-consistency convergence accuracy:
  | Change of charge density      :  0.2103E+00
  | Change of unmixed KS density  :  0.2299E+00
  | Change of sum of eigenvalues  : -0.2414E+00 eV
  | Change of total energy        :  0.1192E+00 eV


------------------------------------------------------------
  End self-consistency iteration #    39       :  max(cpu_time)    wall_clock(cpu1)
  | Time for this iteration                     :        0.265 s           0.265 s
  | Charge density update                       :        0.001 s           0.001 s
  | Density mixing                              :        0.258 s           0.258 s
  | Hartree multipole update                    :        0.001 s           0.001 s
  | Hartree multipole summation                 :        0.002 s           0.002 s
  | Integration                                 :        0.002 s           0.002 s
  | Solution of K.-S. eqns.                     :        0.001 s           0.001 s
  | Total energy evaluation                     :        0.000 s           0.000 s

  Partial memory accounting:
  | Current value for overall tracked memory usage:
  |   Minimum:        0.355 MB (on task 27)
  |   Maximum:        0.421 MB (on task  3)
  |   Average:        0.378 MB
  | Peak value for overall tracked memory usage:
  |   Minimum:        0.558 MB (on task 27 after allocating gradient_basis_wave)
  |   Maximum:        0.624 MB (on task  3 after allocating gradient_basis_wave)
  |   Average:        0.581 MB
  | Largest tracked array allocation so far:
  |   Minimum:        0.149 MB (gradient_basis_wave on task  0)
  |   Maximum:        0.153 MB (gradient_basis_wave on task  1)
  |   Average:        0.152 MB
  Note:  These values currently only include a subset of arrays which are explicitly tracked.
  The "true" memory usage will be greater.
------------------------------------------------------------

------------------------------------------------------------
          Begin self-consistency iteration #   40

  Date     :  20260724, Time     :  132406.076
------------------------------------------------------------
  SCF convergence analysis is based on: Mixed KS density changes
  Charge density: WARNING - The density does not seem to be converging.
                  The linear fit of ln(rho_delta) over the last 15 steps has a slope of   0.0007

  Pulay mixing of updated and previous charge densities.
  Available memory per node after mixing [GB]:   1007.37
  Renormalizing the density to the exact electron count on the 3D integration grid.
  | Formal number of electrons (from input files) :      28.0000000000
  | Integrated number of electrons on 3D grid     :      28.0000000044
  | Charge integration error                      :       0.0000000044
  | Normalization factor for density and gradient :       0.9999999998

  Evaluating partitioned Hartree potential by multipole expansion.
  | Original multipole sum: apparent total charge =   0.452598E-14
  | Sum of charges compensated after spline to logarithmic grids =   0.511596E-05
  | Analytical far-field extrapolation by fixed multipoles:
  | Hartree multipole sum: apparent total charge =   0.541150E-14
  Summing up the Hartree potential.
  Time summed over all CPUs for potential: real work        0.001 s, elapsed        0.002 s
  | RMS charge density error from multipole expansion :   0.102878E-02

  Integrating Hamiltonian matrix: batch-based integration.
  Time summed over all CPUs for integration: real work        0.074 s, elapsed        0.082 s

  Updating Kohn-Sham eigenvalues and eigenvectors using ELSI and the ELPA eigensolver.
  Starting ELPA eigensolver
  Finished transformation to standard eigenproblem
  | Time :     0.000 s
  Finished solving standard eigenproblem
  | Time :     0.001 s
  Finished back-transformation of eigenvectors
  | Time :     0.000 s

  Obtaining occupation numbers and electronic chemical potential using ELSI.
  | Note that, for insulating systems, the printed 'chemical potential' value is not uniquely defined.
  | It can be anywhere in the energy gap, as long as it correctly separates occupied and unoccupied states.
  | In systems with a gap, the physically relevant chemical potential is the VBM or HOMO.

  | Chemical potential (Fermi level):    -4.71292679 eV
  Highest occupied state (VBM) at     -4.73451191 eV
  | Occupation number:      1.99773130

  Lowest unoccupied state (CBM) at    -4.69285795 eV
  | Occupation number:      0.00453741

  Overall HOMO-LUMO gap:      0.04165396 eV.

  Total energy components:
  | Sum of eigenvalues            :        -338.29399899 Ha       -9205.44808050 eV
  | XC energy correction          :         -41.92315835 Ha       -1140.78718123 eV
  | XC potential correction       :          54.12849173 Ha        1472.91120098 eV
  | Free-atom electrostatic energy:        -273.18239678 Ha       -7433.67123748 eV
  | Hartree energy correction     :          -0.91396069 Ha         -24.87013568 eV
  | Entropy correction            :          -0.00000381 Ha          -0.00010371 eV
  | ---------------------------
  | Total energy                  :        -600.18502307 Ha      -16331.86543390 eV
  | Total energy, T -> 0          :        -600.18502688 Ha      -16331.86553762 eV  <-- do not rely on this value for anything but (periodic) metals
  | Electronic free energy        :        -600.18503069 Ha      -16331.86564133 eV

  Derived energy quantities:
  | Kinetic energy                :         601.71282130 Ha       16373.43893901 eV
  | Electrostatic energy          :       -1159.97468602 Ha      -31564.51719169 eV
  | Energy correction for multipole
  | error in Hartree potential    :          -0.00061579 Ha          -0.01675655 eV
  | Sum of eigenvalues per atom                           :       -4602.72404025 eV
  | Total energy (T->0) per atom                          :       -8165.93276881 eV  <-- do not rely on this value for anything but (periodic) metals
  | Electronic free energy per atom                       :       -8165.93282067 eV
  Evaluating new KS density.
  Integration grid: deviation in total charge (<rho> - N_e) =  -1.535483E-11

  Self-consistency convergence accuracy:
  | Change of charge density      :  0.3036E-01
  | Change of unmixed KS density  :  0.2312E+00
  | Change of sum of eigenvalues  :  0.4493E-01 eV
  | Change of total energy        :  0.2129E-02 eV


------------------------------------------------------------
  End self-consistency iteration #    40       :  max(cpu_time)    wall_clock(cpu1)
  | Time for this iteration                     :        0.264 s           0.255 s
  | Charge density update                       :        0.001 s           0.001 s
  | Density mixing                              :        0.257 s           0.248 s
  | Hartree multipole update                    :        0.001 s           0.001 s
  | Hartree multipole summation                 :        0.002 s           0.002 s
  | Integration                                 :        0.001 s           0.002 s
  | Solution of K.-S. eqns.                     :        0.001 s           0.001 s
  | Total energy evaluation                     :        0.000 s           0.000 s

  Partial memory accounting:
  | Current value for overall tracked memory usage:
  |   Minimum:        0.355 MB (on task 27)
  |   Maximum:        0.421 MB (on task  3)
  |   Average:        0.378 MB
  | Peak value for overall tracked memory usage:
  |   Minimum:        0.558 MB (on task 27 after allocating gradient_basis_wave)
  |   Maximum:        0.624 MB (on task  3 after allocating gradient_basis_wave)
  |   Average:        0.581 MB
  | Largest tracked array allocation so far:
  |   Minimum:        0.149 MB (gradient_basis_wave on task  0)
  |   Maximum:        0.153 MB (gradient_basis_wave on task  1)
  |   Average:        0.152 MB
  Note:  These values currently only include a subset of arrays which are explicitly tracked.
  The "true" memory usage will be greater.
------------------------------------------------------------

------------------------------------------------------------
          Begin self-consistency iteration #   41

  Date     :  20260724, Time     :  132406.399
------------------------------------------------------------
  SCF convergence analysis is based on: Mixed KS density changes
  Charge density: WARNING - The density does not seem to be converging.
                  The linear fit of ln(rho_delta) over the last 15 steps has a slope of   0.0123

  Pulay mixing of updated and previous charge densities.
  Available memory per node after mixing [GB]:   1007.37
  Renormalizing the density to the exact electron count on the 3D integration grid.
  | Formal number of electrons (from input files) :      28.0000000000
  | Integrated number of electrons on 3D grid     :      27.9999999996
  | Charge integration error                      :      -0.0000000004
  | Normalization factor for density and gradient :       1.0000000000

  Evaluating partitioned Hartree potential by multipole expansion.
  | Original multipole sum: apparent total charge =   0.442759E-14
  | Sum of charges compensated after spline to logarithmic grids =   0.512466E-05
  | Analytical far-field extrapolation by fixed multipoles:
  | Hartree multipole sum: apparent total charge =   0.403403E-14
  Summing up the Hartree potential.
  Time summed over all CPUs for potential: real work        0.001 s, elapsed        0.001 s
  | RMS charge density error from multipole expansion :   0.103080E-02

  Integrating Hamiltonian matrix: batch-based integration.
  Time summed over all CPUs for integration: real work        0.074 s, elapsed        0.082 s

  Updating Kohn-Sham eigenvalues and eigenvectors using ELSI and the ELPA eigensolver.
  Starting ELPA eigensolver
  Finished transformation to standard eigenproblem
  | Time :     0.000 s
  Finished solving standard eigenproblem
  | Time :     0.001 s
  Finished back-transformation of eigenvectors
  | Time :     0.000 s

  Obtaining occupation numbers and electronic chemical potential using ELSI.
  | Note that, for insulating systems, the printed 'chemical potential' value is not uniquely defined.
  | It can be anywhere in the energy gap, as long as it correctly separates occupied and unoccupied states.
  | In systems with a gap, the physically relevant chemical potential is the VBM or HOMO.

  | Chemical potential (Fermi level):    -4.71068721 eV
  Highest occupied state (VBM) at     -4.72878624 eV
  | Occupation number:      1.98952044

  Lowest unoccupied state (CBM) at    -4.69436209 eV
  | Occupation number:      0.02095911

  Overall HOMO-LUMO gap:      0.03442415 eV.

  Total energy components:
  | Sum of eigenvalues            :        -338.29303282 Ha       -9205.42178975 eV
  | XC energy correction          :         -41.92318579 Ha       -1140.78792787 eV
  | XC potential correction       :          54.12852805 Ha        1472.91218915 eV
  | Free-atom electrostatic energy:        -273.18239678 Ha       -7433.67123748 eV
  | Hartree energy correction     :          -0.91484860 Ha         -24.89429699 eV
  | Entropy correction            :          -0.00001505 Ha          -0.00040952 eV
  | ---------------------------
  | Total energy                  :        -600.18493594 Ha      -16331.86306295 eV
  | Total energy, T -> 0          :        -600.18495099 Ha      -16331.86347247 eV  <-- do not rely on this value for anything but (periodic) metals
  | Electronic free energy        :        -600.18496604 Ha      -16331.86388198 eV

  Derived energy quantities:
  | Kinetic energy                :         601.71203051 Ha       16373.41742040 eV
  | Electrostatic energy          :       -1159.97378066 Ha      -31564.49255547 eV
  | Energy correction for multipole
  | error in Hartree potential    :          -0.00061844 Ha          -0.01682862 eV
  | Sum of eigenvalues per atom                           :       -4602.71089488 eV
  | Total energy (T->0) per atom                          :       -8165.93173623 eV  <-- do not rely on this value for anything but (periodic) metals
  | Electronic free energy per atom                       :       -8165.93194099 eV
  Evaluating new KS density.
  Integration grid: deviation in total charge (<rho> - N_e) =  -7.819523E-10

  Self-consistency convergence accuracy:
  | Change of charge density      :  0.2921E-01
  | Change of unmixed KS density  :  0.8483E-03
  | Change of sum of eigenvalues  :  0.2629E-01 eV
  | Change of total energy        :  0.2371E-02 eV


------------------------------------------------------------
  End self-consistency iteration #    41       :  max(cpu_time)    wall_clock(cpu1)
  | Time for this iteration                     :        0.323 s           0.265 s
  | Charge density update                       :        0.001 s           0.001 s
  | Density mixing                              :        0.316 s           0.258 s
  | Hartree multipole update                    :        0.001 s           0.001 s
  | Hartree multipole summation                 :        0.002 s           0.002 s
  | Integration                                 :        0.001 s           0.002 s
  | Solution of K.-S. eqns.                     :        0.001 s           0.001 s
  | Total energy evaluation                     :        0.000 s           0.000 s

  Partial memory accounting:
  | Current value for overall tracked memory usage:
  |   Minimum:        0.355 MB (on task 27)
  |   Maximum:        0.421 MB (on task  3)
  |   Average:        0.378 MB
  | Peak value for overall tracked memory usage:
  |   Minimum:        0.558 MB (on task 27 after allocating gradient_basis_wave)
  |   Maximum:        0.624 MB (on task  3 after allocating gradient_basis_wave)
  |   Average:        0.581 MB
  | Largest tracked array allocation so far:
  |   Minimum:        0.149 MB (gradient_basis_wave on task  0)
  |   Maximum:        0.153 MB (gradient_basis_wave on task  1)
  |   Average:        0.152 MB
  Note:  These values currently only include a subset of arrays which are explicitly tracked.
  The "true" memory usage will be greater.
------------------------------------------------------------

------------------------------------------------------------
          Begin self-consistency iteration #   42

  Date     :  20260724, Time     :  132406.696
------------------------------------------------------------
  SCF convergence analysis is based on: Mixed KS density changes
  Charge density: WARNING - The density does not seem to be converging.
                  The linear fit of ln(rho_delta) over the last 15 steps has a slope of   0.0052

  Pulay mixing of updated and previous charge densities.
  Available memory per node after mixing [GB]:   1007.37
  Renormalizing the density to the exact electron count on the 3D integration grid.
  | Formal number of electrons (from input files) :      28.0000000000
  | Integrated number of electrons on 3D grid     :      27.9999999837
  | Charge integration error                      :      -0.0000000163
  | Normalization factor for density and gradient :       1.0000000006

  Evaluating partitioned Hartree potential by multipole expansion.
  | Original multipole sum: apparent total charge =   0.560828E-14
  | Sum of charges compensated after spline to logarithmic grids =   0.516586E-05
  | Analytical far-field extrapolation by fixed multipoles:
  | Hartree multipole sum: apparent total charge =   0.452598E-14
  Summing up the Hartree potential.
  Time summed over all CPUs for potential: real work        0.001 s, elapsed        0.001 s
  | RMS charge density error from multipole expansion :   0.104146E-02

  Integrating Hamiltonian matrix: batch-based integration.
  Time summed over all CPUs for integration: real work        0.074 s, elapsed        0.082 s

  Updating Kohn-Sham eigenvalues and eigenvectors using ELSI and the ELPA eigensolver.
  Starting ELPA eigensolver
  Finished transformation to standard eigenproblem
  | Time :     0.000 s
  Finished solving standard eigenproblem
  | Time :     0.001 s
  Finished back-transformation of eigenvectors
  | Time :     0.000 s

  Obtaining occupation numbers and electronic chemical potential using ELSI.
  | Note that, for insulating systems, the printed 'chemical potential' value is not uniquely defined.
  | It can be anywhere in the energy gap, as long as it correctly separates occupied and unoccupied states.
  | In systems with a gap, the physically relevant chemical potential is the VBM or HOMO.

  | Chemical potential (Fermi level):    -4.69740797 eV
  Highest occupied state (VBM) at     -4.69950598 eV
  | Occupation number:      1.23330684

  Lowest unoccupied state (CBM) at    -1.49266958 eV
  | Occupation number:      0.00000000

  This system has fractional occupation numbers. Thus, it is a degenerate system
  within the approximate finite broadening function (occupation_type)
  applied to determine the occupation numbers.
  This may not be harmful. However, for some systems (free atoms), a different, non-degenerate
  ground state might exist by using a smaller broadening (see keyword occupation_type).
  Overall HOMO-LUMO gap:      0.00000000 eV.

  Total energy components:
  | Sum of eigenvalues            :        -338.28910763 Ha       -9205.31497988 eV
  | XC energy correction          :         -41.92329176 Ha       -1140.79081163 eV
  | XC potential correction       :          54.12866752 Ha        1472.91598448 eV
  | Free-atom electrostatic energy:        -273.18239678 Ha       -7433.67123748 eV
  | Hartree energy correction     :          -0.91868257 Ha         -24.99862460 eV
  | Entropy correction            :          -0.00027794 Ha          -0.00756321 eV
  | ---------------------------
  | Total energy                  :        -600.18481122 Ha      -16331.85966911 eV
  | Total energy, T -> 0          :        -600.18508916 Ha      -16331.86723232 eV  <-- do not rely on this value for anything but (periodic) metals
  | Electronic free energy        :        -600.18536710 Ha      -16331.87479554 eV

  Derived energy quantities:
  | Kinetic energy                :         601.70731962 Ha       16373.28923068 eV
  | Electrostatic energy          :       -1159.96883908 Ha      -31564.35808817 eV
  | Energy correction for multipole
  | error in Hartree potential    :          -0.00063256 Ha          -0.01721290 eV
  | Sum of eigenvalues per atom                           :       -4602.65748994 eV
  | Total energy (T->0) per atom                          :       -8165.93361616 eV  <-- do not rely on this value for anything but (periodic) metals
  | Electronic free energy per atom                       :       -8165.93739777 eV
  Evaluating new KS density.
  Integration grid: deviation in total charge (<rho> - N_e) =  -5.115623E-10

  Self-consistency convergence accuracy:
  | Change of charge density      :  0.2658E-01
  | Change of unmixed KS density  :  0.2120E-02
  | Change of sum of eigenvalues  :  0.1068E+00 eV
  | Change of total energy        :  0.3394E-02 eV


------------------------------------------------------------
  End self-consistency iteration #    42       :  max(cpu_time)    wall_clock(cpu1)
  | Time for this iteration                     :        0.300 s           0.278 s
  | Charge density update                       :        0.001 s           0.001 s
  | Density mixing                              :        0.293 s           0.271 s
  | Hartree multipole update                    :        0.001 s           0.001 s
  | Hartree multipole summation                 :        0.002 s           0.002 s
  | Integration                                 :        0.001 s           0.002 s
  | Solution of K.-S. eqns.                     :        0.001 s           0.001 s
  | Total energy evaluation                     :        0.000 s           0.000 s

  Partial memory accounting:
  | Current value for overall tracked memory usage:
  |   Minimum:        0.355 MB (on task 27)
  |   Maximum:        0.421 MB (on task  3)
  |   Average:        0.378 MB
  | Peak value for overall tracked memory usage:
  |   Minimum:        0.558 MB (on task 27 after allocating gradient_basis_wave)
  |   Maximum:        0.624 MB (on task  3 after allocating gradient_basis_wave)
  |   Average:        0.581 MB
  | Largest tracked array allocation so far:
  |   Minimum:        0.149 MB (gradient_basis_wave on task  0)
  |   Maximum:        0.153 MB (gradient_basis_wave on task  1)
  |   Average:        0.152 MB
  Note:  These values currently only include a subset of arrays which are explicitly tracked.
  The "true" memory usage will be greater.
------------------------------------------------------------

------------------------------------------------------------
          Begin self-consistency iteration #   43

  Date     :  20260724, Time     :  132406.987
------------------------------------------------------------
  SCF convergence analysis is based on: Mixed KS density changes

  ** WARNING: SCF cycle seems to have stalled.
  ** There has been no decrease in the density change for more than 15 consecutive SCF steps.
  ** The charge density change did not decrease below  1.394E-02 for 15 steps

  Charge density: WARNING - The density does not seem to be converging.
                  The linear fit of ln(rho_delta) over the last 15 steps has a slope of   0.0084

  Pulay mixing of updated and previous charge densities.
  Available memory per node after mixing [GB]:   1007.37
  Renormalizing the density to the exact electron count on the 3D integration grid.
  | Formal number of electrons (from input files) :      28.0000000000
  | Integrated number of electrons on 3D grid     :      28.0000000013
  | Charge integration error                      :       0.0000000013
  | Normalization factor for density and gradient :       1.0000000000

  Evaluating partitioned Hartree potential by multipole expansion.
  | Original multipole sum: apparent total charge =   0.737932E-14
  | Sum of charges compensated after spline to logarithmic grids =   0.515231E-05
  | Analytical far-field extrapolation by fixed multipoles:
  | Hartree multipole sum: apparent total charge =   0.737932E-14
  Summing up the Hartree potential.
  Time summed over all CPUs for potential: real work        0.001 s, elapsed        0.002 s
  | RMS charge density error from multipole expansion :   0.103851E-02

  Integrating Hamiltonian matrix: batch-based integration.
  Time summed over all CPUs for integration: real work        0.074 s, elapsed        0.090 s

  Updating Kohn-Sham eigenvalues and eigenvectors using ELSI and the ELPA eigensolver.
  Starting ELPA eigensolver
  Finished transformation to standard eigenproblem
  | Time :     0.000 s
  Finished solving standard eigenproblem
  | Time :     0.001 s
  Finished back-transformation of eigenvectors
  | Time :     0.000 s

  Obtaining occupation numbers and electronic chemical potential using ELSI.
  | Note that, for insulating systems, the printed 'chemical potential' value is not uniquely defined.
  | It can be anywhere in the energy gap, as long as it correctly separates occupied and unoccupied states.
  | In systems with a gap, the physically relevant chemical potential is the VBM or HOMO.

  | Chemical potential (Fermi level):    -4.70206989 eV
  Highest occupied state (VBM) at     -4.70779506 eV
  | Occupation number:      1.58186512

  Lowest unoccupied state (CBM) at    -4.70060853 eV
  | Occupation number:      0.83626967

  This system has fractional occupation numbers. Thus, it is a degenerate system
  within the approximate finite broadening function (occupation_type)
  applied to determine the occupation numbers.
  This may not be harmful. However, for some systems (free atoms), a different, non-degenerate
  ground state might exist by using a smaller broadening (see keyword occupation_type).
  Overall HOMO-LUMO gap:      0.00000000 eV.

  Total energy components:
  | Sum of eigenvalues            :        -338.29025573 Ha       -9205.34622130 eV
  | XC energy correction          :         -41.92322849 Ha       -1140.78908984 eV
  | XC potential correction       :          54.12858409 Ha        1472.91371419 eV
  | Free-atom electrostatic energy:        -273.18239678 Ha       -7433.67123748 eV
  | Hartree energy correction     :          -0.91720525 Ha         -24.95842465 eV
  | Entropy correction            :          -0.00025087 Ha          -0.00682647 eV
  | ---------------------------
  | Total energy                  :        -600.18450216 Ha      -16331.85125909 eV
  | Total energy, T -> 0          :        -600.18475302 Ha      -16331.85808556 eV  <-- do not rely on this value for anything but (periodic) metals
  | Electronic free energy        :        -600.18500389 Ha      -16331.86491203 eV

  Derived energy quantities:
  | Kinetic energy                :         601.70880872 Ha       16373.32975110 eV
  | Electrostatic energy          :       -1159.97008239 Ha      -31564.39192035 eV
  | Energy correction for multipole
  | error in Hartree potential    :          -0.00062889 Ha          -0.01711305 eV
  | Sum of eigenvalues per atom                           :       -4602.67311065 eV
  | Total energy (T->0) per atom                          :       -8165.92904278 eV  <-- do not rely on this value for anything but (periodic) metals
  | Electronic free energy per atom                       :       -8165.93245601 eV
  Evaluating new KS density.
  Integration grid: deviation in total charge (<rho> - N_e) =  -9.779768E-10

  Self-consistency convergence accuracy:
  | Change of charge density      :  0.1501E+00
  | Change of unmixed KS density  :  0.1738E+00
  | Change of sum of eigenvalues  : -0.3124E-01 eV
  | Change of total energy        :  0.8410E-02 eV


------------------------------------------------------------
  End self-consistency iteration #    43       :  max(cpu_time)    wall_clock(cpu1)
  | Time for this iteration                     :        0.263 s           0.261 s
  | Charge density update                       :        0.001 s           0.001 s
  | Density mixing                              :        0.256 s           0.255 s
  | Hartree multipole update                    :        0.001 s           0.001 s
  | Hartree multipole summation                 :        0.002 s           0.002 s
  | Integration                                 :        0.002 s           0.001 s
  | Solution of K.-S. eqns.                     :        0.001 s           0.001 s
  | Total energy evaluation                     :        0.000 s           0.000 s

  Partial memory accounting:
  | Current value for overall tracked memory usage:
  |   Minimum:        0.355 MB (on task 27)
  |   Maximum:        0.421 MB (on task  3)
  |   Average:        0.378 MB
  | Peak value for overall tracked memory usage:
  |   Minimum:        0.558 MB (on task 27 after allocating gradient_basis_wave)
  |   Maximum:        0.624 MB (on task  3 after allocating gradient_basis_wave)
  |   Average:        0.581 MB
  | Largest tracked array allocation so far:
  |   Minimum:        0.149 MB (gradient_basis_wave on task  0)
  |   Maximum:        0.153 MB (gradient_basis_wave on task  1)
  |   Average:        0.152 MB
  Note:  These values currently only include a subset of arrays which are explicitly tracked.
  The "true" memory usage will be greater.
------------------------------------------------------------

------------------------------------------------------------
          Begin self-consistency iteration #   44

  Date     :  20260724, Time     :  132407.260
------------------------------------------------------------
  SCF convergence analysis is based on: Mixed KS density changes

  ** WARNING: SCF cycle seems to have stalled.
  ** There has been no decrease in the density change for more than 15 consecutive SCF steps.
  ** The charge density change did not decrease below  1.394E-02 for 16 steps

  Charge density: WARNING - The density does not seem to be converging.
                  The linear fit of ln(rho_delta) over the last 15 steps has a slope of   0.0222

  Pulay mixing of updated and previous charge densities.
  Available memory per node after mixing [GB]:   1007.37
  Renormalizing the density to the exact electron count on the 3D integration grid.
  | Formal number of electrons (from input files) :      28.0000000000
  | Integrated number of electrons on 3D grid     :      27.9999999994
  | Charge integration error                      :      -0.0000000006
  | Normalization factor for density and gradient :       1.0000000000

  Evaluating partitioned Hartree potential by multipole expansion.
  | Original multipole sum: apparent total charge =  -0.245977E-14
  | Sum of charges compensated after spline to logarithmic grids =   0.513517E-05
  | Analytical far-field extrapolation by fixed multipoles:
  | Hartree multipole sum: apparent total charge =  -0.373886E-14
  Summing up the Hartree potential.
  Time summed over all CPUs for potential: real work        0.001 s, elapsed        0.001 s
  | RMS charge density error from multipole expansion :   0.103457E-02

  Integrating Hamiltonian matrix: batch-based integration.
  Time summed over all CPUs for integration: real work        0.074 s, elapsed        0.083 s

  Updating Kohn-Sham eigenvalues and eigenvectors using ELSI and the ELPA eigensolver.
  Starting ELPA eigensolver
  Finished transformation to standard eigenproblem
  | Time :     0.000 s
  Finished solving standard eigenproblem
  | Time :     0.000 s
  Finished back-transformation of eigenvectors
  | Time :     0.000 s

  Obtaining occupation numbers and electronic chemical potential using ELSI.
  | Note that, for insulating systems, the printed 'chemical potential' value is not uniquely defined.
  | It can be anywhere in the energy gap, as long as it correctly separates occupied and unoccupied states.
  | In systems with a gap, the physically relevant chemical potential is the VBM or HOMO.

  | Chemical potential (Fermi level):    -4.70702934 eV
  Highest occupied state (VBM) at     -4.71867193 eV
  | Occupation number:      1.90034133

  Lowest unoccupied state (CBM) at    -4.69795363 eV
  | Occupation number:      0.19931727

  This system has fractional occupation numbers. Thus, it is a degenerate system
  within the approximate finite broadening function (occupation_type)
  applied to determine the occupation numbers.
  This may not be harmful. However, for some systems (free atoms), a different, non-degenerate
  ground state might exist by using a smaller broadening (see keyword occupation_type).
  Overall HOMO-LUMO gap:      0.00000000 eV.

  Total energy components:
  | Sum of eigenvalues            :        -338.29224889 Ha       -9205.40045792 eV
  | XC energy correction          :         -41.92315556 Ha       -1140.78710539 eV
  | XC potential correction       :          54.12848780 Ha        1472.91109389 eV
  | Free-atom electrostatic energy:        -273.18239678 Ha       -7433.67123748 eV
  | Hartree energy correction     :          -0.91537366 Ha         -24.90858474 eV
  | Entropy correction            :          -0.00009895 Ha          -0.00269245 eV
  | ---------------------------
  | Total energy                  :        -600.18468710 Ha      -16331.85629164 eV
  | Total energy, T -> 0          :        -600.18478604 Ha      -16331.85898409 eV  <-- do not rely on this value for anything but (periodic) metals
  | Electronic free energy        :        -600.18488499 Ha      -16331.86167654 eV

  Derived energy quantities:
  | Kinetic energy                :         601.71022261 Ha       16373.36822503 eV
  | Electrostatic energy          :       -1159.97175415 Ha      -31564.43741128 eV
  | Energy correction for multipole
  | error in Hartree potential    :          -0.00062401 Ha          -0.01698028 eV
  | Sum of eigenvalues per atom                           :       -4602.70022896 eV
  | Total energy (T->0) per atom                          :       -8165.92949204 eV  <-- do not rely on this value for anything but (periodic) metals
  | Electronic free energy per atom                       :       -8165.93083827 eV
  Evaluating new KS density.
  Integration grid: deviation in total charge (<rho> - N_e) =  -2.112230E-10

  Self-consistency convergence accuracy:
  | Change of charge density      :  0.6948E-01
  | Change of unmixed KS density  :  0.7986E-01
  | Change of sum of eigenvalues  : -0.5424E-01 eV
  | Change of total energy        : -0.5033E-02 eV


------------------------------------------------------------
  End self-consistency iteration #    44       :  max(cpu_time)    wall_clock(cpu1)
  | Time for this iteration                     :        0.263 s           0.264 s
  | Charge density update                       :        0.001 s           0.001 s
  | Density mixing                              :        0.257 s           0.256 s
  | Hartree multipole update                    :        0.001 s           0.001 s
  | Hartree multipole summation                 :        0.002 s           0.002 s
  | Integration                                 :        0.001 s           0.002 s
  | Solution of K.-S. eqns.                     :        0.001 s           0.001 s
  | Total energy evaluation                     :        0.000 s           0.000 s

  Partial memory accounting:
  | Current value for overall tracked memory usage:
  |   Minimum:        0.355 MB (on task 27)
  |   Maximum:        0.421 MB (on task  3)
  |   Average:        0.378 MB
  | Peak value for overall tracked memory usage:
  |   Minimum:        0.558 MB (on task 27 after allocating gradient_basis_wave)
  |   Maximum:        0.624 MB (on task  3 after allocating gradient_basis_wave)
  |   Average:        0.581 MB
  | Largest tracked array allocation so far:
  |   Minimum:        0.149 MB (gradient_basis_wave on task  0)
  |   Maximum:        0.153 MB (gradient_basis_wave on task  1)
  |   Average:        0.152 MB
  Note:  These values currently only include a subset of arrays which are explicitly tracked.
  The "true" memory usage will be greater.
------------------------------------------------------------

------------------------------------------------------------
          Begin self-consistency iteration #   45

  Date     :  20260724, Time     :  132407.586
------------------------------------------------------------
  SCF convergence analysis is based on: Mixed KS density changes
  Charge density: WARNING - The density does not seem to be converging.
                  The linear fit of ln(rho_delta) over the last 15 steps has a slope of   0.0089

  Pulay mixing of updated and previous charge densities.
  Available memory per node after mixing [GB]:   1007.37
  Renormalizing the density to the exact electron count on the 3D integration grid.
  | Formal number of electrons (from input files) :      28.0000000000
  | Integrated number of electrons on 3D grid     :      27.9999999959
  | Charge integration error                      :      -0.0000000041
  | Normalization factor for density and gradient :       1.0000000001

  Evaluating partitioned Hartree potential by multipole expansion.
  | Original multipole sum: apparent total charge =   0.102327E-13
  | Sum of charges compensated after spline to logarithmic grids =   0.514027E-05
  | Analytical far-field extrapolation by fixed multipoles:
  | Hartree multipole sum: apparent total charge =   0.102327E-13
  Summing up the Hartree potential.
  Time summed over all CPUs for potential: real work        0.001 s, elapsed        0.001 s
  | RMS charge density error from multipole expansion :   0.103646E-02

  Integrating Hamiltonian matrix: batch-based integration.
  Time summed over all CPUs for integration: real work        0.075 s, elapsed        0.082 s

  Updating Kohn-Sham eigenvalues and eigenvectors using ELSI and the ELPA eigensolver.
  Starting ELPA eigensolver
  Finished transformation to standard eigenproblem
  | Time :     0.000 s
  Finished solving standard eigenproblem
  | Time :     0.001 s
  Finished back-transformation of eigenvectors
  | Time :     0.000 s

  Obtaining occupation numbers and electronic chemical potential using ELSI.
  | Note that, for insulating systems, the printed 'chemical potential' value is not uniquely defined.
  | It can be anywhere in the energy gap, as long as it correctly separates occupied and unoccupied states.
  | In systems with a gap, the physically relevant chemical potential is the VBM or HOMO.

  | Chemical potential (Fermi level):    -4.70508677 eV
  Highest occupied state (VBM) at     -4.71393233 eV
  | Occupation number:      1.78904750

  Lowest unoccupied state (CBM) at    -4.69940785 eV
  | Occupation number:      0.42190449

  This system has fractional occupation numbers. Thus, it is a degenerate system
  within the approximate finite broadening function (occupation_type)
  applied to determine the occupation numbers.
  This may not be harmful. However, for some systems (free atoms), a different, non-degenerate
  ground state might exist by using a smaller broadening (see keyword occupation_type).
  Overall HOMO-LUMO gap:      0.00000000 eV.

  Total energy components:
  | Sum of eigenvalues            :        -338.29164410 Ha       -9205.38400075 eV
  | XC energy correction          :         -41.92316375 Ha       -1140.78732819 eV
  | XC potential correction       :          54.12849864 Ha        1472.91138896 eV
  | Free-atom electrostatic energy:        -273.18239678 Ha       -7433.67123748 eV
  | Hartree energy correction     :          -0.91585389 Ha         -24.92165239 eV
  | Entropy correction            :          -0.00016990 Ha          -0.00462329 eV
  | ---------------------------
  | Total energy                  :        -600.18455988 Ha      -16331.85282985 eV
  | Total energy, T -> 0          :        -600.18472978 Ha      -16331.85745314 eV  <-- do not rely on this value for anything but (periodic) metals
  | Electronic free energy        :        -600.18489969 Ha      -16331.86207643 eV

  Derived energy quantities:
  | Kinetic energy                :         601.70951828 Ha       16373.34905925 eV
  | Electrostatic energy          :       -1159.97091441 Ha      -31564.41456092 eV
  | Energy correction for multipole
  | error in Hartree potential    :          -0.00062638 Ha          -0.01704462 eV
  | Sum of eigenvalues per atom                           :       -4602.69200037 eV
  | Total energy (T->0) per atom                          :       -8165.92872657 eV  <-- do not rely on this value for anything but (periodic) metals
  | Electronic free energy per atom                       :       -8165.93103821 eV
  Evaluating new KS density.
  Integration grid: deviation in total charge (<rho> - N_e) =   3.683560E-10

  Self-consistency convergence accuracy:
  | Change of charge density      :  0.4657E-02
  | Change of unmixed KS density  :  0.7314E-01
  | Change of sum of eigenvalues  :  0.1646E-01 eV
  | Change of total energy        :  0.3462E-02 eV


------------------------------------------------------------
  End self-consistency iteration #    45       :  max(cpu_time)    wall_clock(cpu1)
  | Time for this iteration                     :        0.264 s           0.214 s
  | Charge density update                       :        0.001 s           0.002 s
  | Density mixing                              :        0.257 s           0.207 s
  | Hartree multipole update                    :        0.001 s           0.001 s
  | Hartree multipole summation                 :        0.002 s           0.002 s
  | Integration                                 :        0.001 s           0.001 s
  | Solution of K.-S. eqns.                     :        0.001 s           0.001 s
  | Total energy evaluation                     :        0.000 s           0.000 s

  Partial memory accounting:
  | Current value for overall tracked memory usage:
  |   Minimum:        0.355 MB (on task 27)
  |   Maximum:        0.421 MB (on task  3)
  |   Average:        0.378 MB
  | Peak value for overall tracked memory usage:
  |   Minimum:        0.558 MB (on task 27 after allocating gradient_basis_wave)
  |   Maximum:        0.624 MB (on task  3 after allocating gradient_basis_wave)
  |   Average:        0.581 MB
  | Largest tracked array allocation so far:
  |   Minimum:        0.149 MB (gradient_basis_wave on task  0)
  |   Maximum:        0.153 MB (gradient_basis_wave on task  1)
  |   Average:        0.152 MB
  Note:  These values currently only include a subset of arrays which are explicitly tracked.
  The "true" memory usage will be greater.
------------------------------------------------------------

------------------------------------------------------------
          Begin self-consistency iteration #   46

  Date     :  20260724, Time     :  132407.813
------------------------------------------------------------
  SCF convergence analysis is based on: Mixed KS density changes
  Charge density: The charge density seems to be converging.
                  The linear fit of ln(rho_delta) over the last 15 steps has a slope of  -0.0021
  Estimated 2027 more steps to reach target accuracy

  Pulay mixing of updated and previous charge densities.
  Available memory per node after mixing [GB]:   1007.37
  Renormalizing the density to the exact electron count on the 3D integration grid.
  | Formal number of electrons (from input files) :      28.0000000000
  | Integrated number of electrons on 3D grid     :      28.0000000003
  | Charge integration error                      :       0.0000000003
  | Normalization factor for density and gradient :       1.0000000000

  Evaluating partitioned Hartree potential by multipole expansion.
  | Original multipole sum: apparent total charge =   0.619863E-14
  | Sum of charges compensated after spline to logarithmic grids =   0.513788E-05
  | Analytical far-field extrapolation by fixed multipoles:
  | Hartree multipole sum: apparent total charge =   0.452598E-14
  Summing up the Hartree potential.
  Time summed over all CPUs for potential: real work        0.001 s, elapsed        0.001 s
  | RMS charge density error from multipole expansion :   0.103621E-02

  Integrating Hamiltonian matrix: batch-based integration.
  Time summed over all CPUs for integration: real work        0.075 s, elapsed        0.086 s

  Updating Kohn-Sham eigenvalues and eigenvectors using ELSI and the ELPA eigensolver.
  Starting ELPA eigensolver
  Finished transformation to standard eigenproblem
  | Time :     0.000 s
  Finished solving standard eigenproblem
  | Time :     0.000 s
  Finished back-transformation of eigenvectors
  | Time :     0.000 s

  Obtaining occupation numbers and electronic chemical potential using ELSI.
  | Note that, for insulating systems, the printed 'chemical potential' value is not uniquely defined.
  | It can be anywhere in the energy gap, as long as it correctly separates occupied and unoccupied states.
  | In systems with a gap, the physically relevant chemical potential is the VBM or HOMO.

  | Chemical potential (Fermi level):    -4.70553394 eV
  Highest occupied state (VBM) at     -4.71480838 eV
  | Occupation number:      1.81034605

  Lowest unoccupied state (CBM) at    -4.69931723 eV
  | Occupation number:      0.37930605

  This system has fractional occupation numbers. Thus, it is a degenerate system
  within the approximate finite broadening function (occupation_type)
  applied to determine the occupation numbers.
  This may not be harmful. However, for some systems (free atoms), a different, non-degenerate
  ground state might exist by using a smaller broadening (see keyword occupation_type).
  Overall HOMO-LUMO gap:      0.00000000 eV.

  Total energy components:
  | Sum of eigenvalues            :        -338.29194994 Ha       -9205.39232320 eV
  | XC energy correction          :         -41.92314798 Ha       -1140.78689902 eV
  | XC potential correction       :          54.12847783 Ha        1472.91082265 eV
  | Free-atom electrostatic energy:        -273.18239678 Ha       -7433.67123748 eV
  | Hartree energy correction     :          -0.91556058 Ha         -24.91367087 eV
  | Entropy correction            :          -0.00015816 Ha          -0.00430375 eV
  | ---------------------------
  | Total energy                  :        -600.18457745 Ha      -16331.85330792 eV
  | Total energy, T -> 0          :        -600.18473561 Ha      -16331.85761167 eV  <-- do not rely on this value for anything but (periodic) metals
  | Electronic free energy        :        -600.18489377 Ha      -16331.86191542 eV

  Derived energy quantities:
  | Kinetic energy                :         601.70956338 Ha       16373.35028643 eV
  | Electrostatic energy          :       -1159.97099285 Ha      -31564.41669532 eV
  | Energy correction for multipole
  | error in Hartree potential    :          -0.00062608 Ha          -0.01703639 eV
  | Sum of eigenvalues per atom                           :       -4602.69616160 eV
  | Total energy (T->0) per atom                          :       -8165.92880584 eV  <-- do not rely on this value for anything but (periodic) metals
  | Electronic free energy per atom                       :       -8165.93095771 eV
  Evaluating new KS density.
  Integration grid: deviation in total charge (<rho> - N_e) =  -7.379057E-10

  Self-consistency convergence accuracy:
  | Change of charge density      :  0.2144E-01
  | Change of unmixed KS density  :  0.2560E-01
  | Change of sum of eigenvalues  : -0.8322E-02 eV
  | Change of total energy        : -0.4781E-03 eV


------------------------------------------------------------
  End self-consistency iteration #    46       :  max(cpu_time)    wall_clock(cpu1)
  | Time for this iteration                     :        0.264 s           0.264 s
  | Charge density update                       :        0.001 s           0.001 s
  | Density mixing                              :        0.257 s           0.257 s
  | Hartree multipole update                    :        0.001 s           0.001 s
  | Hartree multipole summation                 :        0.002 s           0.002 s
  | Integration                                 :        0.001 s           0.001 s
  | Solution of K.-S. eqns.                     :        0.001 s           0.002 s
  | Total energy evaluation                     :        0.000 s           0.000 s

  Partial memory accounting:
  | Current value for overall tracked memory usage:
  |   Minimum:        0.355 MB (on task 27)
  |   Maximum:        0.421 MB (on task  3)
  |   Average:        0.378 MB
  | Peak value for overall tracked memory usage:
  |   Minimum:        0.558 MB (on task 27 after allocating gradient_basis_wave)
  |   Maximum:        0.624 MB (on task  3 after allocating gradient_basis_wave)
  |   Average:        0.581 MB
  | Largest tracked array allocation so far:
  |   Minimum:        0.149 MB (gradient_basis_wave on task  0)
  |   Maximum:        0.153 MB (gradient_basis_wave on task  1)
  |   Average:        0.152 MB
  Note:  These values currently only include a subset of arrays which are explicitly tracked.
  The "true" memory usage will be greater.
------------------------------------------------------------

------------------------------------------------------------
          Begin self-consistency iteration #   47

  Date     :  20260724, Time     :  132408.095
------------------------------------------------------------
  SCF convergence analysis is based on: Mixed KS density changes
  Charge density: The charge density seems to be converging.
                  The linear fit of ln(rho_delta) over the last 15 steps has a slope of  -0.0169
  Estimated 249 more steps to reach target accuracy

  Pulay mixing of updated and previous charge densities.
  Available memory per node after mixing [GB]:   1007.37
  Renormalizing the density to the exact electron count on the 3D integration grid.
  | Formal number of electrons (from input files) :      28.0000000000
  | Integrated number of electrons on 3D grid     :      28.0000000004
  | Charge integration error                      :       0.0000000004
  | Normalization factor for density and gradient :       1.0000000000

  Evaluating partitioned Hartree potential by multipole expansion.
  | Original multipole sum: apparent total charge =   0.944553E-14
  | Sum of charges compensated after spline to logarithmic grids =   0.513407E-05
  | Analytical far-field extrapolation by fixed multipoles:
  | Hartree multipole sum: apparent total charge =   0.816645E-14
  Summing up the Hartree potential.
  Time summed over all CPUs for potential: real work        0.001 s, elapsed        0.001 s
  | RMS charge density error from multipole expansion :   0.103572E-02

  Integrating Hamiltonian matrix: batch-based integration.
  Time summed over all CPUs for integration: real work        0.075 s, elapsed        0.083 s

  Updating Kohn-Sham eigenvalues and eigenvectors using ELSI and the ELPA eigensolver.
  Starting ELPA eigensolver
  Finished transformation to standard eigenproblem
  | Time :     0.000 s
  Finished solving standard eigenproblem
  | Time :     0.001 s
  Finished back-transformation of eigenvectors
  | Time :     0.000 s

  Obtaining occupation numbers and electronic chemical potential using ELSI.
  | Note that, for insulating systems, the printed 'chemical potential' value is not uniquely defined.
  | It can be anywhere in the energy gap, as long as it correctly separates occupied and unoccupied states.
  | In systems with a gap, the physically relevant chemical potential is the VBM or HOMO.

  | Chemical potential (Fermi level):    -4.70627925 eV
  Highest occupied state (VBM) at     -4.71634645 eV
  | Occupation number:      1.84547161

  Lowest unoccupied state (CBM) at    -4.69908633 eV
  | Occupation number:      0.30904255

  This system has fractional occupation numbers. Thus, it is a degenerate system
  within the approximate finite broadening function (occupation_type)
  applied to determine the occupation numbers.
  This may not be harmful. However, for some systems (free atoms), a different, non-degenerate
  ground state might exist by using a smaller broadening (see keyword occupation_type).
  Overall HOMO-LUMO gap:      0.00000000 eV.

  Total energy components:
  | Sum of eigenvalues            :        -338.29241222 Ha       -9205.40490238 eV
  | XC energy correction          :         -41.92312549 Ha       -1140.78628724 eV
  | XC potential correction       :          54.12844817 Ha        1472.91001562 eV
  | Free-atom electrostatic energy:        -273.18239678 Ha       -7433.67123748 eV
  | Hartree energy correction     :          -0.91512631 Ha         -24.90185401 eV
  | Entropy correction            :          -0.00013704 Ha          -0.00372917 eV
  | ---------------------------
  | Total energy                  :        -600.18461264 Ha      -16331.85426550 eV
  | Total energy, T -> 0          :        -600.18474968 Ha      -16331.85799467 eV  <-- do not rely on this value for anything but (periodic) metals
  | Electronic free energy        :        -600.18488673 Ha      -16331.86172385 eV

  Derived energy quantities:
  | Kinetic energy                :         601.70967184 Ha       16373.35323769 eV
  | Electrostatic energy          :       -1159.97115898 Ha      -31564.42121595 eV
  | Energy correction for multipole
  | error in Hartree potential    :          -0.00062549 Ha          -0.01702048 eV
  | Sum of eigenvalues per atom                           :       -4602.70245119 eV
  | Total energy (T->0) per atom                          :       -8165.92899734 eV  <-- do not rely on this value for anything but (periodic) metals
  | Electronic free energy per atom                       :       -8165.93086192 eV
  Evaluating new KS density.
  Integration grid: deviation in total charge (<rho> - N_e) =   3.410854E-10

  Self-consistency convergence accuracy:
  | Change of charge density      :  0.1649E-01
  | Change of unmixed KS density  :  0.4896E-02
  | Change of sum of eigenvalues  : -0.1258E-01 eV
  | Change of total energy        : -0.9576E-03 eV


------------------------------------------------------------
  End self-consistency iteration #    47       :  max(cpu_time)    wall_clock(cpu1)
  | Time for this iteration                     :        0.261 s           0.253 s
  | Charge density update                       :        0.001 s           0.001 s
  | Density mixing                              :        0.254 s           0.247 s
  | Hartree multipole update                    :        0.001 s           0.001 s
  | Hartree multipole summation                 :        0.002 s           0.001 s
  | Integration                                 :        0.001 s           0.002 s
  | Solution of K.-S. eqns.                     :        0.001 s           0.001 s
  | Total energy evaluation                     :        0.000 s           0.000 s

  Partial memory accounting:
  | Current value for overall tracked memory usage:
  |   Minimum:        0.355 MB (on task 27)
  |   Maximum:        0.421 MB (on task  3)
  |   Average:        0.378 MB
  | Peak value for overall tracked memory usage:
  |   Minimum:        0.558 MB (on task 27 after allocating gradient_basis_wave)
  |   Maximum:        0.624 MB (on task  3 after allocating gradient_basis_wave)
  |   Average:        0.581 MB
  | Largest tracked array allocation so far:
  |   Minimum:        0.149 MB (gradient_basis_wave on task  0)
  |   Maximum:        0.153 MB (gradient_basis_wave on task  1)
  |   Average:        0.152 MB
  Note:  These values currently only include a subset of arrays which are explicitly tracked.
  The "true" memory usage will be greater.
------------------------------------------------------------

------------------------------------------------------------
          Begin self-consistency iteration #   48

  Date     :  20260724, Time     :  132408.367
------------------------------------------------------------
  SCF convergence analysis is based on: Mixed KS density changes
  Charge density: The charge density seems to be converging.
                  The linear fit of ln(rho_delta) over the last 15 steps has a slope of  -0.0285
  Estimated 137 more steps to reach target accuracy

  Pulay mixing of updated and previous charge densities.
  Available memory per node after mixing [GB]:   1007.37
  Renormalizing the density to the exact electron count on the 3D integration grid.
  | Formal number of electrons (from input files) :      28.0000000000
  | Integrated number of electrons on 3D grid     :      27.9999999997
  | Charge integration error                      :      -0.0000000003
  | Normalization factor for density and gradient :       1.0000000000

  Evaluating partitioned Hartree potential by multipole expansion.
  | Original multipole sum: apparent total charge =   0.767449E-14
  | Sum of charges compensated after spline to logarithmic grids =   0.513013E-05
  | Analytical far-field extrapolation by fixed multipoles:
  | Hartree multipole sum: apparent total charge =   0.669058E-14
  Summing up the Hartree potential.
  Time summed over all CPUs for potential: real work        0.001 s, elapsed        0.002 s
  | RMS charge density error from multipole expansion :   0.103498E-02

  Integrating Hamiltonian matrix: batch-based integration.
  Time summed over all CPUs for integration: real work        0.075 s, elapsed        0.084 s

  Updating Kohn-Sham eigenvalues and eigenvectors using ELSI and the ELPA eigensolver.
  Starting ELPA eigensolver
  Finished transformation to standard eigenproblem
  | Time :     0.000 s
  Finished solving standard eigenproblem
  | Time :     0.001 s
  Finished back-transformation of eigenvectors
  | Time :     0.000 s

  Obtaining occupation numbers and electronic chemical potential using ELSI.
  | Note that, for insulating systems, the printed 'chemical potential' value is not uniquely defined.
  | It can be anywhere in the energy gap, as long as it correctly separates occupied and unoccupied states.
  | In systems with a gap, the physically relevant chemical potential is the VBM or HOMO.

  | Chemical potential (Fermi level):    -4.70722616 eV
  Highest occupied state (VBM) at     -4.71846420 eV
  | Occupation number:      1.88800704

  Lowest unoccupied state (CBM) at    -4.69862719 eV
  | Occupation number:      0.22395518

  This system has fractional occupation numbers. Thus, it is a degenerate system
  within the approximate finite broadening function (occupation_type)
  applied to determine the occupation numbers.
  This may not be harmful. However, for some systems (free atoms), a different, non-degenerate
  ground state might exist by using a smaller broadening (see keyword occupation_type).
  Overall HOMO-LUMO gap:      0.00000000 eV.

  Total energy components:
  | Sum of eigenvalues            :        -338.29288831 Ha       -9205.41785736 eV
  | XC energy correction          :         -41.92310666 Ha       -1140.78577471 eV
  | XC potential correction       :          54.12842331 Ha        1472.90933907 eV
  | Free-atom electrostatic energy:        -273.18239678 Ha       -7433.67123748 eV
  | Hartree energy correction     :          -0.91469941 Ha         -24.89023729 eV
  | Entropy correction            :          -0.00010812 Ha          -0.00294217 eV
  | ---------------------------
  | Total energy                  :        -600.18466785 Ha      -16331.85576777 eV
  | Total energy, T -> 0          :        -600.18477597 Ha      -16331.85870994 eV  <-- do not rely on this value for anything but (periodic) metals
  | Electronic free energy        :        -600.18488409 Ha      -16331.86165211 eV

  Derived energy quantities:
  | Kinetic energy                :         601.70989436 Ha       16373.35929285 eV
  | Electrostatic energy          :       -1159.97145555 Ha      -31564.42928590 eV
  | Energy correction for multipole
  | error in Hartree potential    :          -0.00062458 Ha          -0.01699569 eV
  | Sum of eigenvalues per atom                           :       -4602.70892868 eV
  | Total energy (T->0) per atom                          :       -8165.92935497 eV  <-- do not rely on this value for anything but (periodic) metals
  | Electronic free energy per atom                       :       -8165.93082606 eV
  Evaluating new KS density.
  Integration grid: deviation in total charge (<rho> - N_e) =   7.593357E-10

  Self-consistency convergence accuracy:
  | Change of charge density      :  0.8289E-02
  | Change of unmixed KS density  :  0.8080E-02
  | Change of sum of eigenvalues  : -0.1295E-01 eV
  | Change of total energy        : -0.1502E-02 eV


------------------------------------------------------------
  End self-consistency iteration #    48       :  max(cpu_time)    wall_clock(cpu1)
  | Time for this iteration                     :        0.267 s           0.258 s
  | Charge density update                       :        0.001 s           0.001 s
  | Density mixing                              :        0.261 s           0.250 s
  | Hartree multipole update                    :        0.001 s           0.001 s
  | Hartree multipole summation                 :        0.002 s           0.002 s
  | Integration                                 :        0.001 s           0.002 s
  | Solution of K.-S. eqns.                     :        0.001 s           0.001 s
  | Total energy evaluation                     :        0.000 s           0.000 s

  Partial memory accounting:
  | Current value for overall tracked memory usage:
  |   Minimum:        0.355 MB (on task 27)
  |   Maximum:        0.421 MB (on task  3)
  |   Average:        0.378 MB
  | Peak value for overall tracked memory usage:
  |   Minimum:        0.558 MB (on task 27 after allocating gradient_basis_wave)
  |   Maximum:        0.624 MB (on task  3 after allocating gradient_basis_wave)
  |   Average:        0.581 MB
  | Largest tracked array allocation so far:
  |   Minimum:        0.149 MB (gradient_basis_wave on task  0)
  |   Maximum:        0.153 MB (gradient_basis_wave on task  1)
  |   Average:        0.152 MB
  Note:  These values currently only include a subset of arrays which are explicitly tracked.
  The "true" memory usage will be greater.
------------------------------------------------------------

------------------------------------------------------------
          Begin self-consistency iteration #   49

  Date     :  20260724, Time     :  132408.636
------------------------------------------------------------
  SCF convergence analysis is based on: Mixed KS density changes
  Charge density: The charge density seems to be converging.
                  The linear fit of ln(rho_delta) over the last 15 steps has a slope of  -0.0534
  Estimated 60 more steps to reach target accuracy

  Pulay mixing of updated and previous charge densities.
  Available memory per node after mixing [GB]:   1007.37
  Renormalizing the density to the exact electron count on the 3D integration grid.
  | Formal number of electrons (from input files) :      28.0000000000
  | Integrated number of electrons on 3D grid     :      27.9999999992
  | Charge integration error                      :      -0.0000000008
  | Normalization factor for density and gradient :       1.0000000000

  Evaluating partitioned Hartree potential by multipole expansion.
  | Original multipole sum: apparent total charge =   0.118069E-13
  | Sum of charges compensated after spline to logarithmic grids =   0.512777E-05
  | Analytical far-field extrapolation by fixed multipoles:
  | Hartree multipole sum: apparent total charge =   0.123973E-13
  Summing up the Hartree potential.
  Time summed over all CPUs for potential: real work        0.001 s, elapsed        0.001 s
  | RMS charge density error from multipole expansion :   0.103452E-02

  Integrating Hamiltonian matrix: batch-based integration.
  Time summed over all CPUs for integration: real work        0.075 s, elapsed        0.085 s

  Updating Kohn-Sham eigenvalues and eigenvectors using ELSI and the ELPA eigensolver.
  Starting ELPA eigensolver
  Finished transformation to standard eigenproblem
  | Time :     0.000 s
  Finished solving standard eigenproblem
  | Time :     0.011 s
  Finished back-transformation of eigenvectors
  | Time :     0.000 s

  Obtaining occupation numbers and electronic chemical potential using ELSI.
  | Note that, for insulating systems, the printed 'chemical potential' value is not uniquely defined.
  | It can be anywhere in the energy gap, as long as it correctly separates occupied and unoccupied states.
  | In systems with a gap, the physically relevant chemical potential is the VBM or HOMO.

  | Chemical potential (Fermi level):    -4.70780171 eV
  Highest occupied state (VBM) at     -4.71978674 eV
  | Occupation number:      1.90991314

  Lowest unoccupied state (CBM) at    -4.69832491 eV
  | Occupation number:      0.18017307

  This system has fractional occupation numbers. Thus, it is a degenerate system
  within the approximate finite broadening function (occupation_type)
  applied to determine the occupation numbers.
  This may not be harmful. However, for some systems (free atoms), a different, non-degenerate
  ground state might exist by using a smaller broadening (see keyword occupation_type).
  Overall HOMO-LUMO gap:      0.00000000 eV.

  Total energy components:
  | Sum of eigenvalues            :        -338.29316873 Ha       -9205.42548800 eV
  | XC energy correction          :         -41.92309606 Ha       -1140.78548644 eV
  | XC potential correction       :          54.12840932 Ha        1472.90895842 eV
  | Free-atom electrostatic energy:        -273.18239678 Ha       -7433.67123748 eV
  | Hartree energy correction     :          -0.91445101 Ha         -24.88347810 eV
  | Entropy correction            :          -0.00009153 Ha          -0.00249062 eV
  | ---------------------------
  | Total energy                  :        -600.18470327 Ha      -16331.85673161 eV
  | Total energy, T -> 0          :        -600.18479480 Ha      -16331.85922223 eV  <-- do not rely on this value for anything but (periodic) metals
  | Electronic free energy        :        -600.18488632 Ha      -16331.86171285 eV

  Derived energy quantities:
  | Kinetic energy                :         601.71003959 Ha       16373.36324467 eV
  | Electrostatic energy          :       -1159.97164679 Ha      -31564.43448983 eV
  | Energy correction for multipole
  | error in Hartree potential    :          -0.00062400 Ha          -0.01697997 eV
  | Sum of eigenvalues per atom                           :       -4602.71274400 eV
  | Total energy (T->0) per atom                          :       -8165.92961112 eV  <-- do not rely on this value for anything but (periodic) metals
  | Electronic free energy per atom                       :       -8165.93085643 eV
  Evaluating new KS density.
  Integration grid: deviation in total charge (<rho> - N_e) =  -5.395115E-10

  Self-consistency convergence accuracy:
  | Change of charge density      :  0.1692E-02
  | Change of unmixed KS density  :  0.9797E-02
  | Change of sum of eigenvalues  : -0.7631E-02 eV
  | Change of total energy        : -0.9638E-03 eV


------------------------------------------------------------
  End self-consistency iteration #    49       :  max(cpu_time)    wall_clock(cpu1)
  | Time for this iteration                     :        0.275 s           0.280 s
  | Charge density update                       :        0.001 s           0.001 s
  | Density mixing                              :        0.263 s           0.263 s
  | Hartree multipole update                    :        0.001 s           0.001 s
  | Hartree multipole summation                 :        0.002 s           0.001 s
  | Integration                                 :        0.001 s           0.002 s
  | Solution of K.-S. eqns.                     :        0.012 s           0.012 s
  | Total energy evaluation                     :        0.000 s           0.000 s

  Partial memory accounting:
  | Current value for overall tracked memory usage:
  |   Minimum:        0.355 MB (on task 27)
  |   Maximum:        0.421 MB (on task  3)
  |   Average:        0.378 MB
  | Peak value for overall tracked memory usage:
  |   Minimum:        0.558 MB (on task 27 after allocating gradient_basis_wave)
  |   Maximum:        0.624 MB (on task  3 after allocating gradient_basis_wave)
  |   Average:        0.581 MB
  | Largest tracked array allocation so far:
  |   Minimum:        0.149 MB (gradient_basis_wave on task  0)
  |   Maximum:        0.153 MB (gradient_basis_wave on task  1)
  |   Average:        0.152 MB
  Note:  These values currently only include a subset of arrays which are explicitly tracked.
  The "true" memory usage will be greater.
------------------------------------------------------------

------------------------------------------------------------
          Begin self-consistency iteration #   50

  Date     :  20260724, Time     :  132408.927
------------------------------------------------------------
  SCF convergence analysis is based on: Mixed KS density changes
  Charge density: The charge density seems to be converging.
                  The linear fit of ln(rho_delta) over the last 15 steps has a slope of  -0.0709
  Estimated 54 more steps to reach target accuracy

  Pulay mixing of updated and previous charge densities.
  Available memory per node after mixing [GB]:   1007.37
  Renormalizing the density to the exact electron count on the 3D integration grid.
  | Formal number of electrons (from input files) :      28.0000000000
  | Integrated number of electrons on 3D grid     :      27.9999999977
  | Charge integration error                      :      -0.0000000023
  | Normalization factor for density and gradient :       1.0000000001

  Evaluating partitioned Hartree potential by multipole expansion.
  | Original multipole sum: apparent total charge =   0.541150E-14
  | Sum of charges compensated after spline to logarithmic grids =   0.512708E-05
  | Analytical far-field extrapolation by fixed multipoles:
  | Hartree multipole sum: apparent total charge =   0.491955E-14
  Summing up the Hartree potential.
  Time summed over all CPUs for potential: real work        0.001 s, elapsed        0.001 s
  | RMS charge density error from multipole expansion :   0.103456E-02

  Integrating Hamiltonian matrix: batch-based integration.
  Time summed over all CPUs for integration: real work        0.074 s, elapsed        0.082 s

  Updating Kohn-Sham eigenvalues and eigenvectors using ELSI and the ELPA eigensolver.
  Starting ELPA eigensolver
  Finished transformation to standard eigenproblem
  | Time :     0.000 s
  Finished solving standard eigenproblem
  | Time :     0.015 s
  Finished back-transformation of eigenvectors
  | Time :     0.000 s

  Obtaining occupation numbers and electronic chemical potential using ELSI.
  | Note that, for insulating systems, the printed 'chemical potential' value is not uniquely defined.
  | It can be anywhere in the energy gap, as long as it correctly separates occupied and unoccupied states.
  | In systems with a gap, the physically relevant chemical potential is the VBM or HOMO.

  | Chemical potential (Fermi level):    -4.70783871 eV
  Highest occupied state (VBM) at     -4.71976905 eV
  | Occupation number:      1.90843584

  Lowest unoccupied state (CBM) at    -4.69842556 eV
  | Occupation number:      0.18311643

  This system has fractional occupation numbers. Thus, it is a degenerate system
  within the approximate finite broadening function (occupation_type)
  applied to determine the occupation numbers.
  This may not be harmful. However, for some systems (free atoms), a different, non-degenerate
  ground state might exist by using a smaller broadening (see keyword occupation_type).
  Overall HOMO-LUMO gap:      0.00000000 eV.

  Total energy components:
  | Sum of eigenvalues            :        -338.29327084 Ha       -9205.42826653 eV
  | XC energy correction          :         -41.92308892 Ha       -1140.78529190 eV
  | XC potential correction       :          54.12839988 Ha        1472.90870147 eV
  | Free-atom electrostatic energy:        -273.18239678 Ha       -7433.67123748 eV
  | Hartree energy correction     :          -0.91434404 Ha         -24.88056734 eV
  | Entropy correction            :          -0.00009269 Ha          -0.00252212 eV
  | ---------------------------
  | Total energy                  :        -600.18470070 Ha      -16331.85666179 eV
  | Total energy, T -> 0          :        -600.18479339 Ha      -16331.85918390 eV  <-- do not rely on this value for anything but (periodic) metals
  | Electronic free energy        :        -600.18488607 Ha      -16331.86170602 eV

  Derived energy quantities:
  | Kinetic energy                :         601.70998675 Ha       16373.36180689 eV
  | Electrostatic energy          :       -1159.97159853 Ha      -31564.43317678 eV
  | Energy correction for multipole
  | error in Hartree potential    :          -0.00062408 Ha          -0.01698197 eV
  | Sum of eigenvalues per atom                           :       -4602.71413327 eV
  | Total energy (T->0) per atom                          :       -8165.92959195 eV  <-- do not rely on this value for anything but (periodic) metals
  | Electronic free energy per atom                       :       -8165.93085301 eV
  Evaluating new KS density.
  Integration grid: deviation in total charge (<rho> - N_e) =   2.944489E-10

  Self-consistency convergence accuracy:
  | Change of charge density      :  0.6860E-02
  | Change of unmixed KS density  :  0.5051E-02
  | Change of sum of eigenvalues  : -0.2779E-02 eV
  | Change of total energy        :  0.6983E-04 eV


------------------------------------------------------------
  End self-consistency iteration #    50       :  max(cpu_time)    wall_clock(cpu1)
  | Time for this iteration                     :        0.280 s           0.280 s
  | Charge density update                       :        0.001 s           0.001 s
  | Density mixing                              :        0.260 s           0.260 s
  | Hartree multipole update                    :        0.001 s           0.001 s
  | Hartree multipole summation                 :        0.002 s           0.001 s
  | Integration                                 :        0.001 s           0.002 s
  | Solution of K.-S. eqns.                     :        0.015 s           0.015 s
  | Total energy evaluation                     :        0.000 s           0.000 s

  Partial memory accounting:
  | Current value for overall tracked memory usage:
  |   Minimum:        0.355 MB (on task 27)
  |   Maximum:        0.421 MB (on task  3)
  |   Average:        0.378 MB
  | Peak value for overall tracked memory usage:
  |   Minimum:        0.558 MB (on task 27 after allocating gradient_basis_wave)
  |   Maximum:        0.624 MB (on task  3 after allocating gradient_basis_wave)
  |   Average:        0.581 MB
  | Largest tracked array allocation so far:
  |   Minimum:        0.149 MB (gradient_basis_wave on task  0)
  |   Maximum:        0.153 MB (gradient_basis_wave on task  1)
  |   Average:        0.152 MB
  Note:  These values currently only include a subset of arrays which are explicitly tracked.
  The "true" memory usage will be greater.
------------------------------------------------------------

------------------------------------------------------------
          Begin self-consistency iteration #   51

  Date     :  20260724, Time     :  132409.219
------------------------------------------------------------
  SCF convergence analysis is based on: Mixed KS density changes
  Charge density: The charge density seems to be converging.
                  The linear fit of ln(rho_delta) over the last 15 steps has a slope of  -0.0877
  Estimated 43 more steps to reach target accuracy

  Pulay mixing of updated and previous charge densities.
  Available memory per node after mixing [GB]:   1007.37
  Renormalizing the density to the exact electron count on the 3D integration grid.
  | Formal number of electrons (from input files) :      28.0000000000
  | Integrated number of electrons on 3D grid     :      28.0000000001
  | Charge integration error                      :       0.0000000001
  | Normalization factor for density and gradient :       1.0000000000

  Evaluating partitioned Hartree potential by multipole expansion.
  | Original multipole sum: apparent total charge =  -0.245977E-14
  | Sum of charges compensated after spline to logarithmic grids =   0.513293E-05
  | Analytical far-field extrapolation by fixed multipoles:
  | Hartree multipole sum: apparent total charge =  -0.196782E-14
  Summing up the Hartree potential.
  Time summed over all CPUs for potential: real work        0.001 s, elapsed        0.001 s
  | RMS charge density error from multipole expansion :   0.103574E-02

  Integrating Hamiltonian matrix: batch-based integration.
  Time summed over all CPUs for integration: real work        0.075 s, elapsed        0.084 s

  Updating Kohn-Sham eigenvalues and eigenvectors using ELSI and the ELPA eigensolver.
  Starting ELPA eigensolver
  Finished transformation to standard eigenproblem
  | Time :     0.001 s
  Finished solving standard eigenproblem
  | Time :     0.000 s
  Finished back-transformation of eigenvectors
  | Time :     0.000 s

  Obtaining occupation numbers and electronic chemical potential using ELSI.
  | Note that, for insulating systems, the printed 'chemical potential' value is not uniquely defined.
  | It can be anywhere in the energy gap, as long as it correctly separates occupied and unoccupied states.
  | In systems with a gap, the physically relevant chemical potential is the VBM or HOMO.

  | Chemical potential (Fermi level):    -4.70635817 eV
  Highest occupied state (VBM) at     -4.71638770 eV
  | Occupation number:      1.84392311

  Lowest unoccupied state (CBM) at    -4.69921109 eV
  | Occupation number:      0.31213683

  This system has fractional occupation numbers. Thus, it is a degenerate system
  within the approximate finite broadening function (occupation_type)
  applied to determine the occupation numbers.
  This may not be harmful. However, for some systems (free atoms), a different, non-degenerate
  ground state might exist by using a smaller broadening (see keyword occupation_type).
  Overall HOMO-LUMO gap:      0.00000000 eV.

  Total energy components:
  | Sum of eigenvalues            :        -338.29257134 Ha       -9205.40923210 eV
  | XC energy correction          :         -41.92311481 Ha       -1140.78599663 eV
  | XC potential correction       :          54.12843406 Ha        1472.90963169 eV
  | Free-atom electrostatic energy:        -273.18239678 Ha       -7433.67123748 eV
  | Hartree energy correction     :          -0.91496204 Ha         -24.89738393 eV
  | Entropy correction            :          -0.00013802 Ha          -0.00375581 eV
  | ---------------------------
  | Total energy                  :        -600.18461091 Ha      -16331.85421845 eV
  | Total energy, T -> 0          :        -600.18474893 Ha      -16331.85797426 eV  <-- do not rely on this value for anything but (periodic) metals
  | Electronic free energy        :        -600.18488696 Ha      -16331.86173007 eV

  Derived energy quantities:
  | Kinetic energy                :         601.70959604 Ha       16373.35117515 eV
  | Electrostatic energy          :       -1159.97109214 Ha      -31564.41939698 eV
  | Energy correction for multipole
  | error in Hartree potential    :          -0.00062555 Ha          -0.01702221 eV
  | Sum of eigenvalues per atom                           :       -4602.70461605 eV
  | Total energy (T->0) per atom                          :       -8165.92898713 eV  <-- do not rely on this value for anything but (periodic) metals
  | Electronic free energy per atom                       :       -8165.93086504 eV
  Evaluating new KS density.
  Integration grid: deviation in total charge (<rho> - N_e) =  -9.424994E-10

  Self-consistency convergence accuracy:
  | Change of charge density      :  0.6503E-02
  | Change of unmixed KS density  :  0.3385E-03
  | Change of sum of eigenvalues  :  0.1903E-01 eV
  | Change of total energy        :  0.2443E-02 eV


------------------------------------------------------------
  End self-consistency iteration #    51       :  max(cpu_time)    wall_clock(cpu1)
  | Time for this iteration                     :        0.269 s           0.270 s
  | Charge density update                       :        0.001 s           0.001 s
  | Density mixing                              :        0.262 s           0.262 s
  | Hartree multipole update                    :        0.001 s           0.001 s
  | Hartree multipole summation                 :        0.002 s           0.002 s
  | Integration                                 :        0.001 s           0.001 s
  | Solution of K.-S. eqns.                     :        0.001 s           0.001 s
  | Total energy evaluation                     :        0.000 s           0.000 s

  Partial memory accounting:
  | Current value for overall tracked memory usage:
  |   Minimum:        0.355 MB (on task 27)
  |   Maximum:        0.421 MB (on task  3)
  |   Average:        0.378 MB
  | Peak value for overall tracked memory usage:
  |   Minimum:        0.558 MB (on task 27 after allocating gradient_basis_wave)
  |   Maximum:        0.624 MB (on task  3 after allocating gradient_basis_wave)
  |   Average:        0.581 MB
  | Largest tracked array allocation so far:
  |   Minimum:        0.149 MB (gradient_basis_wave on task  0)
  |   Maximum:        0.153 MB (gradient_basis_wave on task  1)
  |   Average:        0.152 MB
  Note:  These values currently only include a subset of arrays which are explicitly tracked.
  The "true" memory usage will be greater.
------------------------------------------------------------

------------------------------------------------------------
          Begin self-consistency iteration #   52

  Date     :  20260724, Time     :  132409.503
------------------------------------------------------------
  SCF convergence analysis is based on: Mixed KS density changes
  Charge density: The charge density seems to be converging.
                  The linear fit of ln(rho_delta) over the last 15 steps has a slope of  -0.0867
  Estimated 45 more steps to reach target accuracy

  Pulay mixing of updated and previous charge densities.
  Available memory per node after mixing [GB]:   1007.37
  Renormalizing the density to the exact electron count on the 3D integration grid.
  | Formal number of electrons (from input files) :      28.0000000000
  | Integrated number of electrons on 3D grid     :      27.9999999994
  | Charge integration error                      :      -0.0000000006
  | Normalization factor for density and gradient :       1.0000000000

  Evaluating partitioned Hartree potential by multipole expansion.
  | Original multipole sum: apparent total charge =  -0.118069E-14
  | Sum of charges compensated after spline to logarithmic grids =   0.512860E-05
  | Analytical far-field extrapolation by fixed multipoles:
  | Hartree multipole sum: apparent total charge =  -0.186943E-14
  Summing up the Hartree potential.
  Time summed over all CPUs for potential: real work        0.001 s, elapsed        0.001 s
  | RMS charge density error from multipole expansion :   0.103493E-02

  Integrating Hamiltonian matrix: batch-based integration.
  Time summed over all CPUs for integration: real work        0.075 s, elapsed        0.081 s

  Updating Kohn-Sham eigenvalues and eigenvectors using ELSI and the ELPA eigensolver.
  Starting ELPA eigensolver
  Finished transformation to standard eigenproblem
  | Time :     0.001 s
  Finished solving standard eigenproblem
  | Time :     0.000 s
  Finished back-transformation of eigenvectors
  | Time :     0.000 s

  Obtaining occupation numbers and electronic chemical potential using ELSI.
  | Note that, for insulating systems, the printed 'chemical potential' value is not uniquely defined.
  | It can be anywhere in the energy gap, as long as it correctly separates occupied and unoccupied states.
  | In systems with a gap, the physically relevant chemical potential is the VBM or HOMO.

  | Chemical potential (Fermi level):    -4.70739532 eV
  Highest occupied state (VBM) at     -4.71870120 eV
  | Occupation number:      1.89015560

  Lowest unoccupied state (CBM) at    -4.69871638 eV
  | Occupation number:      0.21967687

  This system has fractional occupation numbers. Thus, it is a degenerate system
  within the approximate finite broadening function (occupation_type)
  applied to determine the occupation numbers.
  This may not be harmful. However, for some systems (free atoms), a different, non-degenerate
  ground state might exist by using a smaller broadening (see keyword occupation_type).
  Overall HOMO-LUMO gap:      0.00000000 eV.

  Total energy components:
  | Sum of eigenvalues            :        -338.29309604 Ha       -9205.42350999 eV
  | XC energy correction          :         -41.92309350 Ha       -1140.78541671 eV
  | XC potential correction       :          54.12840592 Ha        1472.90886596 eV
  | Free-atom electrostatic energy:        -273.18239678 Ha       -7433.67123748 eV
  | Hartree energy correction     :          -0.91449067 Ha         -24.88455715 eV
  | Entropy correction            :          -0.00010656 Ha          -0.00289958 eV
  | ---------------------------
  | Total energy                  :        -600.18467107 Ha      -16331.85585537 eV
  | Total energy, T -> 0          :        -600.18477762 Ha      -16331.85875495 eV  <-- do not rely on this value for anything but (periodic) metals
  | Electronic free energy        :        -600.18488418 Ha      -16331.86165453 eV

  Derived energy quantities:
  | Kinetic energy                :         601.70983796 Ha       16373.35775827 eV
  | Electrostatic energy          :       -1159.97141553 Ha      -31564.42819693 eV
  | Energy correction for multipole
  | error in Hartree potential    :          -0.00062457 Ha          -0.01699547 eV
  | Sum of eigenvalues per atom                           :       -4602.71175500 eV
  | Total energy (T->0) per atom                          :       -8165.92937747 eV  <-- do not rely on this value for anything but (periodic) metals
  | Electronic free energy per atom                       :       -8165.93082726 eV
  Evaluating new KS density.
  Integration grid: deviation in total charge (<rho> - N_e) =   6.652812E-11

  Self-consistency convergence accuracy:
  | Change of charge density      :  0.8662E-02
  | Change of unmixed KS density  :  0.1486E-01
  | Change of sum of eigenvalues  : -0.1428E-01 eV
  | Change of total energy        : -0.1637E-02 eV


------------------------------------------------------------
  End self-consistency iteration #    52       :  max(cpu_time)    wall_clock(cpu1)
  | Time for this iteration                     :        0.253 s           0.254 s
  | Charge density update                       :        0.001 s           0.001 s
  | Density mixing                              :        0.247 s           0.247 s
  | Hartree multipole update                    :        0.001 s           0.001 s
  | Hartree multipole summation                 :        0.002 s           0.002 s
  | Integration                                 :        0.001 s           0.001 s
  | Solution of K.-S. eqns.                     :        0.001 s           0.001 s
  | Total energy evaluation                     :        0.000 s           0.000 s

  Partial memory accounting:
  | Current value for overall tracked memory usage:
  |   Minimum:        0.355 MB (on task 27)
  |   Maximum:        0.421 MB (on task  3)
  |   Average:        0.378 MB
  | Peak value for overall tracked memory usage:
  |   Minimum:        0.558 MB (on task 27 after allocating gradient_basis_wave)
  |   Maximum:        0.624 MB (on task  3 after allocating gradient_basis_wave)
  |   Average:        0.581 MB
  | Largest tracked array allocation so far:
  |   Minimum:        0.149 MB (gradient_basis_wave on task  0)
  |   Maximum:        0.153 MB (gradient_basis_wave on task  1)
  |   Average:        0.152 MB
  Note:  These values currently only include a subset of arrays which are explicitly tracked.
  The "true" memory usage will be greater.
------------------------------------------------------------

------------------------------------------------------------
          Begin self-consistency iteration #   53

  Date     :  20260724, Time     :  132409.782
------------------------------------------------------------
  SCF convergence analysis is based on: Mixed KS density changes
  Charge density: The charge density seems to be converging.
                  The linear fit of ln(rho_delta) over the last 15 steps has a slope of  -0.0943
  Estimated 35 more steps to reach target accuracy

  Pulay mixing of updated and previous charge densities.
  Available memory per node after mixing [GB]:   1007.37
  Renormalizing the density to the exact electron count on the 3D integration grid.
  | Formal number of electrons (from input files) :      28.0000000000
  | Integrated number of electrons on 3D grid     :      28.0000000001
  | Charge integration error                      :       0.0000000001
  | Normalization factor for density and gradient :       1.0000000000

  Evaluating partitioned Hartree potential by multipole expansion.
  | Original multipole sum: apparent total charge =   0.314851E-14
  | Sum of charges compensated after spline to logarithmic grids =   0.512865E-05
  | Analytical far-field extrapolation by fixed multipoles:
  | Hartree multipole sum: apparent total charge =   0.295173E-14
  Summing up the Hartree potential.
  Time summed over all CPUs for potential: real work        0.001 s, elapsed        0.001 s
  | RMS charge density error from multipole expansion :   0.103494E-02

  Integrating Hamiltonian matrix: batch-based integration.
  Time summed over all CPUs for integration: real work        0.075 s, elapsed        0.081 s

  Updating Kohn-Sham eigenvalues and eigenvectors using ELSI and the ELPA eigensolver.
  Starting ELPA eigensolver
  Finished transformation to standard eigenproblem
  | Time :     0.001 s
  Finished solving standard eigenproblem
  | Time :     0.000 s
  Finished back-transformation of eigenvectors
  | Time :     0.000 s

  Obtaining occupation numbers and electronic chemical potential using ELSI.
  | Note that, for insulating systems, the printed 'chemical potential' value is not uniquely defined.
  | It can be anywhere in the energy gap, as long as it correctly separates occupied and unoccupied states.
  | In systems with a gap, the physically relevant chemical potential is the VBM or HOMO.

  | Chemical potential (Fermi level):    -4.70738540 eV
  Highest occupied state (VBM) at     -4.71868131 eV
  | Occupation number:      1.88984183

  Lowest unoccupied state (CBM) at    -4.69871828 eV
  | Occupation number:      0.22030561

  This system has fractional occupation numbers. Thus, it is a degenerate system
  within the approximate finite broadening function (occupation_type)
  applied to determine the occupation numbers.
  This may not be harmful. However, for some systems (free atoms), a different, non-degenerate
  ground state might exist by using a smaller broadening (see keyword occupation_type).
  Overall HOMO-LUMO gap:      0.00000000 eV.

  Total energy components:
  | Sum of eigenvalues            :        -338.29308935 Ha       -9205.42332802 eV
  | XC energy correction          :         -41.92309386 Ha       -1140.78542651 eV
  | XC potential correction       :          54.12840640 Ha        1472.90887893 eV
  | Free-atom electrostatic energy:        -273.18239678 Ha       -7433.67123748 eV
  | Hartree energy correction     :          -0.91449699 Ha         -24.88472932 eV
  | Entropy correction            :          -0.00010679 Ha          -0.00290586 eV
  | ---------------------------
  | Total energy                  :        -600.18467059 Ha      -16331.85584241 eV
  | Total energy, T -> 0          :        -600.18477738 Ha      -16331.85874827 eV  <-- do not rely on this value for anything but (periodic) metals
  | Electronic free energy        :        -600.18488417 Ha      -16331.86165413 eV

  Derived energy quantities:
  | Kinetic energy                :         601.70983674 Ha       16373.35772490 eV
  | Electrostatic energy          :       -1159.97141346 Ha      -31564.42814080 eV
  | Energy correction for multipole
  | error in Hartree potential    :          -0.00062458 Ha          -0.01699564 eV
  | Sum of eigenvalues per atom                           :       -4602.71166401 eV
  | Total energy (T->0) per atom                          :       -8165.92937413 eV  <-- do not rely on this value for anything but (periodic) metals
  | Electronic free energy per atom                       :       -8165.93082706 eV
  Evaluating new KS density.
  Integration grid: deviation in total charge (<rho> - N_e) =  -4.218386E-10

  Self-consistency convergence accuracy:
  | Change of charge density      :  0.2183E-02
  | Change of unmixed KS density  :  0.1065E-01
  | Change of sum of eigenvalues  :  0.1820E-03 eV
  | Change of total energy        :  0.1296E-04 eV


------------------------------------------------------------
  End self-consistency iteration #    53       :  max(cpu_time)    wall_clock(cpu1)
  | Time for this iteration                     :        0.263 s           0.248 s
  | Charge density update                       :        0.001 s           0.001 s
  | Density mixing                              :        0.257 s           0.241 s
  | Hartree multipole update                    :        0.001 s           0.001 s
  | Hartree multipole summation                 :        0.002 s           0.002 s
  | Integration                                 :        0.001 s           0.001 s
  | Solution of K.-S. eqns.                     :        0.001 s           0.001 s
  | Total energy evaluation                     :        0.000 s           0.001 s

  Partial memory accounting:
  | Current value for overall tracked memory usage:
  |   Minimum:        0.355 MB (on task 27)
  |   Maximum:        0.421 MB (on task  3)
  |   Average:        0.378 MB
  | Peak value for overall tracked memory usage:
  |   Minimum:        0.558 MB (on task 27 after allocating gradient_basis_wave)
  |   Maximum:        0.624 MB (on task  3 after allocating gradient_basis_wave)
  |   Average:        0.581 MB
  | Largest tracked array allocation so far:
  |   Minimum:        0.149 MB (gradient_basis_wave on task  0)
  |   Maximum:        0.153 MB (gradient_basis_wave on task  1)
  |   Average:        0.152 MB
  Note:  These values currently only include a subset of arrays which are explicitly tracked.
  The "true" memory usage will be greater.
------------------------------------------------------------

------------------------------------------------------------
          Begin self-consistency iteration #   54

  Date     :  20260724, Time     :  132410.154
------------------------------------------------------------
  SCF convergence analysis is based on: Mixed KS density changes
  Charge density: The charge density seems to be converging.
                  The linear fit of ln(rho_delta) over the last 15 steps has a slope of  -0.0898
  Estimated 37 more steps to reach target accuracy

  Pulay mixing of updated and previous charge densities.
  Available memory per node after mixing [GB]:   1007.37
  Renormalizing the density to the exact electron count on the 3D integration grid.
  | Formal number of electrons (from input files) :      28.0000000000
  | Integrated number of electrons on 3D grid     :      27.9999999998
  | Charge integration error                      :      -0.0000000002
  | Normalization factor for density and gradient :       1.0000000000

  Evaluating partitioned Hartree potential by multipole expansion.
  | Original multipole sum: apparent total charge =   0.708415E-14
  | Sum of charges compensated after spline to logarithmic grids =   0.512945E-05
  | Analytical far-field extrapolation by fixed multipoles:
  | Hartree multipole sum: apparent total charge =   0.747771E-14
  Summing up the Hartree potential.
  Time summed over all CPUs for potential: real work        0.001 s, elapsed        0.002 s
  | RMS charge density error from multipole expansion :   0.103518E-02

  Integrating Hamiltonian matrix: batch-based integration.
  Time summed over all CPUs for integration: real work        0.075 s, elapsed        0.083 s

  Updating Kohn-Sham eigenvalues and eigenvectors using ELSI and the ELPA eigensolver.
  Starting ELPA eigensolver
  Finished transformation to standard eigenproblem
  | Time :     0.000 s
  Finished solving standard eigenproblem
  | Time :     0.000 s
  Finished back-transformation of eigenvectors
  | Time :     0.001 s

  Obtaining occupation numbers and electronic chemical potential using ELSI.
  | Note that, for insulating systems, the printed 'chemical potential' value is not uniquely defined.
  | It can be anywhere in the energy gap, as long as it correctly separates occupied and unoccupied states.
  | In systems with a gap, the physically relevant chemical potential is the VBM or HOMO.

  | Chemical potential (Fermi level):    -4.70711811 eV
  Highest occupied state (VBM) at     -4.71803684 eV
  | Occupation number:      1.87744596

  Lowest unoccupied state (CBM) at    -4.69889925 eV
  | Occupation number:      0.24510467

  This system has fractional occupation numbers. Thus, it is a degenerate system
  within the approximate finite broadening function (occupation_type)
  applied to determine the occupation numbers.
  This may not be harmful. However, for some systems (free atoms), a different, non-degenerate
  ground state might exist by using a smaller broadening (see keyword occupation_type).
  Overall HOMO-LUMO gap:      0.00000000 eV.

  Total energy components:
  | Sum of eigenvalues            :        -338.29299106 Ha       -9205.42065339 eV
  | XC energy correction          :         -41.92309635 Ha       -1140.78549409 eV
  | XC potential correction       :          54.12840969 Ha        1472.90896838 eV
  | Free-atom electrostatic energy:        -273.18239678 Ha       -7433.67123748 eV
  | Hartree energy correction     :          -0.91457811 Ha         -24.88693671 eV
  | Entropy correction            :          -0.00011569 Ha          -0.00314821 eV
  | ---------------------------
  | Total energy                  :        -600.18465261 Ha      -16331.85535330 eV
  | Total energy, T -> 0          :        -600.18476831 Ha      -16331.85850151 eV  <-- do not rely on this value for anything but (periodic) metals
  | Electronic free energy        :        -600.18488400 Ha      -16331.86164972 eV

  Derived energy quantities:
  | Kinetic energy                :         601.70974701 Ha       16373.35528319 eV
  | Electrostatic energy          :       -1159.97130328 Ha      -31564.42514240 eV
  | Energy correction for multipole
  | error in Hartree potential    :          -0.00062488 Ha          -0.01700390 eV
  | Sum of eigenvalues per atom                           :       -4602.71032670 eV
  | Total energy (T->0) per atom                          :       -8165.92925076 eV  <-- do not rely on this value for anything but (periodic) metals
  | Electronic free energy per atom                       :       -8165.93082486 eV
  Evaluating new KS density.
  Integration grid: deviation in total charge (<rho> - N_e) =   7.752661E-10

  Self-consistency convergence accuracy:
  | Change of charge density      :  0.2110E-02
  | Change of unmixed KS density  :  0.7254E-04
  | Change of sum of eigenvalues  :  0.2675E-02 eV
  | Change of total energy        :  0.4891E-03 eV


------------------------------------------------------------
  End self-consistency iteration #    54       :  max(cpu_time)    wall_clock(cpu1)
  | Time for this iteration                     :        0.263 s           0.149 s
  | Charge density update                       :        0.001 s           0.001 s
  | Density mixing                              :        0.256 s           0.142 s
  | Hartree multipole update                    :        0.001 s           0.001 s
  | Hartree multipole summation                 :        0.002 s           0.002 s
  | Integration                                 :        0.001 s           0.002 s
  | Solution of K.-S. eqns.                     :        0.001 s           0.001 s
  | Total energy evaluation                     :        0.000 s           0.000 s

  Partial memory accounting:
  | Current value for overall tracked memory usage:
  |   Minimum:        0.355 MB (on task 27)
  |   Maximum:        0.421 MB (on task  3)
  |   Average:        0.378 MB
  | Peak value for overall tracked memory usage:
  |   Minimum:        0.558 MB (on task 27 after allocating gradient_basis_wave)
  |   Maximum:        0.624 MB (on task  3 after allocating gradient_basis_wave)
  |   Average:        0.581 MB
  | Largest tracked array allocation so far:
  |   Minimum:        0.149 MB (gradient_basis_wave on task  0)
  |   Maximum:        0.153 MB (gradient_basis_wave on task  1)
  |   Average:        0.152 MB
  Note:  These values currently only include a subset of arrays which are explicitly tracked.
  The "true" memory usage will be greater.
------------------------------------------------------------

------------------------------------------------------------
          Begin self-consistency iteration #   55

  Date     :  20260724, Time     :  132410.439
------------------------------------------------------------
  SCF convergence analysis is based on: Mixed KS density changes
  Charge density: The charge density seems to be converging.
                  The linear fit of ln(rho_delta) over the last 15 steps has a slope of  -0.1093
  Estimated 27 more steps to reach target accuracy

  Pulay mixing of updated and previous charge densities.
  Available memory per node after mixing [GB]:   1007.37
  Renormalizing the density to the exact electron count on the 3D integration grid.
  | Formal number of electrons (from input files) :      28.0000000000
  | Integrated number of electrons on 3D grid     :      28.0000000000
  | Charge integration error                      :      -0.0000000000
  | Normalization factor for density and gradient :       1.0000000000

  Evaluating partitioned Hartree potential by multipole expansion.
  | Original multipole sum: apparent total charge =   0.610024E-14
  | Sum of charges compensated after spline to logarithmic grids =   0.512910E-05
  | Analytical far-field extrapolation by fixed multipoles:
  | Hartree multipole sum: apparent total charge =   0.482116E-14
  Summing up the Hartree potential.
  Time summed over all CPUs for potential: real work        0.001 s, elapsed        0.002 s
  | RMS charge density error from multipole expansion :   0.103509E-02

  Integrating Hamiltonian matrix: batch-based integration.
  Time summed over all CPUs for integration: real work        0.074 s, elapsed        0.081 s

  Updating Kohn-Sham eigenvalues and eigenvectors using ELSI and the ELPA eigensolver.
  Starting ELPA eigensolver
  Finished transformation to standard eigenproblem
  | Time :     0.000 s
  Finished solving standard eigenproblem
  | Time :     0.001 s
  Finished back-transformation of eigenvectors
  | Time :     0.000 s

  Obtaining occupation numbers and electronic chemical potential using ELSI.
  | Note that, for insulating systems, the printed 'chemical potential' value is not uniquely defined.
  | It can be anywhere in the energy gap, as long as it correctly separates occupied and unoccupied states.
  | In systems with a gap, the physically relevant chemical potential is the VBM or HOMO.

  | Chemical potential (Fermi level):    -4.70722033 eV
  Highest occupied state (VBM) at     -4.71828516 eV
  | Occupation number:      1.88237119

  Lowest unoccupied state (CBM) at    -4.69882749 eV
  | Occupation number:      0.23525684

  This system has fractional occupation numbers. Thus, it is a degenerate system
  within the approximate finite broadening function (occupation_type)
  applied to determine the occupation numbers.
  This may not be harmful. However, for some systems (free atoms), a different, non-degenerate
  ground state might exist by using a smaller broadening (see keyword occupation_type).
  Overall HOMO-LUMO gap:      0.00000000 eV.

  Total energy components:
  | Sum of eigenvalues            :        -338.29302566 Ha       -9205.42159486 eV
  | XC energy correction          :         -41.92309567 Ha       -1140.78547573 eV
  | XC potential correction       :          54.12840880 Ha        1472.90894420 eV
  | Free-atom electrostatic energy:        -273.18239678 Ha       -7433.67123748 eV
  | Hartree energy correction     :          -0.91455026 Ha         -24.88617865 eV
  | Entropy correction            :          -0.00011220 Ha          -0.00305319 eV
  | ---------------------------
  | Total energy                  :        -600.18465957 Ha      -16331.85554253 eV
  | Total energy, T -> 0          :        -600.18477177 Ha      -16331.85859572 eV  <-- do not rely on this value for anything but (periodic) metals
  | Electronic free energy        :        -600.18488397 Ha      -16331.86164891 eV

  Derived energy quantities:
  | Kinetic energy                :         601.70978418 Ha       16373.35629461 eV
  | Electrostatic energy          :       -1159.97134807 Ha      -31564.42636141 eV
  | Energy correction for multipole
  | error in Hartree potential    :          -0.00062476 Ha          -0.01700064 eV
  | Sum of eigenvalues per atom                           :       -4602.71079743 eV
  | Total energy (T->0) per atom                          :       -8165.92929786 eV  <-- do not rely on this value for anything but (periodic) metals
  | Electronic free energy per atom                       :       -8165.93082446 eV
  Evaluating new KS density.
  Integration grid: deviation in total charge (<rho> - N_e) =  -8.467431E-10

  Self-consistency convergence accuracy:
  | Change of charge density      :  0.8100E-03
  | Change of unmixed KS density  :  0.2857E-02
  | Change of sum of eigenvalues  : -0.9415E-03 eV
  | Change of total energy        : -0.1892E-03 eV


------------------------------------------------------------
  End self-consistency iteration #    55       :  max(cpu_time)    wall_clock(cpu1)
  | Time for this iteration                     :        0.287 s           0.162 s
  | Charge density update                       :        0.001 s           0.001 s
  | Density mixing                              :        0.280 s           0.155 s
  | Hartree multipole update                    :        0.001 s           0.001 s
  | Hartree multipole summation                 :        0.002 s           0.002 s
  | Integration                                 :        0.001 s           0.002 s
  | Solution of K.-S. eqns.                     :        0.001 s           0.001 s
  | Total energy evaluation                     :        0.000 s           0.000 s

  Partial memory accounting:
  | Current value for overall tracked memory usage:
  |   Minimum:        0.355 MB (on task 27)
  |   Maximum:        0.421 MB (on task  3)
  |   Average:        0.378 MB
  | Peak value for overall tracked memory usage:
  |   Minimum:        0.558 MB (on task 27 after allocating gradient_basis_wave)
  |   Maximum:        0.624 MB (on task  3 after allocating gradient_basis_wave)
  |   Average:        0.581 MB
  | Largest tracked array allocation so far:
  |   Minimum:        0.149 MB (gradient_basis_wave on task  0)
  |   Maximum:        0.153 MB (gradient_basis_wave on task  1)
  |   Average:        0.152 MB
  Note:  These values currently only include a subset of arrays which are explicitly tracked.
  The "true" memory usage will be greater.
------------------------------------------------------------

------------------------------------------------------------
          Begin self-consistency iteration #   56

  Date     :  20260724, Time     :  132410.805
------------------------------------------------------------
  SCF convergence analysis is based on: Mixed KS density changes
  Charge density: The charge density seems to be converging.
                  The linear fit of ln(rho_delta) over the last 15 steps has a slope of  -0.1243
  Estimated 20 more steps to reach target accuracy

  Pulay mixing of updated and previous charge densities.
  Available memory per node after mixing [GB]:   1007.37
  Renormalizing the density to the exact electron count on the 3D integration grid.
  | Formal number of electrons (from input files) :      28.0000000000
  | Integrated number of electrons on 3D grid     :      28.0000000000
  | Charge integration error                      :      -0.0000000000
  | Normalization factor for density and gradient :       1.0000000000

  Evaluating partitioned Hartree potential by multipole expansion.
  | Original multipole sum: apparent total charge =  -0.118069E-14
  | Sum of charges compensated after spline to logarithmic grids =   0.512915E-05
  | Analytical far-field extrapolation by fixed multipoles:
  | Hartree multipole sum: apparent total charge =  -0.118069E-14
  Summing up the Hartree potential.
  Time summed over all CPUs for potential: real work        0.001 s, elapsed        0.001 s
  | RMS charge density error from multipole expansion :   0.103513E-02

  Integrating Hamiltonian matrix: batch-based integration.
  Time summed over all CPUs for integration: real work        0.075 s, elapsed        0.086 s

  Updating Kohn-Sham eigenvalues and eigenvectors using ELSI and the ELPA eigensolver.
  Starting ELPA eigensolver
  Finished transformation to standard eigenproblem
  | Time :     0.000 s
  Finished solving standard eigenproblem
  | Time :     0.001 s
  Finished back-transformation of eigenvectors
  | Time :     0.000 s

  Obtaining occupation numbers and electronic chemical potential using ELSI.
  | Note that, for insulating systems, the printed 'chemical potential' value is not uniquely defined.
  | It can be anywhere in the energy gap, as long as it correctly separates occupied and unoccupied states.
  | In systems with a gap, the physically relevant chemical potential is the VBM or HOMO.

  | Chemical potential (Fermi level):    -4.70718146 eV
  Highest occupied state (VBM) at     -4.71818256 eV
  | Occupation number:      1.88024212

  Lowest unoccupied state (CBM) at    -4.69886447 eV
  | Occupation number:      0.23951493

  This system has fractional occupation numbers. Thus, it is a degenerate system
  within the approximate finite broadening function (occupation_type)
  applied to determine the occupation numbers.
  This may not be harmful. However, for some systems (free atoms), a different, non-degenerate
  ground state might exist by using a smaller broadening (see keyword occupation_type).
  Overall HOMO-LUMO gap:      0.00000000 eV.

  Total energy components:
  | Sum of eigenvalues            :        -338.29301945 Ha       -9205.42142591 eV
  | XC energy correction          :         -41.92309542 Ha       -1140.78546880 eV
  | XC potential correction       :          54.12840846 Ha        1472.90893510 eV
  | Free-atom electrostatic energy:        -273.18239678 Ha       -7433.67123748 eV
  | Hartree energy correction     :          -0.91455335 Ha         -24.88626284 eV
  | Entropy correction            :          -0.00011372 Ha          -0.00309447 eV
  | ---------------------------
  | Total energy                  :        -600.18465653 Ha      -16331.85545993 eV
  | Total energy, T -> 0          :        -600.18477025 Ha      -16331.85855440 eV  <-- do not rely on this value for anything but (periodic) metals
  | Electronic free energy        :        -600.18488397 Ha      -16331.86164887 eV

  Derived energy quantities:
  | Kinetic energy                :         601.70976558 Ha       16373.35578849 eV
  | Electrostatic energy          :       -1159.97132669 Ha      -31564.42577962 eV
  | Energy correction for multipole
  | error in Hartree potential    :          -0.00062482 Ha          -0.01700211 eV
  | Sum of eigenvalues per atom                           :       -4602.71071295 eV
  | Total energy (T->0) per atom                          :       -8165.92927720 eV  <-- do not rely on this value for anything but (periodic) metals
  | Electronic free energy per atom                       :       -8165.93082443 eV
  Evaluating new KS density.
  Integration grid: deviation in total charge (<rho> - N_e) =  -2.719744E-10

  Self-consistency convergence accuracy:
  | Change of charge density      :  0.3491E-03
  | Change of unmixed KS density  :  0.1134E-02
  | Change of sum of eigenvalues  :  0.1690E-03 eV
  | Change of total energy        :  0.8260E-04 eV


------------------------------------------------------------
  End self-consistency iteration #    56       :  max(cpu_time)    wall_clock(cpu1)
  | Time for this iteration                     :        0.290 s           0.099 s
  | Charge density update                       :        0.001 s           0.001 s
  | Density mixing                              :        0.284 s           0.092 s
  | Hartree multipole update                    :        0.001 s           0.001 s
  | Hartree multipole summation                 :        0.002 s           0.002 s
  | Integration                                 :        0.001 s           0.002 s
  | Solution of K.-S. eqns.                     :        0.001 s           0.001 s
  | Total energy evaluation                     :        0.000 s           0.000 s

  Partial memory accounting:
  | Current value for overall tracked memory usage:
  |   Minimum:        0.355 MB (on task 27)
  |   Maximum:        0.421 MB (on task  3)
  |   Average:        0.378 MB
  | Peak value for overall tracked memory usage:
  |   Minimum:        0.558 MB (on task 27 after allocating gradient_basis_wave)
  |   Maximum:        0.624 MB (on task  3 after allocating gradient_basis_wave)
  |   Average:        0.581 MB
  | Largest tracked array allocation so far:
  |   Minimum:        0.149 MB (gradient_basis_wave on task  0)
  |   Maximum:        0.153 MB (gradient_basis_wave on task  1)
  |   Average:        0.152 MB
  Note:  These values currently only include a subset of arrays which are explicitly tracked.
  The "true" memory usage will be greater.
------------------------------------------------------------

------------------------------------------------------------
          Begin self-consistency iteration #   57

  Date     :  20260724, Time     :  132410.919
------------------------------------------------------------
  SCF convergence analysis is based on: Mixed KS density changes
  Charge density: The charge density seems to be converging.
                  The linear fit of ln(rho_delta) over the last 15 steps has a slope of  -0.1375
  Estimated 16 more steps to reach target accuracy

  Pulay mixing of updated and previous charge densities.
  Available memory per node after mixing [GB]:   1007.37
  Renormalizing the density to the exact electron count on the 3D integration grid.
  | Formal number of electrons (from input files) :      28.0000000000
  | Integrated number of electrons on 3D grid     :      27.9999999997
  | Charge integration error                      :      -0.0000000003
  | Normalization factor for density and gradient :       1.0000000000

  Evaluating partitioned Hartree potential by multipole expansion.
  | Original multipole sum: apparent total charge =   0.649380E-14
  | Sum of charges compensated after spline to logarithmic grids =   0.512907E-05
  | Analytical far-field extrapolation by fixed multipoles:
  | Hartree multipole sum: apparent total charge =   0.600185E-14
  Summing up the Hartree potential.
  Time summed over all CPUs for potential: real work        0.001 s, elapsed        0.001 s
  | RMS charge density error from multipole expansion :   0.103512E-02

  Integrating Hamiltonian matrix: batch-based integration.
  Time summed over all CPUs for integration: real work        0.075 s, elapsed        0.081 s

  Updating Kohn-Sham eigenvalues and eigenvectors using ELSI and the ELPA eigensolver.
  Starting ELPA eigensolver
  Finished transformation to standard eigenproblem
  | Time :     0.000 s
  Finished solving standard eigenproblem
  | Time :     0.001 s
  Finished back-transformation of eigenvectors
  | Time :     0.000 s

  Obtaining occupation numbers and electronic chemical potential using ELSI.
  | Note that, for insulating systems, the printed 'chemical potential' value is not uniquely defined.
  | It can be anywhere in the energy gap, as long as it correctly separates occupied and unoccupied states.
  | In systems with a gap, the physically relevant chemical potential is the VBM or HOMO.

  | Chemical potential (Fermi level):    -4.70719652 eV
  Highest occupied state (VBM) at     -4.71821956 eV
  | Occupation number:      1.88097837

  Lowest unoccupied state (CBM) at    -4.69885342 eV
  | Occupation number:      0.23804323

  This system has fractional occupation numbers. Thus, it is a degenerate system
  within the approximate finite broadening function (occupation_type)
  applied to determine the occupation numbers.
  This may not be harmful. However, for some systems (free atoms), a different, non-degenerate
  ground state might exist by using a smaller broadening (see keyword occupation_type).
  Overall HOMO-LUMO gap:      0.00000000 eV.

  Total energy components:
  | Sum of eigenvalues            :        -338.29302302 Ha       -9205.42152297 eV
  | XC energy correction          :         -41.92309550 Ha       -1140.78547095 eV
  | XC potential correction       :          54.12840857 Ha        1472.90893800 eV
  | Free-atom electrostatic energy:        -273.18239678 Ha       -7433.67123748 eV
  | Hartree energy correction     :          -0.91455085 Ha         -24.88619494 eV
  | Entropy correction            :          -0.00011320 Ha          -0.00308024 eV
  | ---------------------------
  | Total energy                  :        -600.18465758 Ha      -16331.85548835 eV
  | Total energy, T -> 0          :        -600.18477077 Ha      -16331.85856858 eV  <-- do not rely on this value for anything but (periodic) metals
  | Electronic free energy        :        -600.18488397 Ha      -16331.86164882 eV

  Derived energy quantities:
  | Kinetic energy                :         601.70977283 Ha       16373.35598587 eV
  | Electrostatic energy          :       -1159.97133491 Ha      -31564.42600327 eV
  | Energy correction for multipole
  | error in Hartree potential    :          -0.00062480 Ha          -0.01700159 eV
  | Sum of eigenvalues per atom                           :       -4602.71076148 eV
  | Total energy (T->0) per atom                          :       -8165.92928429 eV  <-- do not rely on this value for anything but (periodic) metals
  | Electronic free energy per atom                       :       -8165.93082441 eV
  Evaluating new KS density.
  Integration grid: deviation in total charge (<rho> - N_e) =   8.954295E-10

  Self-consistency convergence accuracy:
  | Change of charge density      :  0.1527E-03
  | Change of unmixed KS density  :  0.4904E-03
  | Change of sum of eigenvalues  : -0.9706E-04 eV
  | Change of total energy        : -0.2842E-04 eV


------------------------------------------------------------
  End self-consistency iteration #    57       :  max(cpu_time)    wall_clock(cpu1)
  | Time for this iteration                     :        0.265 s           0.260 s
  | Charge density update                       :        0.001 s           0.001 s
  | Density mixing                              :        0.259 s           0.254 s
  | Hartree multipole update                    :        0.001 s           0.001 s
  | Hartree multipole summation                 :        0.002 s           0.002 s
  | Integration                                 :        0.001 s           0.001 s
  | Solution of K.-S. eqns.                     :        0.001 s           0.001 s
  | Total energy evaluation                     :        0.000 s           0.000 s

  Partial memory accounting:
  | Current value for overall tracked memory usage:
  |   Minimum:        0.355 MB (on task 27)
  |   Maximum:        0.421 MB (on task  3)
  |   Average:        0.378 MB
  | Peak value for overall tracked memory usage:
  |   Minimum:        0.558 MB (on task 27 after allocating gradient_basis_wave)
  |   Maximum:        0.624 MB (on task  3 after allocating gradient_basis_wave)
  |   Average:        0.581 MB
  | Largest tracked array allocation so far:
  |   Minimum:        0.149 MB (gradient_basis_wave on task  0)
  |   Maximum:        0.153 MB (gradient_basis_wave on task  1)
  |   Average:        0.152 MB
  Note:  These values currently only include a subset of arrays which are explicitly tracked.
  The "true" memory usage will be greater.
------------------------------------------------------------

------------------------------------------------------------
          Begin self-consistency iteration #   58

  Date     :  20260724, Time     :  132411.371
------------------------------------------------------------
  SCF convergence analysis is based on: Mixed KS density changes
  Charge density: The charge density seems to be converging.
                  The linear fit of ln(rho_delta) over the last 15 steps has a slope of  -0.1559
  Estimated 8 more steps to reach target accuracy

  Pulay mixing of updated and previous charge densities.
  Available memory per node after mixing [GB]:   1007.37
  Renormalizing the density to the exact electron count on the 3D integration grid.
  | Formal number of electrons (from input files) :      28.0000000000
  | Integrated number of electrons on 3D grid     :      28.0000000004
  | Charge integration error                      :       0.0000000004
  | Normalization factor for density and gradient :       1.0000000000

  Evaluating partitioned Hartree potential by multipole expansion.
  | Original multipole sum: apparent total charge =   0.491955E-15
  | Sum of charges compensated after spline to logarithmic grids =   0.512908E-05
  | Analytical far-field extrapolation by fixed multipoles:
  | Hartree multipole sum: apparent total charge =   0.688737E-15
  Summing up the Hartree potential.
  Time summed over all CPUs for potential: real work        0.001 s, elapsed        0.001 s
  | RMS charge density error from multipole expansion :   0.103513E-02

  Integrating Hamiltonian matrix: batch-based integration.
  Time summed over all CPUs for integration: real work        0.075 s, elapsed        0.085 s

  Updating Kohn-Sham eigenvalues and eigenvectors using ELSI and the ELPA eigensolver.
  Starting ELPA eigensolver
  Finished transformation to standard eigenproblem
  | Time :     0.000 s
  Finished solving standard eigenproblem
  | Time :     0.000 s
  Finished back-transformation of eigenvectors
  | Time :     0.000 s

  Obtaining occupation numbers and electronic chemical potential using ELSI.
  | Note that, for insulating systems, the printed 'chemical potential' value is not uniquely defined.
  | It can be anywhere in the energy gap, as long as it correctly separates occupied and unoccupied states.
  | In systems with a gap, the physically relevant chemical potential is the VBM or HOMO.

  | Chemical potential (Fermi level):    -4.70718838 eV
  Highest occupied state (VBM) at     -4.71819906 eV
  | Occupation number:      1.88056372

  Lowest unoccupied state (CBM) at    -4.69886001 eV
  | Occupation number:      0.23887247

  This system has fractional occupation numbers. Thus, it is a degenerate system
  within the approximate finite broadening function (occupation_type)
  applied to determine the occupation numbers.
  This may not be harmful. However, for some systems (free atoms), a different, non-degenerate
  ground state might exist by using a smaller broadening (see keyword occupation_type).
  Overall HOMO-LUMO gap:      0.00000000 eV.

  Total energy components:
  | Sum of eigenvalues            :        -338.29301987 Ha       -9205.42143745 eV
  | XC energy correction          :         -41.92309560 Ha       -1140.78547391 eV
  | XC potential correction       :          54.12840871 Ha        1472.90894185 eV
  | Free-atom electrostatic energy:        -273.18239678 Ha       -7433.67123748 eV
  | Hartree energy correction     :          -0.91455344 Ha         -24.88626533 eV
  | Entropy correction            :          -0.00011349 Ha          -0.00308826 eV
  | ---------------------------
  | Total energy                  :        -600.18465699 Ha      -16331.85547232 eV
  | Total energy, T -> 0          :        -600.18477048 Ha      -16331.85856058 eV  <-- do not rely on this value for anything but (periodic) metals
  | Electronic free energy        :        -600.18488397 Ha      -16331.86164884 eV

  Derived energy quantities:
  | Kinetic energy                :         601.70977068 Ha       16373.35592747 eV
  | Electrostatic energy          :       -1159.97133207 Ha      -31564.42592588 eV
  | Energy correction for multipole
  | error in Hartree potential    :          -0.00062481 Ha          -0.01700186 eV
  | Sum of eigenvalues per atom                           :       -4602.71071872 eV
  | Total energy (T->0) per atom                          :       -8165.92928029 eV  <-- do not rely on this value for anything but (periodic) metals
  | Electronic free energy per atom                       :       -8165.93082442 eV
  Evaluating new KS density.
  Integration grid: deviation in total charge (<rho> - N_e) =   8.611849E-10

  Self-consistency convergence accuracy:
  | Change of charge density      :  0.2060E-04
  | Change of unmixed KS density  :  0.1695E-03
  | Change of sum of eigenvalues  :  0.8552E-04 eV
  | Change of total energy        :  0.1603E-04 eV


------------------------------------------------------------
  End self-consistency iteration #    58       :  max(cpu_time)    wall_clock(cpu1)
  | Time for this iteration                     :        0.271 s           0.089 s
  | Charge density update                       :        0.001 s           0.001 s
  | Density mixing                              :        0.265 s           0.082 s
  | Hartree multipole update                    :        0.001 s           0.001 s
  | Hartree multipole summation                 :        0.002 s           0.002 s
  | Integration                                 :        0.001 s           0.001 s
  | Solution of K.-S. eqns.                     :        0.001 s           0.001 s
  | Total energy evaluation                     :        0.000 s           0.000 s

  Partial memory accounting:
  | Current value for overall tracked memory usage:
  |   Minimum:        0.355 MB (on task 27)
  |   Maximum:        0.421 MB (on task  3)
  |   Average:        0.378 MB
  | Peak value for overall tracked memory usage:
  |   Minimum:        0.558 MB (on task 27 after allocating gradient_basis_wave)
  |   Maximum:        0.624 MB (on task  3 after allocating gradient_basis_wave)
  |   Average:        0.581 MB
  | Largest tracked array allocation so far:
  |   Minimum:        0.149 MB (gradient_basis_wave on task  0)
  |   Maximum:        0.153 MB (gradient_basis_wave on task  1)
  |   Average:        0.152 MB
  Note:  These values currently only include a subset of arrays which are explicitly tracked.
  The "true" memory usage will be greater.
------------------------------------------------------------

------------------------------------------------------------
          Begin self-consistency iteration #   59

  Date     :  20260724, Time     :  132411.626
------------------------------------------------------------
  SCF convergence analysis is based on: Mixed KS density changes
  Charge density: The charge density seems to be converging.
                  The linear fit of ln(rho_delta) over the last 15 steps has a slope of  -0.1666
  Estimated 11 more steps to reach target accuracy

  Pulay mixing of updated and previous charge densities.
  Available memory per node after mixing [GB]:   1007.37
  Renormalizing the density to the exact electron count on the 3D integration grid.
  | Formal number of electrons (from input files) :      28.0000000000
  | Integrated number of electrons on 3D grid     :      28.0000000003
  | Charge integration error                      :       0.0000000003
  | Normalization factor for density and gradient :       1.0000000000

  Evaluating partitioned Hartree potential by multipole expansion.
  | Original multipole sum: apparent total charge =   0.954392E-14
  | Sum of charges compensated after spline to logarithmic grids =   0.512906E-05
  | Analytical far-field extrapolation by fixed multipoles:
  | Hartree multipole sum: apparent total charge =   0.117085E-13
  Summing up the Hartree potential.
  Time summed over all CPUs for potential: real work        0.001 s, elapsed        0.001 s
  | RMS charge density error from multipole expansion :   0.103512E-02

  Integrating Hamiltonian matrix: batch-based integration.
  Time summed over all CPUs for integration: real work        0.075 s, elapsed        0.084 s

  Updating Kohn-Sham eigenvalues and eigenvectors using ELSI and the ELPA eigensolver.
  Starting ELPA eigensolver
  Finished transformation to standard eigenproblem
  | Time :     0.000 s
  Finished solving standard eigenproblem
  | Time :     0.000 s
  Finished back-transformation of eigenvectors
  | Time :     0.001 s

  Obtaining occupation numbers and electronic chemical potential using ELSI.
  | Note that, for insulating systems, the printed 'chemical potential' value is not uniquely defined.
  | It can be anywhere in the energy gap, as long as it correctly separates occupied and unoccupied states.
  | In systems with a gap, the physically relevant chemical potential is the VBM or HOMO.

  | Chemical potential (Fermi level):    -4.70719431 eV
  Highest occupied state (VBM) at     -4.71821410 eV
  | Occupation number:      1.88086963

  Lowest unoccupied state (CBM) at    -4.69885507 eV
  | Occupation number:      0.23826019

  This system has fractional occupation numbers. Thus, it is a degenerate system
  within the approximate finite broadening function (occupation_type)
  applied to determine the occupation numbers.
  This may not be harmful. However, for some systems (free atoms), a different, non-degenerate
  ground state might exist by using a smaller broadening (see keyword occupation_type).
  Overall HOMO-LUMO gap:      0.00000000 eV.

  Total energy components:
  | Sum of eigenvalues            :        -338.29302120 Ha       -9205.42147362 eV
  | XC energy correction          :         -41.92309564 Ha       -1140.78547494 eV
  | XC potential correction       :          54.12840876 Ha        1472.90894321 eV
  | Free-atom electrostatic energy:        -273.18239678 Ha       -7433.67123748 eV
  | Hartree energy correction     :          -0.91455256 Ha         -24.88624131 eV
  | Entropy correction            :          -0.00011327 Ha          -0.00308234 eV
  | ---------------------------
  | Total energy                  :        -600.18465742 Ha      -16331.85548415 eV
  | Total energy, T -> 0          :        -600.18477070 Ha      -16331.85856648 eV  <-- do not rely on this value for anything but (periodic) metals
  | Electronic free energy        :        -600.18488397 Ha      -16331.86164882 eV

  Derived energy quantities:
  | Kinetic energy                :         601.70977355 Ha       16373.35600541 eV
  | Electrostatic energy          :       -1159.97133533 Ha      -31564.42601462 eV
  | Energy correction for multipole
  | error in Hartree potential    :          -0.00062480 Ha          -0.01700163 eV
  | Sum of eigenvalues per atom                           :       -4602.71073681 eV
  | Total energy (T->0) per atom                          :       -8165.92928324 eV  <-- do not rely on this value for anything but (periodic) metals
  | Electronic free energy per atom                       :       -8165.93082441 eV
  Evaluating new KS density.
  Integration grid: deviation in total charge (<rho> - N_e) =   9.708678E-10

  Self-consistency convergence accuracy:
  | Change of charge density      :  0.7722E-04
  | Change of unmixed KS density  :  0.9553E-04
  | Change of sum of eigenvalues  : -0.3617E-04 eV
  | Change of total energy        : -0.1183E-04 eV


------------------------------------------------------------
  End self-consistency iteration #    59       :  max(cpu_time)    wall_clock(cpu1)
  | Time for this iteration                     :        0.276 s           0.120 s
  | Charge density update                       :        0.001 s           0.001 s
  | Density mixing                              :        0.270 s           0.113 s
  | Hartree multipole update                    :        0.001 s           0.001 s
  | Hartree multipole summation                 :        0.002 s           0.002 s
  | Integration                                 :        0.001 s           0.002 s
  | Solution of K.-S. eqns.                     :        0.001 s           0.001 s
  | Total energy evaluation                     :        0.000 s           0.000 s

  Partial memory accounting:
  | Current value for overall tracked memory usage:
  |   Minimum:        0.355 MB (on task 27)
  |   Maximum:        0.421 MB (on task  3)
  |   Average:        0.378 MB
  | Peak value for overall tracked memory usage:
  |   Minimum:        0.558 MB (on task 27 after allocating gradient_basis_wave)
  |   Maximum:        0.624 MB (on task  3 after allocating gradient_basis_wave)
  |   Average:        0.581 MB
  | Largest tracked array allocation so far:
  |   Minimum:        0.149 MB (gradient_basis_wave on task  0)
  |   Maximum:        0.153 MB (gradient_basis_wave on task  1)
  |   Average:        0.152 MB
  Note:  These values currently only include a subset of arrays which are explicitly tracked.
  The "true" memory usage will be greater.
------------------------------------------------------------

------------------------------------------------------------
          Begin self-consistency iteration #   60

  Date     :  20260724, Time     :  132411.966
------------------------------------------------------------
  SCF convergence analysis is based on: Mixed KS density changes
  Charge density: The charge density seems to be converging.
                  The linear fit of ln(rho_delta) over the last 15 steps has a slope of  -0.2060
  Estimated 3 more steps to reach target accuracy

  Pulay mixing of updated and previous charge densities.
  Available memory per node after mixing [GB]:   1007.37
  Renormalizing the density to the exact electron count on the 3D integration grid.
  | Formal number of electrons (from input files) :      28.0000000000
  | Integrated number of electrons on 3D grid     :      28.0000000004
  | Charge integration error                      :       0.0000000004
  | Normalization factor for density and gradient :       1.0000000000

  Evaluating partitioned Hartree potential by multipole expansion.
  | Original multipole sum: apparent total charge =   0.757610E-14
  | Sum of charges compensated after spline to logarithmic grids =   0.512904E-05
  | Analytical far-field extrapolation by fixed multipoles:
  | Hartree multipole sum: apparent total charge =   0.452598E-14
  Summing up the Hartree potential.
  Time summed over all CPUs for potential: real work        0.001 s, elapsed        0.002 s
  | RMS charge density error from multipole expansion :   0.103512E-02

  Integrating Hamiltonian matrix: batch-based integration.
  Time summed over all CPUs for integration: real work        0.075 s, elapsed        0.081 s

  Updating Kohn-Sham eigenvalues and eigenvectors using ELSI and the ELPA eigensolver.
  Starting ELPA eigensolver
  Finished transformation to standard eigenproblem
  | Time :     0.000 s
  Finished solving standard eigenproblem
  | Time :     0.001 s
  Finished back-transformation of eigenvectors
  | Time :     0.000 s

  Obtaining occupation numbers and electronic chemical potential using ELSI.
  | Note that, for insulating systems, the printed 'chemical potential' value is not uniquely defined.
  | It can be anywhere in the energy gap, as long as it correctly separates occupied and unoccupied states.
  | In systems with a gap, the physically relevant chemical potential is the VBM or HOMO.

  | Chemical potential (Fermi level):    -4.70719414 eV
  Highest occupied state (VBM) at     -4.71821296 eV
  | Occupation number:      1.88083715

  Lowest unoccupied state (CBM) at    -4.69885606 eV
  | Occupation number:      0.23832555

  This system has fractional occupation numbers. Thus, it is a degenerate system
  within the approximate finite broadening function (occupation_type)
  applied to determine the occupation numbers.
  This may not be harmful. However, for some systems (free atoms), a different, non-degenerate
  ground state might exist by using a smaller broadening (see keyword occupation_type).
  Overall HOMO-LUMO gap:      0.00000000 eV.

  Total energy components:
  | Sum of eigenvalues            :        -338.29302167 Ha       -9205.42148622 eV
  | XC energy correction          :         -41.92309560 Ha       -1140.78547390 eV
  | XC potential correction       :          54.12840871 Ha        1472.90894183 eV
  | Free-atom electrostatic energy:        -273.18239678 Ha       -7433.67123748 eV
  | Hartree energy correction     :          -0.91455204 Ha         -24.88622711 eV
  | Entropy correction            :          -0.00011330 Ha          -0.00308297 eV
  | ---------------------------
  | Total energy                  :        -600.18465738 Ha      -16331.85548287 eV
  | Total energy, T -> 0          :        -600.18477067 Ha      -16331.85856584 eV  <-- do not rely on this value for anything but (periodic) metals
  | Electronic free energy        :        -600.18488397 Ha      -16331.86164881 eV

  Derived energy quantities:
  | Kinetic energy                :         601.70977326 Ha       16373.35599762 eV
  | Electrostatic energy          :       -1159.97133503 Ha      -31564.42600660 eV
  | Energy correction for multipole
  | error in Hartree potential    :          -0.00062480 Ha          -0.01700165 eV
  | Sum of eigenvalues per atom                           :       -4602.71074311 eV
  | Total energy (T->0) per atom                          :       -8165.92928292 eV  <-- do not rely on this value for anything but (periodic) metals
  | Electronic free energy per atom                       :       -8165.93082441 eV
  Evaluating new KS density.
  Integration grid: deviation in total charge (<rho> - N_e) =  -8.865513E-10

  Self-consistency convergence accuracy:
  | Change of charge density      :  0.5066E-05
  | Change of unmixed KS density  :  0.7051E-04
  | Change of sum of eigenvalues  : -0.1260E-04 eV
  | Change of total energy        :  0.1274E-05 eV


------------------------------------------------------------
  End self-consistency iteration #    60       :  max(cpu_time)    wall_clock(cpu1)
  | Time for this iteration                     :        0.296 s           0.088 s
  | Charge density update                       :        0.001 s           0.001 s
  | Density mixing                              :        0.289 s           0.082 s
  | Hartree multipole update                    :        0.001 s           0.001 s
  | Hartree multipole summation                 :        0.002 s           0.002 s
  | Integration                                 :        0.001 s           0.001 s
  | Solution of K.-S. eqns.                     :        0.001 s           0.001 s
  | Total energy evaluation                     :        0.000 s           0.000 s

  Partial memory accounting:
  | Current value for overall tracked memory usage:
  |   Minimum:        0.355 MB (on task 27)
  |   Maximum:        0.421 MB (on task  3)
  |   Average:        0.378 MB
  | Peak value for overall tracked memory usage:
  |   Minimum:        0.558 MB (on task 27 after allocating gradient_basis_wave)
  |   Maximum:        0.624 MB (on task  3 after allocating gradient_basis_wave)
  |   Average:        0.581 MB
  | Largest tracked array allocation so far:
  |   Minimum:        0.149 MB (gradient_basis_wave on task  0)
  |   Maximum:        0.153 MB (gradient_basis_wave on task  1)
  |   Average:        0.152 MB
  Note:  These values currently only include a subset of arrays which are explicitly tracked.
  The "true" memory usage will be greater.
------------------------------------------------------------

------------------------------------------------------------
          Begin self-consistency iteration #   61

  Date     :  20260724, Time     :  132412.090
------------------------------------------------------------
  SCF convergence analysis is based on: Mixed KS density changes
  Charge density: The charge density seems to be converging.
                  The linear fit of ln(rho_delta) over the last 15 steps has a slope of  -0.2159
  Estimated 5 more steps to reach target accuracy

  Pulay mixing of updated and previous charge densities.
  Available memory per node after mixing [GB]:   1007.37
  Renormalizing the density to the exact electron count on the 3D integration grid.
  | Formal number of electrons (from input files) :      28.0000000000
  | Integrated number of electrons on 3D grid     :      27.9999999999
  | Charge integration error                      :      -0.0000000001
  | Normalization factor for density and gradient :       1.0000000000

  Evaluating partitioned Hartree potential by multipole expansion.
  | Original multipole sum: apparent total charge =   0.659219E-14
  | Sum of charges compensated after spline to logarithmic grids =   0.512904E-05
  | Analytical far-field extrapolation by fixed multipoles:
  | Hartree multipole sum: apparent total charge =   0.610024E-14
  Summing up the Hartree potential.
  Time summed over all CPUs for potential: real work        0.001 s, elapsed        0.001 s
  | RMS charge density error from multipole expansion :   0.103512E-02

  Integrating Hamiltonian matrix: batch-based integration.
  Time summed over all CPUs for integration: real work        0.075 s, elapsed        0.084 s

  Updating Kohn-Sham eigenvalues and eigenvectors using ELSI and the ELPA eigensolver.
  Starting ELPA eigensolver
  Finished transformation to standard eigenproblem
  | Time :     0.000 s
  Finished solving standard eigenproblem
  | Time :     0.000 s
  Finished back-transformation of eigenvectors
  | Time :     0.000 s

  Obtaining occupation numbers and electronic chemical potential using ELSI.
  | Note that, for insulating systems, the printed 'chemical potential' value is not uniquely defined.
  | It can be anywhere in the energy gap, as long as it correctly separates occupied and unoccupied states.
  | In systems with a gap, the physically relevant chemical potential is the VBM or HOMO.

  | Chemical potential (Fermi level):    -4.70719601 eV
  Highest occupied state (VBM) at     -4.71821767 eV
  | Occupation number:      1.88093217

  Lowest unoccupied state (CBM) at    -4.69885456 eV
  | Occupation number:      0.23813551

  This system has fractional occupation numbers. Thus, it is a degenerate system
  within the approximate finite broadening function (occupation_type)
  applied to determine the occupation numbers.
  This may not be harmful. However, for some systems (free atoms), a different, non-degenerate
  ground state might exist by using a smaller broadening (see keyword occupation_type).
  Overall HOMO-LUMO gap:      0.00000000 eV.

  Total energy components:
  | Sum of eigenvalues            :        -338.29302208 Ha       -9205.42149760 eV
  | XC energy correction          :         -41.92309561 Ha       -1140.78547397 eV
  | XC potential correction       :          54.12840872 Ha        1472.90894192 eV
  | Free-atom electrostatic energy:        -273.18239678 Ha       -7433.67123748 eV
  | Hartree energy correction     :          -0.91455175 Ha         -24.88621943 eV
  | Entropy correction            :          -0.00011323 Ha          -0.00308113 eV
  | ---------------------------
  | Total energy                  :        -600.18465751 Ha      -16331.85548655 eV
  | Total energy, T -> 0          :        -600.18477074 Ha      -16331.85856768 eV  <-- do not rely on this value for anything but (periodic) metals
  | Electronic free energy        :        -600.18488397 Ha      -16331.86164881 eV

  Derived energy quantities:
  | Kinetic energy                :         601.70977406 Ha       16373.35601929 eV
  | Electrostatic energy          :       -1159.97133596 Ha      -31564.42603187 eV
  | Energy correction for multipole
  | error in Hartree potential    :          -0.00062480 Ha          -0.01700158 eV
  | Sum of eigenvalues per atom                           :       -4602.71074880 eV
  | Total energy (T->0) per atom                          :       -8165.92928384 eV  <-- do not rely on this value for anything but (periodic) metals
  | Electronic free energy per atom                       :       -8165.93082441 eV
  Evaluating new KS density.
  Integration grid: deviation in total charge (<rho> - N_e) =  -3.775007E-10

  Self-consistency convergence accuracy:
  | Change of charge density      :  0.1278E-04
  | Change of unmixed KS density  :  0.7532E-05
  | Change of sum of eigenvalues  : -0.1138E-04 eV
  | Change of total energy        : -0.3678E-05 eV


------------------------------------------------------------
  End self-consistency iteration #    61       :  max(cpu_time)    wall_clock(cpu1)
  | Time for this iteration                     :        0.246 s           0.222 s
  | Charge density update                       :        0.001 s           0.001 s
  | Density mixing                              :        0.240 s           0.215 s
  | Hartree multipole update                    :        0.001 s           0.002 s
  | Hartree multipole summation                 :        0.002 s           0.001 s
  | Integration                                 :        0.001 s           0.002 s
  | Solution of K.-S. eqns.                     :        0.001 s           0.001 s
  | Total energy evaluation                     :        0.000 s           0.000 s

  Partial memory accounting:
  | Current value for overall tracked memory usage:
  |   Minimum:        0.355 MB (on task 27)
  |   Maximum:        0.421 MB (on task  3)
  |   Average:        0.378 MB
  | Peak value for overall tracked memory usage:
  |   Minimum:        0.558 MB (on task 27 after allocating gradient_basis_wave)
  |   Maximum:        0.624 MB (on task  3 after allocating gradient_basis_wave)
  |   Average:        0.581 MB
  | Largest tracked array allocation so far:
  |   Minimum:        0.149 MB (gradient_basis_wave on task  0)
  |   Maximum:        0.153 MB (gradient_basis_wave on task  1)
  |   Average:        0.152 MB
  Note:  These values currently only include a subset of arrays which are explicitly tracked.
  The "true" memory usage will be greater.
------------------------------------------------------------

------------------------------------------------------------
          Begin self-consistency iteration #   62

  Date     :  20260724, Time     :  132412.339
------------------------------------------------------------
  SCF convergence analysis is based on: Mixed KS density changes
  Charge density: The charge density seems to be converging.
                  The linear fit of ln(rho_delta) over the last 15 steps has a slope of  -0.2318
  Estimated 4 more steps to reach target accuracy

  Pulay mixing of updated and previous charge densities.
  Available memory per node after mixing [GB]:   1007.37
  Renormalizing the density to the exact electron count on the 3D integration grid.
  | Formal number of electrons (from input files) :      28.0000000000
  | Integrated number of electrons on 3D grid     :      27.9999999998
  | Charge integration error                      :      -0.0000000002
  | Normalization factor for density and gradient :       1.0000000000

  Evaluating partitioned Hartree potential by multipole expansion.
  | Original multipole sum: apparent total charge =   0.983910E-15
  | Sum of charges compensated after spline to logarithmic grids =   0.512905E-05
  | Analytical far-field extrapolation by fixed multipoles:
  | Hartree multipole sum: apparent total charge =   0.137747E-14
  Summing up the Hartree potential.
  Time summed over all CPUs for potential: real work        0.001 s, elapsed        0.002 s
  | RMS charge density error from multipole expansion :   0.103512E-02

  Integrating Hamiltonian matrix: batch-based integration.
  Time summed over all CPUs for integration: real work        0.074 s, elapsed        0.082 s

  Updating Kohn-Sham eigenvalues and eigenvectors using ELSI and the ELPA eigensolver.
  Starting ELPA eigensolver
  Finished transformation to standard eigenproblem
  | Time :     0.000 s
  Finished solving standard eigenproblem
  | Time :     0.000 s
  Finished back-transformation of eigenvectors
  | Time :     0.001 s

  Obtaining occupation numbers and electronic chemical potential using ELSI.
  | Note that, for insulating systems, the printed 'chemical potential' value is not uniquely defined.
  | It can be anywhere in the energy gap, as long as it correctly separates occupied and unoccupied states.
  | In systems with a gap, the physically relevant chemical potential is the VBM or HOMO.

  | Chemical potential (Fermi level):    -4.70719322 eV
  Highest occupied state (VBM) at     -4.71821121 eV
  | Occupation number:      1.88080917

  Lowest unoccupied state (CBM) at    -4.69885614 eV
  | Occupation number:      0.23838151

  This system has fractional occupation numbers. Thus, it is a degenerate system
  within the approximate finite broadening function (occupation_type)
  applied to determine the occupation numbers.
  This may not be harmful. However, for some systems (free atoms), a different, non-degenerate
  ground state might exist by using a smaller broadening (see keyword occupation_type).
  Overall HOMO-LUMO gap:      0.00000000 eV.

  Total energy components:
  | Sum of eigenvalues            :        -338.29302060 Ha       -9205.42145721 eV
  | XC energy correction          :         -41.92309565 Ha       -1140.78547521 eV
  | XC potential correction       :          54.12840877 Ha        1472.90894355 eV
  | Free-atom electrostatic energy:        -273.18239678 Ha       -7433.67123748 eV
  | Hartree energy correction     :          -0.91455308 Ha         -24.88625544 eV
  | Entropy correction            :          -0.00011332 Ha          -0.00308351 eV
  | ---------------------------
  | Total energy                  :        -600.18465734 Ha      -16331.85548180 eV
  | Total energy, T -> 0          :        -600.18477065 Ha      -16331.85856531 eV  <-- do not rely on this value for anything but (periodic) metals
  | Electronic free energy        :        -600.18488397 Ha      -16331.86164882 eV

  Derived energy quantities:
  | Kinetic energy                :         601.70977342 Ha       16373.35600186 eV
  | Electrostatic energy          :       -1159.97133510 Ha      -31564.42600845 eV
  | Energy correction for multipole
  | error in Hartree potential    :          -0.00062480 Ha          -0.01700167 eV
  | Sum of eigenvalues per atom                           :       -4602.71072861 eV
  | Total energy (T->0) per atom                          :       -8165.92928266 eV  <-- do not rely on this value for anything but (periodic) metals
  | Electronic free energy per atom                       :       -8165.93082441 eV
  Evaluating new KS density.
  Integration grid: deviation in total charge (<rho> - N_e) =   9.351240E-10

  Self-consistency convergence accuracy:
  | Change of charge density      :  0.9601E-05
  | Change of unmixed KS density  :  0.2189E-04
  | Change of sum of eigenvalues  :  0.4038E-04 eV
  | Change of total energy        :  0.4752E-05 eV


------------------------------------------------------------
  End self-consistency iteration #    62       :  max(cpu_time)    wall_clock(cpu1)
  | Time for this iteration                     :        0.252 s           0.237 s
  | Charge density update                       :        0.001 s           0.001 s
  | Density mixing                              :        0.245 s           0.230 s
  | Hartree multipole update                    :        0.001 s           0.001 s
  | Hartree multipole summation                 :        0.002 s           0.002 s
  | Integration                                 :        0.001 s           0.002 s
  | Solution of K.-S. eqns.                     :        0.001 s           0.001 s
  | Total energy evaluation                     :        0.000 s           0.000 s

  Partial memory accounting:
  | Current value for overall tracked memory usage:
  |   Minimum:        0.355 MB (on task 27)
  |   Maximum:        0.421 MB (on task  3)
  |   Average:        0.378 MB
  | Peak value for overall tracked memory usage:
  |   Minimum:        0.558 MB (on task 27 after allocating gradient_basis_wave)
  |   Maximum:        0.624 MB (on task  3 after allocating gradient_basis_wave)
  |   Average:        0.581 MB
  | Largest tracked array allocation so far:
  |   Minimum:        0.149 MB (gradient_basis_wave on task  0)
  |   Maximum:        0.153 MB (gradient_basis_wave on task  1)
  |   Average:        0.152 MB
  Note:  These values currently only include a subset of arrays which are explicitly tracked.
  The "true" memory usage will be greater.
------------------------------------------------------------

------------------------------------------------------------
          Begin self-consistency iteration #   63

  Date     :  20260724, Time     :  132412.664
------------------------------------------------------------
  SCF convergence analysis is based on: Mixed KS density changes
  Charge density: The charge density seems to be converging.
                  The linear fit of ln(rho_delta) over the last 15 steps has a slope of  -0.2333
  Estimated 6 more steps to reach target accuracy

  Pulay mixing of updated and previous charge densities.
  Available memory per node after mixing [GB]:   1007.37
  Renormalizing the density to the exact electron count on the 3D integration grid.
  | Formal number of electrons (from input files) :      28.0000000000
  | Integrated number of electrons on 3D grid     :      28.0000000001
  | Charge integration error                      :       0.0000000001
  | Normalization factor for density and gradient :       1.0000000000

  Evaluating partitioned Hartree potential by multipole expansion.
  | Original multipole sum: apparent total charge =   0.118069E-13
  | Sum of charges compensated after spline to logarithmic grids =   0.512904E-05
  | Analytical far-field extrapolation by fixed multipoles:
  | Hartree multipole sum: apparent total charge =   0.140699E-13
  Summing up the Hartree potential.
  Time summed over all CPUs for potential: real work        0.001 s, elapsed        0.001 s
  | RMS charge density error from multipole expansion :   0.103512E-02

  Integrating Hamiltonian matrix: batch-based integration.
  Time summed over all CPUs for integration: real work        0.075 s, elapsed        0.084 s

  Updating Kohn-Sham eigenvalues and eigenvectors using ELSI and the ELPA eigensolver.
  Starting ELPA eigensolver
  Finished transformation to standard eigenproblem
  | Time :     0.000 s
  Finished solving standard eigenproblem
  | Time :     0.001 s
  Finished back-transformation of eigenvectors
  | Time :     0.000 s

  Obtaining occupation numbers and electronic chemical potential using ELSI.
  | Note that, for insulating systems, the printed 'chemical potential' value is not uniquely defined.
  | It can be anywhere in the energy gap, as long as it correctly separates occupied and unoccupied states.
  | In systems with a gap, the physically relevant chemical potential is the VBM or HOMO.

  | Chemical potential (Fermi level):    -4.70719486 eV
  Highest occupied state (VBM) at     -4.71821529 eV
  | Occupation number:      1.88089073

  Lowest unoccupied state (CBM) at    -4.69885488 eV
  | Occupation number:      0.23821830

  This system has fractional occupation numbers. Thus, it is a degenerate system
  within the approximate finite broadening function (occupation_type)
  applied to determine the occupation numbers.
  This may not be harmful. However, for some systems (free atoms), a different, non-degenerate
  ground state might exist by using a smaller broadening (see keyword occupation_type).
  Overall HOMO-LUMO gap:      0.00000000 eV.

  Total energy components:
  | Sum of eigenvalues            :        -338.29302113 Ha       -9205.42147160 eV
  | XC energy correction          :         -41.92309564 Ha       -1140.78547485 eV
  | XC potential correction       :          54.12840876 Ha        1472.90894307 eV
  | Free-atom electrostatic energy:        -273.18239678 Ha       -7433.67123748 eV
  | Hartree energy correction     :          -0.91455266 Ha         -24.88624410 eV
  | Entropy correction            :          -0.00011326 Ha          -0.00308193 eV
  | ---------------------------
  | Total energy                  :        -600.18465745 Ha      -16331.85548495 eV
  | Total energy, T -> 0          :        -600.18477071 Ha      -16331.85856688 eV  <-- do not rely on this value for anything but (periodic) metals
  | Electronic free energy        :        -600.18488397 Ha      -16331.86164881 eV

  Derived energy quantities:
  | Kinetic energy                :         601.70977400 Ha       16373.35601774 eV
  | Electrostatic energy          :       -1159.97133581 Ha      -31564.42602784 eV
  | Energy correction for multipole
  | error in Hartree potential    :          -0.00062480 Ha          -0.01700161 eV
  | Sum of eigenvalues per atom                           :       -4602.71073580 eV
  | Total energy (T->0) per atom                          :       -8165.92928344 eV  <-- do not rely on this value for anything but (periodic) metals
  | Electronic free energy per atom                       :       -8165.93082441 eV
  Evaluating new KS density.
  Integration grid: deviation in total charge (<rho> - N_e) =   4.038014E-11

  Self-consistency convergence accuracy:
  | Change of charge density      :  0.1937E-04
  | Change of unmixed KS density  :  0.2834E-04
  | Change of sum of eigenvalues  : -0.1438E-04 eV
  | Change of total energy        : -0.3152E-05 eV


------------------------------------------------------------
  End self-consistency iteration #    63       :  max(cpu_time)    wall_clock(cpu1)
  | Time for this iteration                     :        0.246 s           0.169 s
  | Charge density update                       :        0.001 s           0.001 s
  | Density mixing                              :        0.239 s           0.163 s
  | Hartree multipole update                    :        0.001 s           0.001 s
  | Hartree multipole summation                 :        0.002 s           0.002 s
  | Integration                                 :        0.001 s           0.001 s
  | Solution of K.-S. eqns.                     :        0.001 s           0.001 s
  | Total energy evaluation                     :        0.000 s           0.000 s

  Partial memory accounting:
  | Current value for overall tracked memory usage:
  |   Minimum:        0.355 MB (on task 27)
  |   Maximum:        0.421 MB (on task  3)
  |   Average:        0.378 MB
  | Peak value for overall tracked memory usage:
  |   Minimum:        0.558 MB (on task 27 after allocating gradient_basis_wave)
  |   Maximum:        0.624 MB (on task  3 after allocating gradient_basis_wave)
  |   Average:        0.581 MB
  | Largest tracked array allocation so far:
  |   Minimum:        0.149 MB (gradient_basis_wave on task  0)
  |   Maximum:        0.153 MB (gradient_basis_wave on task  1)
  |   Average:        0.152 MB
  Note:  These values currently only include a subset of arrays which are explicitly tracked.
  The "true" memory usage will be greater.
------------------------------------------------------------

------------------------------------------------------------
          Begin self-consistency iteration #   64

  Date     :  20260724, Time     :  132412.903
------------------------------------------------------------
  SCF convergence analysis is based on: Mixed KS density changes
  Charge density: The charge density has already converged to the target accuracy.

  Pulay mixing of updated and previous charge densities.
  Available memory per node after mixing [GB]:   1007.37
  Renormalizing the density to the exact electron count on the 3D integration grid.
  | Formal number of electrons (from input files) :      28.0000000000
  | Integrated number of electrons on 3D grid     :      28.0000000000
  | Charge integration error                      :      -0.0000000000
  | Normalization factor for density and gradient :       1.0000000000

  Evaluating partitioned Hartree potential by multipole expansion.
  | Original multipole sum: apparent total charge =   0.177104E-14
  | Sum of charges compensated after spline to logarithmic grids =   0.512904E-05
  | Analytical far-field extrapolation by fixed multipoles:
  | Hartree multipole sum: apparent total charge =   0.196782E-15
  Summing up the Hartree potential.
  Time summed over all CPUs for potential: real work        0.001 s, elapsed        0.002 s
  | RMS charge density error from multipole expansion :   0.103512E-02

  Integrating Hamiltonian matrix: batch-based integration.
  Time summed over all CPUs for integration: real work        0.075 s, elapsed        0.085 s

  Updating Kohn-Sham eigenvalues and eigenvectors using ELSI and the ELPA eigensolver.
  Starting ELPA eigensolver
  Finished transformation to standard eigenproblem
  | Time :     0.001 s
  Finished solving standard eigenproblem
  | Time :     0.000 s
  Finished back-transformation of eigenvectors
  | Time :     0.000 s

  Obtaining occupation numbers and electronic chemical potential using ELSI.
  | Note that, for insulating systems, the printed 'chemical potential' value is not uniquely defined.
  | It can be anywhere in the energy gap, as long as it correctly separates occupied and unoccupied states.
  | In systems with a gap, the physically relevant chemical potential is the VBM or HOMO.

  | Chemical potential (Fermi level):    -4.70719490 eV
  Highest occupied state (VBM) at     -4.71821535 eV
  | Occupation number:      1.88089166

  Lowest unoccupied state (CBM) at    -4.69885489 eV
  | Occupation number:      0.23821652

  This system has fractional occupation numbers. Thus, it is a degenerate system
  within the approximate finite broadening function (occupation_type)
  applied to determine the occupation numbers.
  This may not be harmful. However, for some systems (free atoms), a different, non-degenerate
  ground state might exist by using a smaller broadening (see keyword occupation_type).
  Overall HOMO-LUMO gap:      0.00000000 eV.

  Total energy components:
  | Sum of eigenvalues            :        -338.29302117 Ha       -9205.42147285 eV
  | XC energy correction          :         -41.92309564 Ha       -1140.78547478 eV
  | XC potential correction       :          54.12840875 Ha        1472.90894299 eV
  | Free-atom electrostatic energy:        -273.18239678 Ha       -7433.67123748 eV
  | Hartree energy correction     :          -0.91455262 Ha         -24.88624286 eV
  | Entropy correction            :          -0.00011326 Ha          -0.00308191 eV
  | ---------------------------
  | Total energy                  :        -600.18465745 Ha      -16331.85548498 eV
  | Total energy, T -> 0          :        -600.18477071 Ha      -16331.85856690 eV  <-- do not rely on this value for anything but (periodic) metals
  | Electronic free energy        :        -600.18488397 Ha      -16331.86164881 eV

  Derived energy quantities:
  | Kinetic energy                :         601.70977399 Ha       16373.35601737 eV
  | Electrostatic energy          :       -1159.97133580 Ha      -31564.42602757 eV
  | Energy correction for multipole
  | error in Hartree potential    :          -0.00062480 Ha          -0.01700161 eV
  | Sum of eigenvalues per atom                           :       -4602.71073642 eV
  | Total energy (T->0) per atom                          :       -8165.92928345 eV  <-- do not rely on this value for anything but (periodic) metals
  | Electronic free energy per atom                       :       -8165.93082441 eV

  Self-consistency convergence accuracy:
  | Change of charge density      :  0.1538E-06
  | Change of unmixed KS density  :  0.1880E-04
  | Change of sum of eigenvalues  : -0.1250E-05 eV
  | Change of total energy        : -0.3370E-07 eV

  Writing Kohn-Sham eigenvalues.

  State    Occupation    Eigenvalue [Ha]    Eigenvalue [eV]
      1       2.00000         -88.575721        -2410.26799
      2       2.00000         -46.443734        -1263.79830
      3       2.00000          -7.676390         -208.88519
      4       2.00000          -5.653336         -153.83510
      5       2.00000          -5.643239         -153.56034
      6       2.00000          -5.643239         -153.56034
      7       2.00000          -3.011188          -81.93860
      8       2.00000          -1.790028          -48.70914
      9       2.00000          -1.790028          -48.70914
     10       2.00000          -1.787558          -48.64192
     11       2.00000          -0.545270          -14.83755
     12       2.00000          -0.240083           -6.53299
     13       1.88089          -0.173391           -4.71822
     14       1.88089          -0.173391           -4.71822
     15       0.23822          -0.172680           -4.69885
     16       0.00000          -0.054676           -1.48780
     17       0.00000          -0.054676           -1.48780
     18       0.00000          -0.000870           -0.02367
     19       0.00000           0.073690            2.00520
     20       0.00000           0.096619            2.62912

  Highest occupied state (VBM) at     -4.71821535 eV
  | Occupation number:      1.88089166

  Lowest unoccupied state (CBM) at    -4.69885489 eV
  | Occupation number:      0.23821652

  This system has fractional occupation numbers. Thus, it is a degenerate system
  within the approximate finite broadening function (occupation_type)
  applied to determine the occupation numbers.
  This may not be harmful. However, for some systems (free atoms), a different, non-degenerate
  ground state might exist by using a smaller broadening (see keyword occupation_type).
  Overall HOMO-LUMO gap:      0.00000000 eV.

  | Chemical Potential                          :    -4.70719490 eV
  | Note that, for insulating systems, the printed 'chemical potential' value is not uniquely defined.
  | It can be anywhere in the energy gap, as long as it correctly separates occupied and unoccupied states.
  | In systems with a gap, the physically relevant chemical potential is the VBM or HOMO.

  Self-consistency cycle converged.


------------------------------------------------------------
  End self-consistency iteration #    64       :  max(cpu_time)    wall_clock(cpu1)
  | Time for this iteration                     :        0.242 s           0.182 s
  | Charge density update                       :        0.000 s           0.000 s
  | Density mixing                              :        0.236 s           0.176 s
  | Hartree multipole update                    :        0.001 s           0.001 s
  | Hartree multipole summation                 :        0.002 s           0.002 s
  | Integration                                 :        0.001 s           0.001 s
  | Solution of K.-S. eqns.                     :        0.001 s           0.001 s
  | Total energy evaluation                     :        0.000 s           0.001 s

  Partial memory accounting:
  | Current value for overall tracked memory usage:
  |   Minimum:        0.355 MB (on task 27)
  |   Maximum:        0.421 MB (on task  3)
  |   Average:        0.378 MB
  | Peak value for overall tracked memory usage:
  |   Minimum:        0.558 MB (on task 27 after allocating gradient_basis_wave)
  |   Maximum:        0.624 MB (on task  3 after allocating gradient_basis_wave)
  |   Average:        0.581 MB
  | Largest tracked array allocation so far:
  |   Minimum:        0.149 MB (gradient_basis_wave on task  0)
  |   Maximum:        0.153 MB (gradient_basis_wave on task  1)
  |   Average:        0.152 MB
  Note:  These values currently only include a subset of arrays which are explicitly tracked.
  The "true" memory usage will be greater.
------------------------------------------------------------

  Energy and forces in a compact form:
  | Total energy uncorrected      :         -0.163318554849849E+05 eV
  | Total energy corrected        :         -0.163318585668993E+05 eV  <-- do not rely on this value for anything but (periodic) metals
  | Electronic free energy        :         -0.163318616488137E+05 eV

  ------------------------------------ 
  Start decomposition of the XC Energy 
  ------------------------------------ 
  X and C from original XC functional choice 
  Hartree-Fock Energy :          0.000000000 Ha              0.000000000 eV
  X Energy            :        -40.903481882 Ha          -1113.040372873 eV
  C Energy            :         -1.019613754 Ha            -27.745101909 eV
  XC Energy w/o HF    :        -41.923095636 Ha          -1140.785474783 eV
  Total XC Energy     :        -41.923095636 Ha          -1140.785474783 eV
  ------------------------------------ 
  LDA X and C from self-consistent density 
  X Energy LDA        :        -37.752408264 Ha          -1027.295297061 eV
  C Energy LDA        :         -2.129149739 Ha            -57.937112204 eV
  ------------------------------------ 
  End decomposition of the XC Energy 
  ------------------------------------ 

------------------------------------------------------------

------------------------------------------------------------------------------
  Final output of selected total energy values:

  The following output summarizes some interesting total energy values
  at the end of a run (AFTER all relaxation, molecular dynamics, etc.).

  | Total energy of the DFT / Hartree-Fock s.c.f. calculation      :         -16331.855484985 eV
  | Final zero-broadening corrected energy (caution - metals only) :         -16331.858566899 eV
  | For reference only, the value of 1 Hartree used in FHI-aims is :             27.211384500 eV

  Before relying on these values, please be sure to understand exactly which
  total energy value is referred to by a given number. Different objects may
  all carry the same name 'total energy'. Definitions:

  Total energy of the DFT / Hartree-Fock s.c.f. calculation:
  | Note that this energy does not include ANY quantities calculated after the
  | s.c.f. cycle, in particular not ANY RPA, MP2, etc. many-body perturbation terms.

  Final zero-broadening corrected energy:
  | For metallic systems only, a broadening of the occupation numbers at the Fermi
  | level can be extrapolated back to zero broadening by an electron-gas inspired
  | formula. For all systems that are not real metals, this value can be
  | meaningless and should be avoided.

------------------------------------------------------------------------------
  Methods described in the following list of references were used in this FHI-aims run.
  If you publish the results, please make sure to cite these reference if they apply.
  FHI-aims is an academic code, and for our developers (often, Ph.D. students
  and postdocs), scientific credit in the community is essential.
  Thank you for helping us!

  For any use of FHI-aims, please cite:

    Volker Blum, Ralf Gehrke, Felix Hanke, Paula Havu, Ville Havu,
    Xinguo Ren, Karsten Reuter, and Matthias Scheffler
    'Ab initio molecular simulations with numeric atom-centered orbitals'
    Computer Physics Communications 180, 2175-2196 (2009)
    http://doi.org/10.1016/j.cpc.2009.06.022


  The ELSI infrastructure was used in your run to solve the Kohn-Sham electronic structure.
  Please check out https://wordpress.elsi-interchange.org to learn more.
  If scalability is important for your project, please acknowledge ELSI by citing:

    V. W-z. Yu, F. Corsetti, A. Garcia, W. P. Huhn, M. Jacquelin, W. Jia,
    B. Lange, L. Lin, J. Lu, W. Mi, A. Seifitokaldani, A. Vazquez-Mayagoitia,
    C. Yang, H. Yang, and V. Blum
    'ELSI: A unified software interface for Kohn-Sham electronic structure solvers'
    Computer Physics Communications 222, 267-285 (2018).
    http://doi.org/10.1016/j.cpc.2017.09.007


  For the real-space grid partitioning and parallelization used in this calculation, please cite:

    Ville Havu, Volker Blum, Paula Havu, and Matthias Scheffler,
    'Efficient O(N) integration for all-electron electronic structure calculation'
    'using numerically tabulated basis functions'
    Journal of Computational Physics 228, 8367-8379 (2009).
    http://doi.org/10.1016/j.jcp.2009.08.008

  Of course, there are many other important community references, e.g., those cited in the
  above references. Our list is limited to references that describe implementations in the
  FHI-aims code. The reason is purely practical (length of this list) - please credit others as well.
------------------------------------------------------------
Warnings summary:

At least    1 warnings were raised during execution.
** WARNING:
 * A warning was issued further up regarding the speed of the s.c.f. convergence.
   One or more s.c.f. cycles took more than 50 s.c.f. iterations.
   It might be worth adjusting your convergence settings. For example,
   metals need a larger broadening and a smaller "charge_mix_param" value than semiconduct
ors.
** END OF WARNING

------------------------------------------------------------
          Leaving FHI-aims.
          Date     :  20260724, Time     :  132413.347

          Computational steps:
          | Number of self-consistency cycles          :           64
          | Number of SCF (re)initializations          :            1

          Detailed time accounting                     :  max(cpu_time)    wall_clock(cpu1)
          | Total time                                  :       15.741 s          19.187 s
          | Preparation time                            :        0.202 s           0.578 s
          | Boundary condition initalization            :        0.003 s           0.003 s
          | Grid partitioning                           :        0.015 s           0.015 s
          | Preloading free-atom quantities on grid     :        0.004 s           0.005 s
          | Free-atom superposition energy              :        0.001 s           0.001 s
          | Total time for integrations                 :        0.103 s           0.112 s
          | Total time for solution of K.-S. equations  :        0.367 s           0.396 s
          | Total time for density update               :        0.059 s           0.066 s
          | Total time for mixing                       :       16.538 s          11.356 s
          | Total time for Hartree multipole update     :        0.074 s           0.079 s
          | Total time for Hartree multipole sum        :        0.120 s           0.115 s
          | Total time for total energy evaluation      :        0.006 s           0.002 s
          | Total time for scaled ZORA corrections      :        0.000 s           0.000 s

          Partial memory accounting:
          | Residual value for overall tracked memory usage across tasks:     0.000000 MB (should be 0.000000 MB)
          | Peak values for overall tracked memory usage:
          |   Minimum:        0.558 MB (on task 27 after allocating gradient_basis_wave)
          |   Maximum:        0.624 MB (on task  3 after allocating gradient_basis_wave)
          |   Average:        0.581 MB
          | Largest tracked array allocation:
          |   Minimum:        0.149 MB (gradient_basis_wave on task  0)
          |   Maximum:        0.153 MB (gradient_basis_wave on task  1)
          |   Average:        0.152 MB
          Note:  These values currently only include a subset of arrays which are explicitly tracked.
          The "true" memory usage will be greater.

          Have a nice day.
------------------------------------------------------------
