------------------------------------------------------------
          Invoking FHI-aims ...

          When using FHI-aims, please cite the following reference:

            Volker Blum, Ralf Gehrke, Felix Hanke, Paula Havu,
            Ville Havu, Xinguo Ren, Karsten Reuter, and Matthias Scheffler,
            'Ab Initio Molecular Simulations with Numeric Atom-Centered Orbitals',
            Computer Physics Communications 180, 2175-2196 (2009)

          In addition, many other developments in FHI-aims are likely important for
          your particular application. If so, please cite them. A partial list of references
          is written at the end of this file. Thank you for giving credit to the authors
          of these developments.

          For general information about FHI-aims please find us at

            https://fhi-aims.org

          Online tutorials can be found at

            https://fhi-aims-club.gitlab.io/tutorials/tutorials-overview/

          For any questions about FHI-aims, please visit our slack channel at

            https://fhi-aims.slack.com

          and our main development and support site at

            https://aims-git.rz-berlin.mpg.de .

          The latter site, in particular, has a wiki to collect information, as well
          as an issue tracker to log discussions, suggest improvements, and report issues
          or bugs. https://aims-git.rz-berlin.mpg.de is also the main development site
          of the project and all new and updated code versions can be obtained there.
          Please send an email to aims-coordinators@ms1p.org and we will add
          you to these sites. They are for you and everyone is welcome there.

------------------------------------------------------------



  Date     :  20260729, Time     :  181624.012
  Time zero on CPU 1             :   0.341487000000000E+00  s.
  Internal wall clock time zero  :           554580984.012  s.

  FHI-aims created a unique identifier for this run for later identification
  aims_uuid : 93759637-C939-4CBB-A3E0-B7D9D4609D93

  Build configuration of the current instance of FHI-aims
  -------------------------------------------------------
  FHI-aims version      : 260331
  Commit number         : GITDIR-NOTFOUND
  CMake host system     : Linux-4.18.0-553.97.1.el8_10.x86_64
  CMake version         : 3.31.6
  OS Distribution       : Rocky Linux 8.10 (Green Obsidian)
  Built on              : Intel(R) Xeon(R) w5-3435X
  Fortran compiler      : /mnt/sw/nix/store/pa59vldasm7gxpr7dkijhk09q5qq63q1-openmpi-4.1.8/bin/mpifort (GNU) version 13.3.0
  Fortran compiler flags: -O2 -fallow-argument-mismatch -ffree-line-length-none
  C compiler            : /mnt/sw/nix/store/pa59vldasm7gxpr7dkijhk09q5qq63q1-openmpi-4.1.8/bin/mpicc (GNU) version 13.3.0
  C compiler flags      : -O2
  C++ compiler          : /mnt/sw/nix/store/pa59vldasm7gxpr7dkijhk09q5qq63q1-openmpi-4.1.8/bin/mpicxx (GNU) version 13.3.0
  C++ compiler flags    : -O2
  HIP compiler          :
  HIP compiler flags    :
  HIP GPU arch          :
  Using MPI
  Using ScaLAPACK
  Using LibXC
  Using i-PI
  Using RLSY
  Using GREENX
  Linking against: /mnt/sw/nix/store/dwd607jzx9m5bdd100br72s3b6g05zrf-intel-oneapi-mkl-2024.2.2/mkl/2024.2/lib/libmkl_intel_lp64.so
                   /mnt/sw/nix/store/dwd607jzx9m5bdd100br72s3b6g05zrf-intel-oneapi-mkl-2024.2.2/mkl/2024.2/lib/libmkl_sequential.so
                   /mnt/sw/nix/store/dwd607jzx9m5bdd100br72s3b6g05zrf-intel-oneapi-mkl-2024.2.2/mkl/2024.2/lib/libmkl_core.so
                   /mnt/sw/nix/store/dwd607jzx9m5bdd100br72s3b6g05zrf-intel-oneapi-mkl-2024.2.2/mkl/2024.2/lib/libmkl_blacs_openmpi_lp64.so
                   /mnt/sw/nix/store/dwd607jzx9m5bdd100br72s3b6g05zrf-intel-oneapi-mkl-2024.2.2/mkl/2024.2/lib/libmkl_scalapack_lp64.so

  Using       64 parallel tasks.
  Task        0 on host worker6187 reporting.
  Task        1 on host worker6187 reporting.
  Task        2 on host worker6187 reporting.
  Task        3 on host worker6187 reporting.
  Task        4 on host worker6187 reporting.
  Task        5 on host worker6187 reporting.
  Task        6 on host worker6187 reporting.
  Task        7 on host worker6187 reporting.
  Task        8 on host worker6187 reporting.
  Task        9 on host worker6187 reporting.
  Task       10 on host worker6187 reporting.
  Task       11 on host worker6187 reporting.
  Task       12 on host worker6187 reporting.
  Task       13 on host worker6187 reporting.
  Task       14 on host worker6187 reporting.
  Task       15 on host worker6187 reporting.
  Task       16 on host worker6187 reporting.
  Task       17 on host worker6187 reporting.
  Task       18 on host worker6187 reporting.
  Task       19 on host worker6187 reporting.
  Task       20 on host worker6187 reporting.
  Task       21 on host worker6187 reporting.
  Task       22 on host worker6187 reporting.
  Task       23 on host worker6187 reporting.
  Task       24 on host worker6187 reporting.
  Task       25 on host worker6187 reporting.
  Task       26 on host worker6187 reporting.
  Task       27 on host worker6187 reporting.
  Task       28 on host worker6187 reporting.
  Task       29 on host worker6187 reporting.
  Task       30 on host worker6187 reporting.
  Task       31 on host worker6187 reporting.
  Task       32 on host worker6188 reporting.
  Task       33 on host worker6188 reporting.
  Task       34 on host worker6188 reporting.
  Task       35 on host worker6188 reporting.
  Task       36 on host worker6188 reporting.
  Task       37 on host worker6188 reporting.
  Task       38 on host worker6188 reporting.
  Task       39 on host worker6188 reporting.
  Task       40 on host worker6188 reporting.
  Task       41 on host worker6188 reporting.
  Task       42 on host worker6188 reporting.
  Task       43 on host worker6188 reporting.
  Task       44 on host worker6188 reporting.
  Task       45 on host worker6188 reporting.
  Task       46 on host worker6188 reporting.
  Task       47 on host worker6188 reporting.
  Task       48 on host worker6188 reporting.
  Task       49 on host worker6188 reporting.
  Task       50 on host worker6188 reporting.
  Task       51 on host worker6188 reporting.
  Task       52 on host worker6188 reporting.
  Task       53 on host worker6188 reporting.
  Task       54 on host worker6188 reporting.
  Task       55 on host worker6188 reporting.
  Task       56 on host worker6188 reporting.
  Task       57 on host worker6188 reporting.
  Task       58 on host worker6188 reporting.
  Task       59 on host worker6188 reporting.
  Task       60 on host worker6188 reporting.
  Task       61 on host worker6188 reporting.
  Task       62 on host worker6188 reporting.
  Task       63 on host worker6188 reporting.

  Obtaining array dimensions for all initial allocations:
  
  -----------------------------------------------------------------------
  Parsing control.in (first pass over file, find array dimensions only).
  The contents of control.in will be repeated verbatim below
  unless switched off by setting 'verbatim_writeout .false.' .
  in the first line of control.in .
  -----------------------------------------------------------------------
  
  override_warning_libxc             True
  xc                                 libxc MGGA_X_R2SCAN+MGGA_C_R2SCAN
  
  spin                               none
  charge                             0
  
  relativistic                       atomic_zora scalar
  atomic_solver_xc                   pbe
  ionic_solver_xc                    pbe
  
  occupation_type                    gaussian 0.01
  
  sc_accuracy_rho                    1e-06
  sc_accuracy_eev                    1e-03
  sc_accuracy_etot                   1e-06
  occupation_acc                     1e-09
  
  charge_mix_param                   0.1
  n_max_pulay                        8
  max_zeroin                         20000
  
  # Species defaults for H
  ################################################################################
  #
  #  FHI-aims code project
  #  Volker Blum, 2017
  #
  #  Suggested "intermediate" defaults for H atom (to be pasted into control.in file)
  #
  ################################################################################
    species        H
  #     global species definitions
      nucleus             1
      mass                1.00794
  #
      l_hartree           6
  #
      cut_pot             4.0  2.0  1.0
      basis_dep_cutoff    1e-4
  #
      radial_base         24 7.0
      radial_multiplier   2
      angular_grids       specified
        division   0.1930   50
        division   0.3175  110
        division   0.4293  194
        division   0.5066  302
        division   0.5626  434
  #      division   0.5922  590
  #      division   0.6227  974
  #      division   0.6868 1202
  #      outer_grid  770
        outer_grid  434
  ################################################################################
  #
  #  Definition of "minimal" basis
  #
  ################################################################################
  #     valence basis states
      valence      1  s   1.
  #     ion occupancy
      ion_occ      1  s   0.5
  ################################################################################
  #
  #  Suggested additional basis functions. For production calculations,
  #  uncomment them one after another (the most important basis functions are
  #  listed first).
  #
  #  Basis constructed for dimers: 0.5 A, 0.7 A, 1.0 A, 1.5 A, 2.5 A
  #
  ################################################################################
  #  "First tier" - improvements: -1014.90 meV to -62.69 meV
       hydro 2 s 2.1
       hydro 2 p 3.5
  #  "Second tier" - improvements: -12.89 meV to -1.83 meV
       hydro 1 s 0.85
  #     hydro 2 p 3.7
  #     hydro 2 s 1.2
    for_aux    hydro 3 d 7
  #  "Third tier" - improvements: -0.25 meV to -0.12 meV
  #     hydro 4 f 11.2
  #     hydro 3 p 4.8
  #     hydro 4 d 9
  #     hydro 3 s 3.2
  
  # Species defaults for B
  ################################################################################
  #
  #  FHI-aims code project
  #  Volker Blum, 2019
  #
  #  Suggested "intermediate" defaults for B atom (to be pasted into control.in file)
  #
  ################################################################################
    species        B
  #     global species definitions
      nucleus             5
      mass                10.811
  #
      l_hartree           6
  #
      cut_pot             4.0  2.0  1.0
      basis_dep_cutoff    1e-4
  #
      radial_base         32 7.0
      radial_multiplier   2
      angular_grids       specified
        division   0.3742  110
        division   0.5197  194
        division   0.5753  302
        division   0.7664  434
  #      division   0.8392  770
  #      division   1.6522  974
  #      outer_grid   974
        outer_grid  434
  ################################################################################
  #
  #  Definition of "minimal" basis
  #
  ################################################################################
  #     valence basis states
      valence      2  s   2.
      valence      2  p   1.
  #     ion occupancy
      ion_occ      2  s   1.
  ################################################################################
  #
  #  Suggested additional basis functions. For production calculations,
  #  uncomment them one after another (the most important basis functions are
  #  listed first).
  #
  #  Constructed for dimers: 1.25 A, 1.625 A, 2.5 A, 3.5 A
  #
  ################################################################################
  #  "First tier" - improvements: -710.52 meV to -92.39 meV
       hydro 2 p 1.4
       hydro 3 d 4.8
       hydro 2 s 4
  #  "Second tier" - improvements: -33.88 meV to -2.20 meV
       hydro 4 f 7.8
  #     hydro 3 p 4.2
  #     hydro 3 s 3.3
    for_aux   hydro 5 g 11.2
  #     hydro 3 d 5.4
  #  "Third tier" - improvements: -1.28 meV to -0.36 meV
  #     hydro 2 p 4.7
  #     hydro 2 s 8.4
  #     hydro 4 d 5.8
  #  "Fourth tier" - improvements: -0.25 meV to -0.12 meV
  #     hydro 3 p 2.2
  #     hydro 3 s 3
  #     hydro 4 f 9.8
  #     hydro 5 g 12.8
  #     hydro 4 d 10
  #  Further functions
  #     hydro 4 f 14
  #     hydro 3 p 12.4
  ################################################################################
  #
  # For methods that use the localized form of the "resolution of identity" for
  # the two-electron Coulomb operator (RI_method LVL), particularly Hartree-Fock and
  # hybrid density functional calculations, the highest accuracy can be obtained by
  # uncommenting the line beginning with "for_aux"  below, thus adding an extra g radial
  # function to the construction of the product basis set for the expansion.
  # See Ref. New J. Phys. 17, 093020 (2015) for more information, particularly Figs. 1 and 6.
  #
  ################################################################################
  #
  # for_aux hydro 5 g 6.0
  
  # Species defaults for P
  ################################################################################
  #
  #  FHI-aims code project
  #  Volker Blum, Maria Dragoumi, Sebastian Kokott 2020
  #
  #  Suggested "intermediate" defaults for P atom (to be pasted into control.in file)
  #
  ################################################################################
    species        P
  #     global species definitions
      nucleus             15
      mass                30.973762
  #
      l_hartree           6
  #
      cut_pot             4.0          2.0  1.0
      basis_dep_cutoff    1e-4
  #
      radial_base         43 7.0
      radial_multiplier   2
      angular_grids       specified
        division   0.2995   50
        division   0.5998  110
        division   0.9240  194
        division   1.0921  302
        division   1.2863  434
  #      division   1.3165  590
  #      division   1.4113  770
  #      division   1.5128  974
  #      division   2.4980 1202
        outer_grid  434
  ################################################################################
  #
  #  Definition of "minimal" basis
  #
  ################################################################################
  #     valence basis states
      valence      3  s   2.
      valence      3  p   3.
  #     ion occupancy
      ion_occ      3  s   1.
      ion_occ      3  p   2.
  ################################################################################
  #
  #  Suggested additional basis functions. For production calculations,
  #  uncomment them one after another (the most important basis functions are
  #  listed first).
  #
  #  Constructed for dimers: 1.625 A, 1.875 A, 2.5 A, 3.25 A, 4.0 A
  #
  ################################################################################
  #  "First tier" - improvements: -726.20 meV to -35.91 meV
       ionic 3 d auto
       ionic 3 p auto
       hydro 4 f 6.2
    for_aux   hydro 5 g 8.6
       ionic 3 s auto
  #  "Second tier" - improvements: -16.02 meV to -1.71 meV
  #     hydro 4 d 6.2
  #     hydro 4 p 9.2
  #     hydro 5 f 9.8
  #     hydro 1 s 0.7
  #     hydro 5 g 13.2
  #  "Third tier" - improvements: -1.82 meV to -0.20 meV
  #     hydro 3 p 2.5
  #     hydro 4 d 6.4
  #     hydro 5 f 11.2
  #     hydro 2 s 1.5
  #  "Fourth tier" - improvements: -0.91 meV to -0.17 meV
  #     hydro 3 d 16.8
  #     hydro 5 g 18
  #     hydro 4 p 4.5
  #     hydro 3 s 2.1
  #  Further basis functions that fell out of the optimization - < -0.09 meV
  #     hydro 4 p 10.4
  #     hydro 4 d 17.6
  #     hydro 4 s 11.2
  ################################################################################
  #
  # For methods that use the localized form of the "resolution of identity" for
  # the two-electron Coulomb operator (RI_method LVL), particularly Hartree-Fock and
  # hybrid density functional calculations, the highest accuracy can be obtained by
  # uncommenting the line beginning with "for_aux"  below, thus adding an extra g radial
  # function to the construction of the product basis set for the expansion.
  # See Ref. New J. Phys. 17, 093020 (2015) for more information, particularly Figs. 1 and 6.
  #
  ################################################################################
  #
  # for_aux hydro 5 g 6.0
  
  -----------------------------------------------------------------------
  Completed first pass over input file control.in .
  -----------------------------------------------------------------------
  
  
  -----------------------------------------------------------------------
  Parsing geometry.in (first pass over file, find array dimensions only).
  The contents of geometry.in will be repeated verbatim below
  unless switched off by setting 'verbatim_writeout .false.' .
  in the first line of geometry.in .
  -----------------------------------------------------------------------
  
  #===============================================================================
  # Created using the Atomic Simulation Environment (ASE)
  
  # Wed Jul 29 18:09:32 2026
  
  #=======================================================
  atom 0.0000000000000000 -0.0000005421676746 1.0449999999998594 B
  atom 0.0000000000000000 0.0000005421676746 -1.0449999999998594 P
  atom 0.0000000000000000 1.1687464578323254 1.3270909999998592 H
  atom -1.0121659999999999 -0.5843765421676745 1.3270869999998594 H
  atom 1.0121659999999999 -0.5843775421676746 1.3270879999998593 H
  atom 0.0000000000000000 -1.2367374578323256 -1.7021029999998594 H
  atom -1.0710420000000000 0.6183665421676746 -1.7021069999998595 H
  atom 1.0710409999999999 0.6183675421676745 -1.7021079999998594 H
  
  -----------------------------------------------------------------------
  Completed first pass over input file geometry.in .
  -----------------------------------------------------------------------
  

  Basic array size parameters:
  | Number of species                 :        3
  | Number of atoms                   :        8
  | Max. basis fn. angular momentum   :        4
  | Max. atomic/ionic basis occupied n:        3
  | Max. number of basis fn. types    :        3
  | Max. radial fns per species/type  :        5
  | Max. logarithmic grid size        :     1352
  | Max. radial integration grid size :       87
  | Max. angular integration grid size:      434
  | Max. angular grid division number :        8
  | Radial grid for Hartree potential :     1352
  | Number of spin channels           :        1

  Definition of standardized fundamental physical constants in this FHI-aims run:
  | Using the set of values used in FHI-aims up to 2024, which combines values from
  | different CODATA sets - see constants.f90.
  | Use the 'codata' keyword in control.in to change this selection.

  Memory overcommitment is allowed on your operating system.

------------------------------------------------------------
          Reading file control.in.
------------------------------------------------------------
  XC: Using LibXC. Please refer to LibXC output for further details.
  Using libxc - Initializing
  Libxc version: 6.1.0

  You have selected libxc functional MGGA_X_R2SCAN (497)
    - Description: Re-regularized SCAN exchange by Furness et al
    - Type: MGGA(Exchange)
    - Using the following   6 external libxc parameters:
               _c1 = 0.667000000000D+00  (c1 parameter)
               _c2 = 0.800000000000D+00  (c2 parameter)
                _d = 0.124000000000D+01  (d parameter)
               _k1 = 0.650000000000D-01  (k1 parameter)
              _eta = 0.100000000000D-02  (eta parameter)
              _dp2 = 0.361000000000D+00  (dp2 parameter)
    - Reference to Literature:
      [1] J. W. Furness, A. D. Kaplan, J. Ning, J. P. Perdew, and J. Sun.,  J. Phys. Chem. Lett. 11, 8208-8215 (2020)
      [2] J. W. Furness, A. D. Kaplan, J. Ning, J. P. Perdew, and J. Sun.,  J. Phys. Chem. Lett. 11, 9248-9248 (2020)

  You have selected libxc functional MGGA_C_R2SCAN (498)
    - Description: Re-regularized SCAN correlation by Furness et al
    - Type: MGGA(Correlation)
    - Using the following   1 external libxc parameters:
              _eta = 0.100000000000D-02  (Regularization parameter)
    - Reference to Literature:
      [1] J. W. Furness, A. D. Kaplan, J. Ning, J. P. Perdew, and J. Sun.,  J. Phys. Chem. Lett. 11, 8208-8215 (2020)
      [2] J. W. Furness, A. D. Kaplan, J. Ning, J. P. Perdew, and J. Sun.,  J. Phys. Chem. Lett. 11, 9248-9248 (2020)

  Switching on meta-ggas
  Spin treatment: No spin polarisation.
  Charge =   0.000000E+00: Neutral system requested explicitly.
  Scalar relativistic treatment of kinetic energy: on-site free-atom approximation to ZORA.
  Atomic Solver XC: Using user-defined functional for generating the minimal NAO basis functions.
  Note that only the following functionals are available: kli, pz-lda, pw-lda, vwn, vwn-gauss, pw91_gga, pbe, rpbe, revpbe, pbeint, pbesol, blyp.
  Ionic Solver XC: Using user-defined functional for generating the minimal NAO basis functions.
  Note that only the following functionals are available: kli, pz-lda, pw-lda, vwn, vwn-gauss, pw91_gga, pbe, rpbe, revpbe, pbeint, pbesol, blyp.
  Occupation type: Gaussian broadening, width =   0.100000E-01 eV.
  Convergence accuracy of self-consistent charge density:  0.1000E-05
  Convergence accuracy of sum of eigenvalues:  0.1000E-02
  Convergence accuracy of total energy:  0.1000E-05
  Accuracy of occupation numbers  :  0.1000E-08
  Charge density mixing - mixing parameter:     0.1000
  Pulay mixing - number of memorized iterations:    8
  Maximum # of zeroin steps  : ****

  Reading configuration options for species H                   .
  | Found nuclear charge :   1.0000
  | Found atomic mass :    1.0079400000000001      amu
  | Found l_max for Hartree potential  :   6
  | Found cutoff potl. onset [A], width [A], scale factor :    4.00000    2.00000    1.00000
  | Threshold for basis-dependent cutoff potential is   0.100000E-03
  | Found data for basic radial integration grid :    24 points, outermost radius =    7.000 A
  | Found multiplier for basic radial grid :   2
  | Found angular grid specification: user-specified.
  | Specified grid contains     6 separate shells.
  | Check grid settings after all constraints further below.
  | Found free-atom valence shell :  1 s   1.000
  | Found free-ion valence shell :  1 s   0.500
  | Found hydrogenic basis function :  2 s   2.100
  | Found hydrogenic basis function :  2 p   3.500
  | Found hydrogenic basis function :  1 s   0.850
  | Found hydrogenic extended basis function :  3 d   7.000
 | Encountered keyword species, ending the description of species H                   .
  Species H                   : Missing cutoff potential type.
  Defaulting to exp(1/x)/(1-x)^2 type cutoff potential.
  Species H : No 'logarithmic' tag. Using default grid for free atom:
  | Default logarithmic grid data [bohr] : 0.1000E-03 0.1000E+03 0.1012E+01
  Species H : On-site basis accuracy parameter (for Gram-Schmidt orthonormalisation) not specified.
  Using default value basis_acc =  0.1000000E-03.
  Species H                   : Using default innermost maximum threshold i_radial=  2 for radial functions.
  Species H                   : Default cutoff onset for free atom density etc. : 0.40000000E+01 AA.
  Species H                   : Basic radial grid will be enhanced according to radial_multiplier =   2, to contain    49 grid points.

  Reading configuration options for species B                   .
  | Found nuclear charge :   5.0000
  | Found atomic mass :    10.811000000000000      amu
  | Found l_max for Hartree potential  :   6
  | Found cutoff potl. onset [A], width [A], scale factor :    4.00000    2.00000    1.00000
  | Threshold for basis-dependent cutoff potential is   0.100000E-03
  | Found data for basic radial integration grid :    32 points, outermost radius =    7.000 A
  | Found multiplier for basic radial grid :   2
  | Found angular grid specification: user-specified.
  | Specified grid contains     5 separate shells.
  | Check grid settings after all constraints further below.
  | Found free-atom valence shell :  2 s   2.000
  | Found free-atom valence shell :  2 p   1.000
  | Found free-ion valence shell :  2 s   1.000
  | Found hydrogenic basis function :  2 p   1.400
  | Found hydrogenic basis function :  3 d   4.800
  | Found hydrogenic basis function :  2 s   4.000
  | Found hydrogenic basis function :  4 f   7.800
  | Found hydrogenic extended basis function :  5 g  11.200
 | Encountered keyword species, ending the description of species B                   .
  Species B                   : Missing cutoff potential type.
  Defaulting to exp(1/x)/(1-x)^2 type cutoff potential.
  Species B : No 'logarithmic' tag. Using default grid for free atom:
  | Default logarithmic grid data [bohr] : 0.1000E-03 0.1000E+03 0.1012E+01
  Species B : On-site basis accuracy parameter (for Gram-Schmidt orthonormalisation) not specified.
  Using default value basis_acc =  0.1000000E-03.
  Species B                   : Using default innermost maximum threshold i_radial=  2 for radial functions.
  Species B                   : Default cutoff onset for free atom density etc. : 0.40000000E+01 AA.
  Species B                   : Basic radial grid will be enhanced according to radial_multiplier =   2, to contain    65 grid points.

  Reading configuration options for species P                   .
  | Found nuclear charge :  15.0000
  | Found atomic mass :    30.973762000000001      amu
  | Found l_max for Hartree potential  :   6
  | Found cutoff potl. onset [A], width [A], scale factor :    4.00000    2.00000    1.00000
  | Threshold for basis-dependent cutoff potential is   0.100000E-03
  | Found data for basic radial integration grid :    43 points, outermost radius =    7.000 A
  | Found multiplier for basic radial grid :   2
  | Found angular grid specification: user-specified.
  | Specified grid contains     6 separate shells.
  | Check grid settings after all constraints further below.
  | Found free-atom valence shell :  3 s   2.000
  | Found free-atom valence shell :  3 p   3.000
  | Found free-ion valence shell :  3 s   1.000
  | Found free-ion valence shell :  3 p   2.000
  | Found ionic basis function :  3 d , default cutoff radius.
  | Found ionic basis function :  3 p , default cutoff radius.
  | Found hydrogenic basis function :  4 f   6.200
  | Found hydrogenic extended basis function :  5 g   8.600
  | Found ionic basis function :  3 s , default cutoff radius.
  Species P                   : Missing cutoff potential type.
  Defaulting to exp(1/x)/(1-x)^2 type cutoff potential.
  Species P : No 'logarithmic' tag. Using default grid for free atom:
  | Default logarithmic grid data [bohr] : 0.1000E-03 0.1000E+03 0.1012E+01
  | Will include ionic basis functions of  2.0-fold positive P                    ion.
  Species P : On-site basis accuracy parameter (for Gram-Schmidt orthonormalisation) not specified.
  Using default value basis_acc =  0.1000000E-03.
  Species P                   : Using default innermost maximum threshold i_radial=  2 for radial functions.
  Species P                   : Default cutoff onset for free atom density etc. : 0.40000000E+01 AA.
  Species P                   : Basic radial grid will be enhanced according to radial_multiplier =   2, to contain    87 grid points.

  Finished reading input file 'control.in'.

------------------------------------------------------------


------------------------------------------------------------
          Reading geometry description geometry.in.
------------------------------------------------------------
  | The smallest distance between any two atoms is         1.20230815 AA.
  | The first atom of this pair is atom number                      1 .
  | The second atom of this pair is atom number                     3 .
  Input structure read successfully.
  The structure contains        8 atoms,  and a total of         26.000 electrons.

  Input geometry:
  | No unit cell requested.
  | Atomic structure:
  |       Atom                x [A]            y [A]            z [A]
  |    1: Species B             0.00000000       -0.00000054        1.04500000
  |    2: Species P             0.00000000        0.00000054       -1.04500000
  |    3: Species H             0.00000000        1.16874646        1.32709100
  |    4: Species H            -1.01216600       -0.58437654        1.32708700
  |    5: Species H             1.01216600       -0.58437754        1.32708800
  |    6: Species H             0.00000000       -1.23673746       -1.70210300
  |    7: Species H            -1.07104200        0.61836654       -1.70210700
  |    8: Species H             1.07104100        0.61836754       -1.70210800

  Slab Identifier: This is not a periodic structure.

  Finished reading input file 'geometry.in'.



  Consistency checks for stacksize environment parameter are next.

  | Maximum stacksize for task 0: unlimited
  | Maximum stacksize for task 1: unlimited
  | Maximum stacksize for task 2: unlimited
  | Maximum stacksize for task 3: unlimited
  | Maximum stacksize for task 4: unlimited
  | Maximum stacksize for task 5: unlimited
  | Maximum stacksize for task 6: unlimited
  | Maximum stacksize for task 7: unlimited
  | Maximum stacksize for task 8: unlimited
  | Maximum stacksize for task 9: unlimited
  | Maximum stacksize for task 10: unlimited
  | Maximum stacksize for task 11: unlimited
  | Maximum stacksize for task 12: unlimited
  | Maximum stacksize for task 13: unlimited
  | Maximum stacksize for task 14: unlimited
  | Maximum stacksize for task 15: unlimited
  | Maximum stacksize for task 16: unlimited
  | Maximum stacksize for task 17: unlimited
  | Maximum stacksize for task 18: unlimited
  | Maximum stacksize for task 19: unlimited
  | Maximum stacksize for task 20: unlimited
  | Maximum stacksize for task 21: unlimited
  | Maximum stacksize for task 22: unlimited
  | Maximum stacksize for task 23: unlimited
  | Maximum stacksize for task 24: unlimited
  | Maximum stacksize for task 25: unlimited
  | Maximum stacksize for task 26: unlimited
  | Maximum stacksize for task 27: unlimited
  | Maximum stacksize for task 28: unlimited
  | Maximum stacksize for task 29: unlimited
  | Maximum stacksize for task 30: unlimited
  | Maximum stacksize for task 31: unlimited
  | Maximum stacksize for task 32: unlimited
  | Maximum stacksize for task 33: unlimited
  | Maximum stacksize for task 34: unlimited
  | Maximum stacksize for task 35: unlimited
  | Maximum stacksize for task 36: unlimited
  | Maximum stacksize for task 37: unlimited
  | Maximum stacksize for task 38: unlimited
  | Maximum stacksize for task 39: unlimited
  | Maximum stacksize for task 40: unlimited
  | Maximum stacksize for task 41: unlimited
  | Maximum stacksize for task 42: unlimited
  | Maximum stacksize for task 43: unlimited
  | Maximum stacksize for task 44: unlimited
  | Maximum stacksize for task 45: unlimited
  | Maximum stacksize for task 46: unlimited
  | Maximum stacksize for task 47: unlimited
  | Maximum stacksize for task 48: unlimited
  | Maximum stacksize for task 49: unlimited
  | Maximum stacksize for task 50: unlimited
  | Maximum stacksize for task 51: unlimited
  | Maximum stacksize for task 52: unlimited
  | Maximum stacksize for task 53: unlimited
  | Maximum stacksize for task 54: unlimited
  | Maximum stacksize for task 55: unlimited
  | Maximum stacksize for task 56: unlimited
  | Maximum stacksize for task 57: unlimited
  | Maximum stacksize for task 58: unlimited
  | Maximum stacksize for task 59: unlimited
  | Maximum stacksize for task 60: unlimited
  | Maximum stacksize for task 61: unlimited
  | Maximum stacksize for task 62: unlimited
  | Maximum stacksize for task 63: unlimited
  | Current stacksize for task 0: unlimited
  | Current stacksize for task 1: unlimited
  | Current stacksize for task 2: unlimited
  | Current stacksize for task 3: unlimited
  | Current stacksize for task 4: unlimited
  | Current stacksize for task 5: unlimited
  | Current stacksize for task 6: unlimited
  | Current stacksize for task 7: unlimited
  | Current stacksize for task 8: unlimited
  | Current stacksize for task 9: unlimited
  | Current stacksize for task 10: unlimited
  | Current stacksize for task 11: unlimited
  | Current stacksize for task 12: unlimited
  | Current stacksize for task 13: unlimited
  | Current stacksize for task 14: unlimited
  | Current stacksize for task 15: unlimited
  | Current stacksize for task 16: unlimited
  | Current stacksize for task 17: unlimited
  | Current stacksize for task 18: unlimited
  | Current stacksize for task 19: unlimited
  | Current stacksize for task 20: unlimited
  | Current stacksize for task 21: unlimited
  | Current stacksize for task 22: unlimited
  | Current stacksize for task 23: unlimited
  | Current stacksize for task 24: unlimited
  | Current stacksize for task 25: unlimited
  | Current stacksize for task 26: unlimited
  | Current stacksize for task 27: unlimited
  | Current stacksize for task 28: unlimited
  | Current stacksize for task 29: unlimited
  | Current stacksize for task 30: unlimited
  | Current stacksize for task 31: unlimited
  | Current stacksize for task 32: unlimited
  | Current stacksize for task 33: unlimited
  | Current stacksize for task 34: unlimited
  | Current stacksize for task 35: unlimited
  | Current stacksize for task 36: unlimited
  | Current stacksize for task 37: unlimited
  | Current stacksize for task 38: unlimited
  | Current stacksize for task 39: unlimited
  | Current stacksize for task 40: unlimited
  | Current stacksize for task 41: unlimited
  | Current stacksize for task 42: unlimited
  | Current stacksize for task 43: unlimited
  | Current stacksize for task 44: unlimited
  | Current stacksize for task 45: unlimited
  | Current stacksize for task 46: unlimited
  | Current stacksize for task 47: unlimited
  | Current stacksize for task 48: unlimited
  | Current stacksize for task 49: unlimited
  | Current stacksize for task 50: unlimited
  | Current stacksize for task 51: unlimited
  | Current stacksize for task 52: unlimited
  | Current stacksize for task 53: unlimited
  | Current stacksize for task 54: unlimited
  | Current stacksize for task 55: unlimited
  | Current stacksize for task 56: unlimited
  | Current stacksize for task 57: unlimited
  | Current stacksize for task 58: unlimited
  | Current stacksize for task 59: unlimited
  | Current stacksize for task 60: unlimited
  | Current stacksize for task 61: unlimited
  | Current stacksize for task 62: unlimited
  | Current stacksize for task 63: unlimited

  Consistency checks for the contents of control.in are next.

  MPI_IN_PLACE appears to work with this MPI implementation.
  | Keeping use_mpi_in_place .true. (see manual).
  Target number of points in a grid batch is not set. Defaulting to  100
  Method for grid partitioning is not set. Defaulting to parallel hash+maxmin partitioning.
  Batch size limit is not set. Defaulting to    200
  By default, will store active basis functions for each batch.
  If in need of memory, prune_basis_once .false. can be used to disable this option.
  communication_type for Hartree potential was not specified.
  Defaulting to calc_hartree .
  Defaulting to Pulay charge density mixer.
  Pulay mixer: Number of initial linear mixing iterations not set.
  Defaulting to    0 iterations.
  Work space size for distributed Hartree potential not set.
  Defaulting to   0.200000E+03 MB.
  Algorithm-dependent basis array size parameters:
  | n_max_pulay                         :        8
  Maximum number of self-consistency iterations not provided.
  Presetting  1000 iterations.
  Presetting      1001 iterations before the initial mixing cycle
  is restarted anyway using the sc_init_iter criterion / keyword.
  Presetting a factor      1.000 between actual scf density residual
  and density convergence criterion sc_accuracy_rho below which sc_init_iter
  takes no effect.
  Calculation of forces was not defined in control.in. No forces will be calculated.
  Geometry relaxation not requested: no relaxation will be performed.
  No accuracy limit for integral partition fn. given. Defaulting to  0.1000E-14.
  No threshold value for u(r) in integrations given. Defaulting to  0.1000E-05.
  No threshold value for occupation numbers given. Defaulting to  0.0000E+00.
  No accuracy for fermi level given. Defaulting to  0.1000E-19.
  Preferred method for the eigenvalue solver ('KS_method') not specified in 'control.in'.
  Calling BLACS routine to test compilation state
  Since ScaLAPACK support is enabled, defaulting to ELPA (via ELSI).
  Threshold for basis singularities not set.
  Default threshold for basis singularities:  0.1000E-04
  partition_type (choice of integration weights) for integrals was not specified.
  | Using a version of the partition function of Stratmann and coworkers ('stratmann_sparse').
  | At each grid point, the set of atoms used to build the partition table is smoothly restricted to
  | only those atoms whose free-atom density would be non-zero at that grid point.
  Partitioning for Hartree potential was not defined. Using partition_type for integrals.
  | Adjusted default value of keyword multip_moments_threshold to:       0.10000000E-11
  | This value may affect high angular momentum components of the Hartree potential in periodic systems.
  No q(lm)/r^(l+1) cutoff set for long-range Hartree potential.
  | Using default value of  0.100000E-09 .
  | Verify using the multipole_threshold keyword.
  Defaulting to new monopole extrapolation.
  Density update method: automatic selection selected.
  Charge integration errors on the 3D integration grid will be compensated
  by explicit normalization and distribution of residual charges.
  Use the "compensate_multipole_errors" flag to change this behaviour.
  Set 'collect_eigenvectors' to be '.true.' for use_density_matrix .false.
  Found potential conflicts with setting 'use_local_index' for this calculation. Will not set it.
** WARNING:

  You have specified the use of LibXC.

  ** PLEASE ** be careful using LibXC. Whilst most of the LDA, GGA and MGGA
  functionals, and hybrid variations therein, should be stable (though we
  always recommend testing!), there are several fancy functionals with e.g.
  range-separation, like HSE03/HSE06/LC-PBEh, and also MGGA functionals
  that depend on the laplacian of the density, like BR89, that are not
  fully implemented due to the infrastructure for these functionals being
  incomplete or non-generic.
  If you want to use these functionals please contact the development team
  and we will work on them with you!

** END OF WARNING

  Consistency checks for the contents of geometry.in are next.

  Number of empty states per atom not set in control.in - providing a guess from actual geometry.
  | Total number of empty states used during s.c.f. cycle:       15
  If you use a very high smearing, use empty_states (per atom!) in control.in to increase this value.

  Structure-dependent array size parameters: 
  | Maximum number of distinct radial functions  :       23
  | Maximum number of basis functions            :      130
  | Number of Kohn-Sham states (occupied + empty):       28
------------------------------------------------------------
  After read_input_data [GB]:   1035.41

  Performing system and environment tests:
  | Environment variable OMP_NUM_THREADS correctly set to 1.
  | Checking for ScaLAPACK...
  | Testing pdtran()...
  *** WARNING: CPU mismatch detected for Node worker6188 : Intel(R) Xeon(R) Platinum 8362 CPU @ 2.80GHz                                                 
  | All pdtran() tests passed.
  | Testing CPU compatibility for run-time vs. build-time.
  | Reading /proc/cpuinfo for CPU information ...
  | Built for  : Intel(R) Xeon(R) w5-3435X
  *** WARNING: CPU mismatch detected for Node worker6187 : Intel(R) Xeon(R) Platinum 8362 CPU @ 2.80GHz                                                 
** WARNING:
  | WARNING: This FHI-aims executable was built on a different
  CPU type than the CPUs used in this run.

  | Running on different hardware than that on which a code was compiled
  | can produce incorrect results (wrong numbers) due to architecture-specific
  | optimizations made by the compiler. Those wrong numbers may occur only spuriously.
  | They are therefore very difficult to rule out even by tests ahead of time.

** END OF WARNING
  | Running on : Intel(R) Xeon(R) Platinum 8362 CPU @ 2.80GHz
  | Runtime CPU compatibility verified.
  
  After prepare_system [GB]:   1035.41

------------------------------------------------------------
          Preparing all fixed parts of the calculation.
------------------------------------------------------------
  Determining machine precision:
     2.2250738585072014E-308
  Setting up grids for atomic and cluster calculations.

  Creating wave function, potential, and density for free atoms.
  Runtime choices for atomic solver:
  | atomic solver xc        : PBE
  | compute density gradient: 1
  | compute kinetic density : T

  Species: H

  List of occupied orbitals and eigenvalues:
    n    l              occ      energy [Ha]    energy [eV]
    1    0           1.0000        -0.238386        -6.4868


  Species: B

  List of occupied orbitals and eigenvalues:
    n    l              occ      energy [Ha]    energy [eV]
    1    0           2.0000        -6.635780      -180.5688
    2    0           2.0000        -0.345517        -9.4020
    2    1           1.0000        -0.130792        -3.5590


  Species: P

  List of occupied orbitals and eigenvalues:
    n    l              occ      energy [Ha]    energy [eV]
    1    0           2.0000       -76.790257     -2089.5692
    2    0           2.0000        -6.393895      -173.9867
    3    0           2.0000        -0.512112       -13.9353
    2    1           6.0000        -4.574086      -124.4672
    3    1           3.0000        -0.201148        -5.4735


  Adding cutoff potential to free-atom effective potential.
  Creating fixed part of basis set: Ionic, confined, hydrogenic.

  H                    hydrogenic:

  List of hydrogenic basis orbitals: 
    n    l      effective z      eigenvalue [eV]  inner max. [A]     outer max. [A]     outer radius [A]   
    2    0         2.100000       -14.9965           0.193243           1.317208           5.373006
    2    1         3.500000       -41.6672           0.602369           0.602369           4.056063
    1    0         0.850000        -9.8292           0.624871           0.624871           5.373006

  List of extra hydrogenic orbitals for auxiliary basis: 
    n    l      effective z      eigenvalue [eV]  inner max. [A]     outer max. [A]     outer radius [A]   
    3    2         7.000000       -74.0753           0.680699           0.680699           3.769201


  B                    hydrogenic:

  List of hydrogenic basis orbitals: 
    n    l      effective z      eigenvalue [eV]  inner max. [A]     outer max. [A]     outer radius [A]   
    2    1         1.400000        -6.6027           1.494848           1.494848           5.462314
    3    2         4.800000       -34.8303           0.986467           0.986467           4.893206
    2    0         4.000000       -54.4226           0.101523           0.692014           3.878983
    4    3         7.800000       -51.7355           1.087819           1.087819           4.716999

  List of extra hydrogenic orbitals for auxiliary basis: 
    n    l      effective z      eigenvalue [eV]  inner max. [A]     outer max. [A]     outer radius [A]   
    5    4        11.200000       -68.2678           1.185008           1.185008           4.659684


  P                    ion:
  Runtime choices for ionic solver:
  | ionic solver xc        : PBE

  List of free ionic orbitals and eigenvalues:
    n    l      energy [Ha]    energy [eV]
    1    0       -77.734373     -2115.2599
    2    0        -7.310959      -198.9413
    3    0        -1.271460       -34.5982
    2    1        -5.492730      -149.4648
    3    1        -0.913468       -24.8567


  List of ionic basis orbitals and eigenvalues:
    n    l      energy [Ha]    energy [eV]    outer radius [A]
    3    2        -0.457450       -12.4478       5.404780
    3    1        -0.913460       -24.8565       4.724723
    3    0        -1.271453       -34.5980       4.232463


  P                    hydrogenic:

  List of hydrogenic basis orbitals: 
    n    l      effective z      eigenvalue [eV]  inner max. [A]     outer max. [A]     outer radius [A]   
    4    3         6.200000       -32.6870           1.357793           1.357793           5.339109

  List of extra hydrogenic orbitals for auxiliary basis: 
    n    l      effective z      eigenvalue [eV]  inner max. [A]     outer max. [A]     outer radius [A]   
    5    4         8.600000       -40.2502           1.534356           1.534356           5.404780

  Creating atomic-like basis functions for current effective potential.

  Species H                   :

  List of atomic basis orbitals and eigenvalues:
    n    l      energy [Ha]    energy [eV]    outer radius [A]
    1    0        -0.238386        -6.4868       5.373006


  Species B                   :

  List of atomic basis orbitals and eigenvalues:
    n    l      energy [Ha]    energy [eV]    outer radius [A]
    1    0        -6.635780      -180.5688       2.349843
    2    0        -0.345517        -9.4020       5.330380
    2    1        -0.130792        -3.5590       5.395944


  Species P                   :

  List of atomic basis orbitals and eigenvalues:
    n    l      energy [Ha]    energy [eV]    outer radius [A]
    1    0       -76.790257     -2089.5692       0.727884
    2    0        -6.393895      -173.9867       2.532824
    3    0        -0.512112       -13.9353       5.274236
    2    1        -4.574086      -124.4672       2.862183
    3    1        -0.201148        -5.4735       5.404780

  Assembling full basis from fixed parts.
  | Species H :   atomic orbital   1 s accepted.
  | Species H :    hydro orbital   2 s accepted.
  | Species H :    hydro orbital   1 s accepted.
  | Species H :    hydro orbital   2 p accepted.
  | Species B :   atomic orbital   1 s accepted.
  | Species B :    hydro orbital   2 s accepted.
  | Species B :   atomic orbital   2 s accepted.
  | Species B :   atomic orbital   2 p accepted.
  | Species B :    hydro orbital   2 p accepted.
  | Species B :    hydro orbital   3 d accepted.
  | Species B :    hydro orbital   4 f accepted.
  | Species P :   atomic orbital   1 s accepted.
  | Species P :   atomic orbital   2 s accepted.
  | Species P :    ionic orbital   3 s accepted.
  | Species P :   atomic orbital   3 s accepted.
  | Species P :   atomic orbital   2 p accepted.
  | Species P :    ionic orbital   3 p accepted.
  | Species P :   atomic orbital   3 p accepted.
  | Species P :    ionic orbital   3 d accepted.
  | Species P :    hydro orbital   4 f accepted.

  Basis size parameters after reduction:
  | Total number of radial functions:       20
  | Total number of basis functions :       82

  Assembling extended basis for auxiliary basis.
  | Species H :   atomic orbital   1 s accepted.
  | Species H :    hydro orbital   2 s accepted.
  | Species H :    hydro orbital   1 s accepted.
  | Species H :    hydro orbital   2 p accepted.
  | Species H :    hydro orbital   3 d accepted.
  | Species B :   atomic orbital   1 s accepted.
  | Species B :    hydro orbital   2 s accepted.
  | Species B :   atomic orbital   2 s accepted.
  | Species B :   atomic orbital   2 p accepted.
  | Species B :    hydro orbital   2 p accepted.
  | Species B :    hydro orbital   3 d accepted.
  | Species B :    hydro orbital   4 f accepted.
  | Species B :    hydro orbital   5 g accepted.
  | Species P :   atomic orbital   1 s accepted.
  | Species P :   atomic orbital   2 s accepted.
  | Species P :    ionic orbital   3 s accepted.
  | Species P :   atomic orbital   3 s accepted.
  | Species P :   atomic orbital   2 p accepted.
  | Species P :    ionic orbital   3 p accepted.
  | Species P :   atomic orbital   3 p accepted.
  | Species P :    ionic orbital   3 d accepted.
  | Species P :    hydro orbital   4 f accepted.
  | Species P :    hydro orbital   5 g accepted.
  Per-task memory consumption for arrays in subroutine allocate_ext:
  |           7.965532MB.

  Extended basis size parameters after reduction:
  | Total number of radial functions:       23
  | Total number of basis functions :      130

  Testing on-site integration grid accuracy.
  |  Species  Function  <phi|h_atom|phi> (log., in eV)  <phi|h_atom|phi> (rad., in eV)
           1        1                 -6.4870767962                 -6.4871688290
           1        2                 13.5032046589                 13.5028982997
           1        3                 32.8195184817                 32.8119941656
           1        4                 25.2452007246                 25.2452010322
           2        5               -180.5687569307               -180.5687561212
           2        6                 -7.1438314513                 -7.1438317353
           2        7                 12.0187568333                 12.0189574632
           2        8                 -3.5612258789                 -3.5609079337
           2        9                  5.9635381578                  5.9675020528
           2       10                 17.1402149446                 17.1402132576
           2       11                 37.0814692226                 37.0814713082
           3       12              -2089.5691986335              -2089.5691596863
           3       13               -173.9867283695               -173.9867277557
           3       14                -13.6361081844                -13.6361080848
           3       15                  6.3196202277                  6.3196248730
           3       16               -124.4672117337               -124.4672115736
           3       17                 -4.8326310060                 -4.8326301332
           3       18                  5.8128667531                  5.8123810283
           3       19                  5.1351171633                  5.1350933795
           3       20                 19.3185135835                 19.3185098349

  Preparing densities etc. for the partition functions (integrals / Hartree potential).

  Preparations completed.
  max(cpu_time)          :      0.188 s.
  Wall clock time (cpu1) :      0.589 s.
------------------------------------------------------------
  After prepare_scf [GB]:   1034.49

  Initializing index lists of integration centers etc. from given atomic structure:
  | Number of centers in hartree potential                       :         8
  | Number of centers in hartree multipole                       :         8
  | Number of centers in electron density summation              :         8
  | Number of centers in basis integrals                         :         8
  | Number of centers in integrals                               :         8
  | Number of centers in hamiltonian                             :         8
  | Number of centers in partition table from touching 0-cell    :         8
  | Number of centers in partition table total                   :         8
  After initialize_bc_dependent_lists [GB]:   1034.49

------------------------------------------------------------
          Begin self-consistency loop: Initialization.

          Date     :  20260729, Time     :  181625.005
------------------------------------------------------------
  Available memory per node after initialize_hartree_non_periodic_ewald [GB]:   1034.49
  Available memory per node after initialize_recip_hartree_potential [GB]:   1034.49
  * Using 64 tasks for Scalapack Eigenvalue solver.
  Detailed listing of tasks and assigned k-points:
  (for non-periodic systems, the "k-point" denotes an internal label only)
   Task     0 k-point     1 on worker6187
   Task     1 k-point     1 on worker6187
   Task     2 k-point     1 on worker6187
   Task     3 k-point     1 on worker6187
   Task     4 k-point     1 on worker6187
   Task     5 k-point     1 on worker6187
   Task     6 k-point     1 on worker6187
   Task     7 k-point     1 on worker6187
   Task     8 k-point     1 on worker6187
   Task     9 k-point     1 on worker6187
   Task    10 k-point     1 on worker6187
   Task    11 k-point     1 on worker6187
   Task    12 k-point     1 on worker6187
   Task    13 k-point     1 on worker6187
   Task    14 k-point     1 on worker6187
   Task    15 k-point     1 on worker6187
   Task    16 k-point     1 on worker6187
   Task    17 k-point     1 on worker6187
   Task    18 k-point     1 on worker6187
   Task    19 k-point     1 on worker6187
   Task    20 k-point     1 on worker6187
   Task    21 k-point     1 on worker6187
   Task    22 k-point     1 on worker6187
   Task    23 k-point     1 on worker6187
   Task    24 k-point     1 on worker6187
   Task    25 k-point     1 on worker6187
   Task    26 k-point     1 on worker6187
   Task    27 k-point     1 on worker6187
   Task    28 k-point     1 on worker6187
   Task    29 k-point     1 on worker6187
   Task    30 k-point     1 on worker6187
   Task    31 k-point     1 on worker6187
   Task    32 k-point     1 on worker6188
   Task    33 k-point     1 on worker6188
   Task    34 k-point     1 on worker6188
   Task    35 k-point     1 on worker6188
   Task    36 k-point     1 on worker6188
   Task    37 k-point     1 on worker6188
   Task    38 k-point     1 on worker6188
   Task    39 k-point     1 on worker6188
   Task    40 k-point     1 on worker6188
   Task    41 k-point     1 on worker6188
   Task    42 k-point     1 on worker6188
   Task    43 k-point     1 on worker6188
   Task    44 k-point     1 on worker6188
   Task    45 k-point     1 on worker6188
   Task    46 k-point     1 on worker6188
   Task    47 k-point     1 on worker6188
   Task    48 k-point     1 on worker6188
   Task    49 k-point     1 on worker6188
   Task    50 k-point     1 on worker6188
   Task    51 k-point     1 on worker6188
   Task    52 k-point     1 on worker6188
   Task    53 k-point     1 on worker6188
   Task    54 k-point     1 on worker6188
   Task    55 k-point     1 on worker6188
   Task    56 k-point     1 on worker6188
   Task    57 k-point     1 on worker6188
   Task    58 k-point     1 on worker6188
   Task    59 k-point     1 on worker6188
   Task    60 k-point     1 on worker6188
   Task    61 k-point     1 on worker6188
   Task    62 k-point     1 on worker6188
   Task    63 k-point     1 on worker6188
  Tasks:    64 split into      8 X      8 BLACS grid
  Calculating block size based on n_basis =           82  max_nprow =            8  max_npcol =            8
  ScaLAPACK block size set to:            8
  Allocating        0.002 MB for ovlp
  Allocating        0.002 MB for ham
  Allocating        0.002 MB for eigenvec
  Required Scalapack workspace - INTEGER:            1  REAL:             1
  Available memory per node after initialize_scalapack [GB]:   1034.49
  Available memory per node after aims_elsi_init_scf [GB]:   1034.49
  Available memory per node after initialize_fixed_grids [GB]:   1034.49
  Partitioning the integration grid into batches with parallel hashing+maxmin method.
  | Number of batches:     1821
  | Maximal batch size:     197
  | Minimal batch size:       2
  | Average batch size:      68.997
  | Standard deviation of batch sizes:      25.131

  Integration load balanced across    64 MPI tasks.
  Work distribution over tasks is as follows:
  Task     0 has       1920 integration points.
  Task     1 has       2013 integration points.
  Task     2 has       1924 integration points.
  Task     3 has       2000 integration points.
  Task     4 has       1923 integration points.
  Task     5 has       2008 integration points.
  Task     6 has       2080 integration points.
  Task     7 has       1922 integration points.
  Task     8 has       2064 integration points.
  Task     9 has       1957 integration points.
  Task    10 has       1909 integration points.
  Task    11 has       1918 integration points.
  Task    12 has       1932 integration points.
  Task    13 has       2073 integration points.
  Task    14 has       1995 integration points.
  Task    15 has       1933 integration points.
  Task    16 has       1993 integration points.
  Task    17 has       1959 integration points.
  Task    18 has       1999 integration points.
  Task    19 has       2070 integration points.
  Task    20 has       2082 integration points.
  Task    21 has       1932 integration points.
  Task    22 has       1910 integration points.
  Task    23 has       1942 integration points.
  Task    24 has       1930 integration points.
  Task    25 has       2011 integration points.
  Task    26 has       1923 integration points.
  Task    27 has       1952 integration points.
  Task    28 has       1906 integration points.
  Task    29 has       1925 integration points.
  Task    30 has       2091 integration points.
  Task    31 has       1936 integration points.
  Task    32 has       1935 integration points.
  Task    33 has       1949 integration points.
  Task    34 has       2088 integration points.
  Task    35 has       2046 integration points.
  Task    36 has       1935 integration points.
  Task    37 has       1909 integration points.
  Task    38 has       1962 integration points.
  Task    39 has       1925 integration points.
  Task    40 has       2051 integration points.
  Task    41 has       1908 integration points.
  Task    42 has       1994 integration points.
  Task    43 has       1927 integration points.
  Task    44 has       1907 integration points.
  Task    45 has       1917 integration points.
  Task    46 has       1944 integration points.
  Task    47 has       1992 integration points.
  Task    48 has       1907 integration points.
  Task    49 has       1909 integration points.
  Task    50 has       2070 integration points.
  Task    51 has       1940 integration points.
  Task    52 has       1918 integration points.
  Task    53 has       1955 integration points.
  Task    54 has       1906 integration points.
  Task    55 has       1985 integration points.
  Task    56 has       1928 integration points.
  Task    57 has       1945 integration points.
  Task    58 has       1913 integration points.
  Task    59 has       1915 integration points.
  Task    60 has       1907 integration points.
  Task    61 has       1928 integration points.
  Task    62 has       1988 integration points.
  Task    63 has       2009 integration points.
  Available memory per node after partition_grid [GB]:   1034.15
  Initializing partition tables, free-atom densities, potentials, etc. across the integration grid (initialize_grid_storage).
  | initialize_grid_storage: Actual outermost partition radius vs. multipole_radius_free
  | (-- VB: in principle, multipole_radius_free should be larger, hence this output)
  | Species        1: Confinement radius =              6.000000000000000 AA, multipole_radius_free =              6.071692442739658 AA.
  | Species        1: outer_partition_radius set to              6.071692442739658 AA .
  | Species        2: Confinement radius =              6.000000000000000 AA, multipole_radius_free =              6.023523403561800 AA.
  | Species        2: outer_partition_radius set to              6.023523403561800 AA .
  | Species        3: Confinement radius =              6.000000000000000 AA, multipole_radius_free =              6.033387558927091 AA.
  | Species        3: outer_partition_radius set to              6.033387558927091 AA .
  | The sparse table of interatomic distances needs          0.71 kbyte instead of         0.51 kbyte of memory.
  | Using the partition_type stratmann_smoother will reduce your memory usage.
  | Net number of integration points:   125644
  | of which are non-zero points    :   107740
  Available memory per node after initialize_grid_storage_p1 [GB]:   1034.15
  Renormalizing the initial density to the exact electron count on the 3D integration grid.
  | Initial density: Formal number of electrons (from input files) :      26.0000000000
  | Integrated number of electrons on 3D grid     :      25.9999952221
  | Charge integration error                      :      -0.0000047779
  | Normalization factor for density and gradient :       1.0000001838
  Renormalizing the free-atom superposition density to the exact electron count on the 3D integration grid.
  | Formal number of electrons (from input files) :      26.0000000000
  | Integrated number of electrons on 3D grid     :      25.9999952221
  | Charge integration error                      :      -0.0000047779
  | Normalization factor for density and gradient :       1.0000001838
  Obtaining max. number of non-zero basis functions in each batch (get_n_compute_maxes).
  | Maximal number of non-zero basis functions:       82 in task     0
  | Maximal number of non-zero basis functions:       82 in task     1
  | Maximal number of non-zero basis functions:       82 in task     2
  | Maximal number of non-zero basis functions:       82 in task     3
  | Maximal number of non-zero basis functions:       82 in task     4
  | Maximal number of non-zero basis functions:       82 in task     5
  | Maximal number of non-zero basis functions:       81 in task     6
  | Maximal number of non-zero basis functions:       82 in task     7
  | Maximal number of non-zero basis functions:       82 in task     8
  | Maximal number of non-zero basis functions:       82 in task     9
  | Maximal number of non-zero basis functions:       82 in task    10
  | Maximal number of non-zero basis functions:       82 in task    11
  | Maximal number of non-zero basis functions:       82 in task    12
  | Maximal number of non-zero basis functions:       82 in task    13
  | Maximal number of non-zero basis functions:       82 in task    14
  | Maximal number of non-zero basis functions:       82 in task    15
  | Maximal number of non-zero basis functions:       82 in task    16
  | Maximal number of non-zero basis functions:       82 in task    17
  | Maximal number of non-zero basis functions:       82 in task    18
  | Maximal number of non-zero basis functions:       82 in task    19
  | Maximal number of non-zero basis functions:       82 in task    20
  | Maximal number of non-zero basis functions:       82 in task    21
  | Maximal number of non-zero basis functions:       82 in task    22
  | Maximal number of non-zero basis functions:       82 in task    23
  | Maximal number of non-zero basis functions:       82 in task    24
  | Maximal number of non-zero basis functions:       82 in task    25
  | Maximal number of non-zero basis functions:       82 in task    26
  | Maximal number of non-zero basis functions:       82 in task    27
  | Maximal number of non-zero basis functions:       82 in task    28
  | Maximal number of non-zero basis functions:       82 in task    29
  | Maximal number of non-zero basis functions:       82 in task    30
  | Maximal number of non-zero basis functions:       82 in task    31
  | Maximal number of non-zero basis functions:       82 in task    32
  | Maximal number of non-zero basis functions:       82 in task    33
  | Maximal number of non-zero basis functions:       82 in task    34
  | Maximal number of non-zero basis functions:       82 in task    35
  | Maximal number of non-zero basis functions:       82 in task    36
  | Maximal number of non-zero basis functions:       82 in task    37
  | Maximal number of non-zero basis functions:       82 in task    38
  | Maximal number of non-zero basis functions:       82 in task    39
  | Maximal number of non-zero basis functions:       82 in task    40
  | Maximal number of non-zero basis functions:       82 in task    41
  | Maximal number of non-zero basis functions:       82 in task    42
  | Maximal number of non-zero basis functions:       82 in task    43
  | Maximal number of non-zero basis functions:       82 in task    44
  | Maximal number of non-zero basis functions:       82 in task    45
  | Maximal number of non-zero basis functions:       81 in task    46
  | Maximal number of non-zero basis functions:       82 in task    47
  | Maximal number of non-zero basis functions:       81 in task    48
  | Maximal number of non-zero basis functions:       82 in task    49
  | Maximal number of non-zero basis functions:       82 in task    50
  | Maximal number of non-zero basis functions:       82 in task    51
  | Maximal number of non-zero basis functions:       82 in task    52
  | Maximal number of non-zero basis functions:       82 in task    53
  | Maximal number of non-zero basis functions:       82 in task    54
  | Maximal number of non-zero basis functions:       82 in task    55
  | Maximal number of non-zero basis functions:       82 in task    56
  | Maximal number of non-zero basis functions:       82 in task    57
  | Maximal number of non-zero basis functions:       82 in task    58
  | Maximal number of non-zero basis functions:       82 in task    59
  | Maximal number of non-zero basis functions:       82 in task    60
  | Maximal number of non-zero basis functions:       82 in task    61
  | Maximal number of non-zero basis functions:       81 in task    62
  | Maximal number of non-zero basis functions:       82 in task    63
  Selecting the method for density update.
  Loop over occupied states selected for charge density update.
  Available memory per node after get_n_compute_maxes_p1 [GB]:   1034.15
  Allocating        0.018 MB for KS_eigenvector
  Available memory per node after allocate_matrices [GB]:   1034.15
  Available memory per node after init_comm_sparse_local_matrix_scalapack [GB]:   1034.15
  Integrating Hamiltonian matrix: batch-based integration.
  Time summed over all CPUs for integration: real work        0.462 s, elapsed        0.723 s => Consider using load balancing!
  Available memory per node after integrate hamiltonian matrix [GB]:   1034.13
  Integrating overlap matrix.
  Time summed over all CPUs for integration: real work        0.180 s, elapsed        0.323 s
  Available memory per node after integrate ovlp matrix [GB]:   1034.13
  Deallocating overlap matrix.
  Available memory per node after save_overlap_scalapack [GB]:   1034.13

  Updating Kohn-Sham eigenvalues and eigenvectors using ELSI and the ELPA eigensolver.
  Overlap matrix is not singular
  | Lowest and highest eigenvalues :  0.2089E-02,  0.4906E+01
  Finished singularity check of overlap matrix
  | Time :     0.156 s
  Starting ELPA eigensolver
  Finished Cholesky decomposition
  | Time :     0.003 s
  Finished transformation to standard eigenproblem
  | Time :     0.001 s
  Finished solving standard eigenproblem
  | Time :     0.031 s
  Finished back-transformation of eigenvectors
  | Time :     0.000 s

  Obtaining occupation numbers and electronic chemical potential using ELSI.
  | Note that, for insulating systems, the printed 'chemical potential' value is not uniquely defined.
  | It can be anywhere in the energy gap, as long as it correctly separates occupied and unoccupied states.
  | In systems with a gap, the physically relevant chemical potential is the VBM or HOMO.

  | Chemical potential (Fermi level):    -6.85110929 eV
  Available memory per node after advance_KS_solution [GB]:   1034.12
  Writing Kohn-Sham eigenvalues.

  State    Occupation    Eigenvalue [Ha]    Eigenvalue [eV]
      1       2.00000         -76.494460        -2081.52017
      2       2.00000          -6.628540         -180.37176
      3       2.00000          -6.401813         -174.20221
      4       2.00000          -4.612822         -125.52128
      5       2.00000          -4.612821         -125.52125
      6       2.00000          -4.612588         -125.51490
      7       2.00000          -0.707215          -19.24429
      8       2.00000          -0.609848          -16.59480
      9       2.00000          -0.465148          -12.65732
     10       2.00000          -0.465148          -12.65731
     11       2.00000          -0.433391          -11.79318
     12       2.00000          -0.433391          -11.79317
     13       2.00000          -0.400461          -10.89710
     14       0.00000          -0.103086           -2.80512
     15       0.00000          -0.071413           -1.94323
     16       0.00000          -0.071409           -1.94315
     17       0.00000          -0.053358           -1.45195
     18       0.00000           0.001247            0.03394
     19       0.00000           0.001248            0.03397
     20       0.00000           0.005325            0.14491
     21       0.00000           0.045195            1.22982
     22       0.00000           0.045195            1.22983
     23       0.00000           0.065070            1.77064
     24       0.00000           0.080184            2.18192
     25       0.00000           0.080185            2.18195
     26       0.00000           0.149405            4.06552
     27       0.00000           0.149407            4.06558
     28       0.00000           0.149994            4.08154

  Highest occupied state (VBM) at    -10.89709688 eV
  | Occupation number:      2.00000000

  Lowest unoccupied state (CBM) at    -2.80512171 eV
  | Occupation number:      0.00000000

  Overall HOMO-LUMO gap:      8.09197517 eV.
  Calculating total energy contributions from superposition of free atom densities.

  Total energy components:
  | Sum of eigenvalues            :        -213.75529308 Ha       -5816.57746884 eV
  | XC energy correction          :         -27.54375716 Ha        -749.50376655 eV
  | XC potential correction       :          36.34973668 Ha         989.12666139 eV
  | Free-atom electrostatic energy:        -164.70149895 Ha       -4481.75581559 eV
  | Hartree energy correction     :          -0.00000000 Ha          -0.00000000 eV
  | Entropy correction            :          -0.00000000 Ha          -0.00000000 eV
  | ---------------------------
  | Total energy                  :        -369.65081250 Ha      -10058.71038959 eV
  | Total energy, T -> 0          :        -369.65081250 Ha      -10058.71038959 eV  <-- do not rely on this value for anything but (periodic) metals
  | Electronic free energy        :        -369.65081250 Ha      -10058.71038959 eV

  Derived energy quantities:
  | Kinetic energy                :         370.52197296 Ha       10082.41587179 eV
  | Electrostatic energy          :        -712.62902830 Ha      -19391.62249483 eV
  | Energy correction for multipole
  | error in Hartree potential    :           0.00000000 Ha           0.00000000 eV
  | Sum of eigenvalues per atom                           :        -727.07218360 eV
  | Total energy (T->0) per atom                          :       -1257.33879870 eV  <-- do not rely on this value for anything but (periodic) metals
  | Electronic free energy per atom                       :       -1257.33879870 eV
  Initialize hartree_potential_storage
  Max. number of atoms included in rho_multipole:            8

  End scf initialization - timings             :  max(cpu_time)    wall_clock(cpu1)
  | Time for scf. initialization                :        0.235 s           0.261 s
  | Boundary condition initialization           :        0.002 s           0.002 s
  | Integration                                 :        0.020 s           0.021 s
  | Solution of K.-S. eqns.                     :        0.172 s           0.195 s
  | Grid partitioning                           :        0.033 s           0.034 s
  | Preloading free-atom quantities on grid     :        0.008 s           0.007 s
  | Free-atom superposition energy              :        0.002 s           0.002 s
  | Total energy evaluation                     :        0.000 s           0.000 s

  Partial memory accounting:
  | Current value for overall tracked memory usage:
  |   Minimum:        0.046 MB (on task 27)
  |   Maximum:        0.050 MB (on task  0)
  |   Average:        0.047 MB
  | Peak value for overall tracked memory usage:
  |   Minimum:        1.219 MB (on task 46 after allocating wave)
  |   Maximum:        1.238 MB (on task  0 after allocating wave)
  |   Average:        1.234 MB
  | Largest tracked array allocation so far:
  |   Minimum:        0.365 MB (gradient_basis_wave_store on task  6)
  |   Maximum:        0.370 MB (gradient_basis_wave_store on task  0)
  |   Average:        0.369 MB
  Note:  These values currently only include a subset of arrays which are explicitly tracked.
  The "true" memory usage will be greater.
------------------------------------------------------------
  Available memory after initialize_scf [GB]:   1034.09
  Available memory after allocating mixing [GB]:   1034.08
  Evaluating new KS density.
  Integration grid: deviation in total charge (<rho> - N_e) =   0.000000E+00

  Time for density update prior                :  max(cpu_time)    wall_clock(cpu1)
  | self-consistency iterative process          :        0.006 s           0.006 s
  Available memory before start of SCF loop [GB]:   1034.06

------------------------------------------------------------
          Begin self-consistency iteration #    1

  Date     :  20260729, Time     :  181625.273
------------------------------------------------------------
  Pulay mixing of updated and previous charge densities.
  Available memory per node after mixing [GB]:   1034.06
  Renormalizing the density to the exact electron count on the 3D integration grid.
  | Formal number of electrons (from input files) :      26.0000000000
  | Integrated number of electrons on 3D grid     :      26.0000000000
  | Charge integration error                      :       0.0000000000
  | Normalization factor for density and gradient :       1.0000000000

  Evaluating partitioned Hartree potential by multipole expansion.
  | Original multipole sum: apparent total charge =   0.632623E-14
  | Sum of charges compensated after spline to logarithmic grids =   0.108284E-06
  | Analytical far-field extrapolation by fixed multipoles:
  | Hartree multipole sum: apparent total charge =   0.633084E-14
  Summing up the Hartree potential.
  Time summed over all CPUs for potential: real work        0.008 s, elapsed        0.010 s
  | RMS charge density error from multipole expansion :   0.742016E-03

  Integrating Hamiltonian matrix: batch-based integration.
  Time summed over all CPUs for integration: real work        0.638 s, elapsed        0.831 s => Consider using load balancing!

  Updating Kohn-Sham eigenvalues and eigenvectors using ELSI and the ELPA eigensolver.
  Starting ELPA eigensolver
  Finished transformation to standard eigenproblem
  | Time :     0.001 s
  Finished solving standard eigenproblem
  | Time :     0.030 s
  Finished back-transformation of eigenvectors
  | Time :     0.000 s

  Obtaining occupation numbers and electronic chemical potential using ELSI.
  | Note that, for insulating systems, the printed 'chemical potential' value is not uniquely defined.
  | It can be anywhere in the energy gap, as long as it correctly separates occupied and unoccupied states.
  | In systems with a gap, the physically relevant chemical potential is the VBM or HOMO.

  | Chemical potential (Fermi level):    -6.20019170 eV
  Writing Kohn-Sham eigenvalues.

  State    Occupation    Eigenvalue [Ha]    Eigenvalue [eV]
      1       2.00000         -77.292049        -2103.22366
      2       2.00000          -6.769061         -184.19551
      3       2.00000          -6.602950         -179.67542
      4       2.00000          -4.710442         -128.17764
      5       2.00000          -4.710440         -128.17758
      6       2.00000          -4.709856         -128.16171
      7       2.00000          -0.725567          -19.74369
      8       2.00000          -0.604896          -16.46007
      9       2.00000          -0.468244          -12.74155
     10       2.00000          -0.468242          -12.74153
     11       2.00000          -0.419696          -11.42050
     12       2.00000          -0.419694          -11.42047
     13       2.00000          -0.386489          -10.51690
     14       0.00000          -0.069217           -1.88349
     15       0.00000          -0.056644           -1.54135
     16       0.00000          -0.056638           -1.54121
     17       0.00000          -0.032312           -0.87926
     18       0.00000           0.034588            0.94119
     19       0.00000           0.034591            0.94126
     20       0.00000           0.040309            1.09685
     21       0.00000           0.084220            2.29175
     22       0.00000           0.084222            2.29179
     23       0.00000           0.104988            2.85686
     24       0.00000           0.117028            3.18449
     25       0.00000           0.117030            3.18455
     26       0.00000           0.188880            5.13968
     27       0.00000           0.188883            5.13977
     28       0.00000           0.197357            5.37035

  Highest occupied state (VBM) at    -10.51689523 eV
  | Occupation number:      2.00000000

  Lowest unoccupied state (CBM) at    -1.88348816 eV
  | Occupation number:      0.00000000

  Overall HOMO-LUMO gap:      8.63340707 eV.

  Total energy components:
  | Sum of eigenvalues            :        -216.57525182 Ha       -5893.31245052 eV
  | XC energy correction          :         -29.13497047 Ha        -792.80288372 eV
  | XC potential correction       :          39.64422635 Ha        1078.77428649 eV
  | Free-atom electrostatic energy:        -164.70149895 Ha       -4481.75581559 eV
  | Hartree energy correction     :          -0.38666534 Ha         -10.52169916 eV
  | Entropy correction            :          -0.00000000 Ha          -0.00000000 eV
  | ---------------------------
  | Total energy                  :        -371.15416022 Ha      -10099.61856250 eV
  | Total energy, T -> 0          :        -371.15416022 Ha      -10099.61856250 eV  <-- do not rely on this value for anything but (periodic) metals
  | Electronic free energy        :        -371.15416022 Ha      -10099.61856250 eV

  Derived energy quantities:
  | Kinetic energy                :         370.72737402 Ha       10088.00511908 eV
  | Electrostatic energy          :        -712.74656377 Ha      -19394.82079786 eV
  | Energy correction for multipole
  | error in Hartree potential    :          -0.00096304 Ha          -0.02620576 eV
  | Sum of eigenvalues per atom                           :        -736.66405631 eV
  | Total energy (T->0) per atom                          :       -1262.45232031 eV  <-- do not rely on this value for anything but (periodic) metals
  | Electronic free energy per atom                       :       -1262.45232031 eV
  Evaluating new KS density.
  Integration grid: deviation in total charge (<rho> - N_e) =   1.065814E-14

  Self-consistency convergence accuracy:
  | Change of charge density      :  0.3373E+00
  | Change of unmixed KS density  :  0.2623E+02
  | Change of sum of eigenvalues  : -0.7673E+02 eV
  | Change of total energy        : -0.4091E+02 eV


------------------------------------------------------------
  End self-consistency iteration #     1       :  max(cpu_time)    wall_clock(cpu1)
  | Time for this iteration                     :        0.066 s           0.066 s
  | Charge density update                       :        0.005 s           0.005 s
  | Density mixing                              :        0.001 s           0.002 s
  | Hartree multipole update                    :        0.004 s           0.003 s
  | Hartree multipole summation                 :        0.010 s           0.011 s
  | Integration                                 :        0.014 s           0.013 s
  | Solution of K.-S. eqns.                     :        0.031 s           0.032 s
  | Total energy evaluation                     :        0.000 s           0.000 s

  Partial memory accounting:
  | Current value for overall tracked memory usage:
  |   Minimum:        1.369 MB (on task 28)
  |   Maximum:        1.497 MB (on task 30)
  |   Average:        1.410 MB
  | Peak value for overall tracked memory usage:
  |   Minimum:        2.519 MB (on task 48 after allocating wave)
  |   Maximum:        2.660 MB (on task 30 after allocating wave)
  |   Average:        2.571 MB
  | Largest tracked array allocation so far:
  |   Minimum:        0.365 MB (gradient_basis_wave_store on task 46)
  |   Maximum:        0.383 MB (previous_rho_gradient_diff on task 30)
  |   Average:        0.371 MB
  Note:  These values currently only include a subset of arrays which are explicitly tracked.
  The "true" memory usage will be greater.
------------------------------------------------------------

------------------------------------------------------------
          Begin self-consistency iteration #    2

  Date     :  20260729, Time     :  181625.407
------------------------------------------------------------
  Pulay mixing of updated and previous charge densities.
  Available memory per node after mixing [GB]:   1034.01
  Renormalizing the density to the exact electron count on the 3D integration grid.
  | Formal number of electrons (from input files) :      26.0000000000
  | Integrated number of electrons on 3D grid     :      26.0000000000
  | Charge integration error                      :       0.0000000000
  | Normalization factor for density and gradient :       1.0000000000

  Evaluating partitioned Hartree potential by multipole expansion.
  | Original multipole sum: apparent total charge =   0.252127E-14
  | Sum of charges compensated after spline to logarithmic grids =  -0.250970E-06
  | Analytical far-field extrapolation by fixed multipoles:
  | Hartree multipole sum: apparent total charge =   0.264426E-14
  Summing up the Hartree potential.
  Time summed over all CPUs for potential: real work        0.008 s, elapsed        0.011 s
  | RMS charge density error from multipole expansion :   0.254479E-02

  Integrating Hamiltonian matrix: batch-based integration.
  Time summed over all CPUs for integration: real work        0.610 s, elapsed        0.869 s => Consider using load balancing!

  Updating Kohn-Sham eigenvalues and eigenvectors using ELSI and the ELPA eigensolver.
  Starting ELPA eigensolver
  Finished transformation to standard eigenproblem
  | Time :     0.000 s
  Finished solving standard eigenproblem
  | Time :     0.002 s
  Finished back-transformation of eigenvectors
  | Time :     0.000 s

  Obtaining occupation numbers and electronic chemical potential using ELSI.
  | Note that, for insulating systems, the printed 'chemical potential' value is not uniquely defined.
  | It can be anywhere in the energy gap, as long as it correctly separates occupied and unoccupied states.
  | In systems with a gap, the physically relevant chemical potential is the VBM or HOMO.

  | Chemical potential (Fermi level):    -5.40134590 eV
  Highest occupied state (VBM) at     -9.53114127 eV
  | Occupation number:      2.00000000

  Lowest unoccupied state (CBM) at    -1.27155053 eV
  | Occupation number:      0.00000000

  Overall HOMO-LUMO gap:      8.25959074 eV.

  Checking to see if s.c.f. parameters should be adjusted.

  Total energy components:
  | Sum of eigenvalues            :        -215.77518499 Ha       -5871.54152429 eV
  | XC energy correction          :         -29.26487305 Ha        -796.33771292 eV
  | XC potential correction       :          39.81690562 Ha        1083.47312850 eV
  | Free-atom electrostatic energy:        -164.70149895 Ha       -4481.75581559 eV
  | Hartree energy correction     :          -1.17298924 Ha         -31.91866110 eV
  | Entropy correction            :          -0.00000000 Ha          -0.00000000 eV
  | ---------------------------
  | Total energy                  :        -371.09764060 Ha      -10098.08058540 eV
  | Total energy, T -> 0          :        -371.09764060 Ha      -10098.08058540 eV  <-- do not rely on this value for anything but (periodic) metals
  | Electronic free energy        :        -371.09764060 Ha      -10098.08058540 eV

  Derived energy quantities:
  | Kinetic energy                :         371.22016168 Ha       10101.41455359 eV
  | Electrostatic energy          :        -713.05292923 Ha      -19403.15742607 eV
  | Energy correction for multipole
  | error in Hartree potential    :          -0.00307611 Ha          -0.08370530 eV
  | Sum of eigenvalues per atom                           :        -733.94269054 eV
  | Total energy (T->0) per atom                          :       -1262.26007318 eV  <-- do not rely on this value for anything but (periodic) metals
  | Electronic free energy per atom                       :       -1262.26007318 eV
  Evaluating new KS density.
  Integration grid: deviation in total charge (<rho> - N_e) =   0.000000E+00

  Self-consistency convergence accuracy:
  | Change of charge density      :  0.2854E+00
  | Change of unmixed KS density  :  0.6606E-01
  | Change of sum of eigenvalues  :  0.2177E+02 eV
  | Change of total energy        :  0.1538E+01 eV


------------------------------------------------------------
  End self-consistency iteration #     2       :  max(cpu_time)    wall_clock(cpu1)
  | Time for this iteration                     :        0.293 s           0.245 s
  | Charge density update                       :        0.005 s           0.005 s
  | Density mixing                              :        0.256 s           0.209 s
  | Hartree multipole update                    :        0.003 s           0.003 s
  | Hartree multipole summation                 :        0.012 s           0.012 s
  | Integration                                 :        0.014 s           0.014 s
  | Solution of K.-S. eqns.                     :        0.002 s           0.002 s
  | Total energy evaluation                     :        0.000 s           0.000 s

  Partial memory accounting:
  | Current value for overall tracked memory usage:
  |   Minimum:        1.370 MB (on task 28)
  |   Maximum:        1.498 MB (on task 30)
  |   Average:        1.410 MB
  | Peak value for overall tracked memory usage:
  |   Minimum:        2.519 MB (on task 48 after allocating wave)
  |   Maximum:        2.660 MB (on task 30 after allocating wave)
  |   Average:        2.572 MB
  | Largest tracked array allocation so far:
  |   Minimum:        0.365 MB (gradient_basis_wave_store on task 46)
  |   Maximum:        0.383 MB (previous_rho_gradient_diff on task 30)
  |   Average:        0.371 MB
  Note:  These values currently only include a subset of arrays which are explicitly tracked.
  The "true" memory usage will be greater.
------------------------------------------------------------

------------------------------------------------------------
          Begin self-consistency iteration #    3

  Date     :  20260729, Time     :  181625.893
------------------------------------------------------------
  Pulay mixing of updated and previous charge densities.
  Available memory per node after mixing [GB]:   1034.01
  Renormalizing the density to the exact electron count on the 3D integration grid.
  | Formal number of electrons (from input files) :      26.0000000000
  | Integrated number of electrons on 3D grid     :      26.0000000000
  | Charge integration error                      :       0.0000000000
  | Normalization factor for density and gradient :       1.0000000000

  Evaluating partitioned Hartree potential by multipole expansion.
  | Original multipole sum: apparent total charge =  -0.860921E-16
  | Sum of charges compensated after spline to logarithmic grids =  -0.882873E-06
  | Analytical far-field extrapolation by fixed multipoles:
  | Hartree multipole sum: apparent total charge =   0.233679E-15
  Summing up the Hartree potential.
  Time summed over all CPUs for potential: real work        0.007 s, elapsed        0.010 s
  | RMS charge density error from multipole expansion :   0.541776E-02

  Integrating Hamiltonian matrix: batch-based integration.
  Time summed over all CPUs for integration: real work        0.567 s, elapsed        0.684 s

  Updating Kohn-Sham eigenvalues and eigenvectors using ELSI and the ELPA eigensolver.
  Starting ELPA eigensolver
  Finished transformation to standard eigenproblem
  | Time :     0.000 s
  Finished solving standard eigenproblem
  | Time :     0.001 s
  Finished back-transformation of eigenvectors
  | Time :     0.001 s

  Obtaining occupation numbers and electronic chemical potential using ELSI.
  | Note that, for insulating systems, the printed 'chemical potential' value is not uniquely defined.
  | It can be anywhere in the energy gap, as long as it correctly separates occupied and unoccupied states.
  | In systems with a gap, the physically relevant chemical potential is the VBM or HOMO.

  | Chemical potential (Fermi level):    -3.95184621 eV
  Highest occupied state (VBM) at     -7.18246052 eV
  | Occupation number:      2.00000000

  Lowest unoccupied state (CBM) at    -0.72123190 eV
  | Occupation number:      0.00000000

  Overall HOMO-LUMO gap:      6.46122862 eV.

  Total energy components:
  | Sum of eigenvalues            :        -214.55031607 Ha       -5838.21114525 eV
  | XC energy correction          :         -29.49257560 Ha        -802.53381456 eV
  | XC potential correction       :          40.11442748 Ha        1091.56911002 eV
  | Free-atom electrostatic energy:        -164.70149895 Ha       -4481.75581559 eV
  | Hartree energy correction     :          -2.45232752 Ha         -66.73122719 eV
  | Entropy correction            :          -0.00000000 Ha          -0.00000000 eV
  | ---------------------------
  | Total energy                  :        -371.08229067 Ha      -10097.66289257 eV
  | Total energy, T -> 0          :        -371.08229067 Ha      -10097.66289257 eV  <-- do not rely on this value for anything but (periodic) metals
  | Electronic free energy        :        -371.08229067 Ha      -10097.66289257 eV

  Derived energy quantities:
  | Kinetic energy                :         371.87122795 Ha       10119.13096824 eV
  | Electrostatic energy          :        -713.46094302 Ha      -19414.26004625 eV
  | Energy correction for multipole
  | error in Hartree potential    :          -0.00636890 Ha          -0.17330668 eV
  | Sum of eigenvalues per atom                           :        -729.77639316 eV
  | Total energy (T->0) per atom                          :       -1262.20786157 eV  <-- do not rely on this value for anything but (periodic) metals
  | Electronic free energy per atom                       :       -1262.20786157 eV
  Evaluating new KS density.
  Integration grid: deviation in total charge (<rho> - N_e) =   7.105427E-15

  Self-consistency convergence accuracy:
  | Change of charge density      :  0.1881E+00
  | Change of unmixed KS density  :  0.5285E-01
  | Change of sum of eigenvalues  :  0.3333E+02 eV
  | Change of total energy        :  0.4177E+00 eV


------------------------------------------------------------
  End self-consistency iteration #     3       :  max(cpu_time)    wall_clock(cpu1)
  | Time for this iteration                     :        0.307 s           0.075 s
  | Charge density update                       :        0.005 s           0.005 s
  | Density mixing                              :        0.274 s           0.043 s
  | Hartree multipole update                    :        0.003 s           0.003 s
  | Hartree multipole summation                 :        0.011 s           0.011 s
  | Integration                                 :        0.011 s           0.011 s
  | Solution of K.-S. eqns.                     :        0.002 s           0.002 s
  | Total energy evaluation                     :        0.000 s           0.000 s

  Partial memory accounting:
  | Current value for overall tracked memory usage:
  |   Minimum:        1.370 MB (on task 28)
  |   Maximum:        1.498 MB (on task 30)
  |   Average:        1.410 MB
  | Peak value for overall tracked memory usage:
  |   Minimum:        2.519 MB (on task 48 after allocating wave)
  |   Maximum:        2.660 MB (on task 30 after allocating wave)
  |   Average:        2.572 MB
  | Largest tracked array allocation so far:
  |   Minimum:        0.365 MB (gradient_basis_wave_store on task 46)
  |   Maximum:        0.383 MB (previous_rho_gradient_diff on task 30)
  |   Average:        0.371 MB
  Note:  These values currently only include a subset of arrays which are explicitly tracked.
  The "true" memory usage will be greater.
------------------------------------------------------------

------------------------------------------------------------
          Begin self-consistency iteration #    4

  Date     :  20260729, Time     :  181625.980
------------------------------------------------------------
  Pulay mixing of updated and previous charge densities.
  Available memory per node after mixing [GB]:   1034.00
  Renormalizing the density to the exact electron count on the 3D integration grid.
  | Formal number of electrons (from input files) :      26.0000000000
  | Integrated number of electrons on 3D grid     :      26.0000000000
  | Charge integration error                      :      -0.0000000000
  | Normalization factor for density and gradient :       1.0000000000

  Evaluating partitioned Hartree potential by multipole expansion.
  | Original multipole sum: apparent total charge =  -0.126248E-13
  | Sum of charges compensated after spline to logarithmic grids =  -0.121580E-05
  | Analytical far-field extrapolation by fixed multipoles:
  | Hartree multipole sum: apparent total charge =  -0.126801E-13
  Summing up the Hartree potential.
  Time summed over all CPUs for potential: real work        0.007 s, elapsed        0.010 s
  | RMS charge density error from multipole expansion :   0.594014E-02

  Integrating Hamiltonian matrix: batch-based integration.
  Time summed over all CPUs for integration: real work        0.565 s, elapsed        0.629 s

  Updating Kohn-Sham eigenvalues and eigenvectors using ELSI and the ELPA eigensolver.
  Starting ELPA eigensolver
  Finished transformation to standard eigenproblem
  | Time :     0.000 s
  Finished solving standard eigenproblem
  | Time :     0.009 s
  Finished back-transformation of eigenvectors
  | Time :     0.000 s

  Obtaining occupation numbers and electronic chemical potential using ELSI.
  | Note that, for insulating systems, the printed 'chemical potential' value is not uniquely defined.
  | It can be anywhere in the energy gap, as long as it correctly separates occupied and unoccupied states.
  | In systems with a gap, the physically relevant chemical potential is the VBM or HOMO.

  | Chemical potential (Fermi level):    -4.04702089 eV
  Highest occupied state (VBM) at     -7.63855997 eV
  | Occupation number:      2.00000000

  Lowest unoccupied state (CBM) at    -0.45548182 eV
  | Occupation number:      0.00000000

  Overall HOMO-LUMO gap:      7.18307816 eV.

  Total energy components:
  | Sum of eigenvalues            :        -214.45238248 Ha       -5835.54623673 eV
  | XC energy correction          :         -29.50838132 Ha        -802.96391018 eV
  | XC potential correction       :          40.13174138 Ha        1092.04024527 eV
  | Free-atom electrostatic energy:        -164.70149895 Ha       -4481.75581559 eV
  | Hartree energy correction     :          -2.54507796 Ha         -69.25509487 eV
  | Entropy correction            :          -0.00000000 Ha          -0.00000000 eV
  | ---------------------------
  | Total energy                  :        -371.07559934 Ha      -10097.48081209 eV
  | Total energy, T -> 0          :        -371.07559934 Ha      -10097.48081209 eV  <-- do not rely on this value for anything but (periodic) metals
  | Electronic free energy        :        -371.07559934 Ha      -10097.48081209 eV

  Derived energy quantities:
  | Kinetic energy                :         371.91556339 Ha       10120.33739686 eV
  | Electrostatic energy          :        -713.48278140 Ha      -19414.85429878 eV
  | Energy correction for multipole
  | error in Hartree potential    :          -0.00666472 Ha          -0.18135639 eV
  | Sum of eigenvalues per atom                           :        -729.44327959 eV
  | Total energy (T->0) per atom                          :       -1262.18510151 eV  <-- do not rely on this value for anything but (periodic) metals
  | Electronic free energy per atom                       :       -1262.18510151 eV
  Evaluating new KS density.
  Integration grid: deviation in total charge (<rho> - N_e) =   7.105427E-15

  Self-consistency convergence accuracy:
  | Change of charge density      :  0.8681E-01
  | Change of unmixed KS density  :  0.6606E-01
  | Change of sum of eigenvalues  :  0.2665E+01 eV
  | Change of total energy        :  0.1821E+00 eV


------------------------------------------------------------
  End self-consistency iteration #     4       :  max(cpu_time)    wall_clock(cpu1)
  | Time for this iteration                     :        0.315 s           0.315 s
  | Charge density update                       :        0.005 s           0.005 s
  | Density mixing                              :        0.279 s           0.278 s
  | Hartree multipole update                    :        0.002 s           0.003 s
  | Hartree multipole summation                 :        0.010 s           0.010 s
  | Integration                                 :        0.010 s           0.010 s
  | Solution of K.-S. eqns.                     :        0.009 s           0.009 s
  | Total energy evaluation                     :        0.000 s           0.000 s

  Partial memory accounting:
  | Current value for overall tracked memory usage:
  |   Minimum:        1.370 MB (on task 28)
  |   Maximum:        1.498 MB (on task 30)
  |   Average:        1.410 MB
  | Peak value for overall tracked memory usage:
  |   Minimum:        2.519 MB (on task 48 after allocating wave)
  |   Maximum:        2.660 MB (on task 30 after allocating wave)
  |   Average:        2.572 MB
  | Largest tracked array allocation so far:
  |   Minimum:        0.365 MB (gradient_basis_wave_store on task 46)
  |   Maximum:        0.383 MB (previous_rho_gradient_diff on task 30)
  |   Average:        0.371 MB
  Note:  These values currently only include a subset of arrays which are explicitly tracked.
  The "true" memory usage will be greater.
------------------------------------------------------------

------------------------------------------------------------
          Begin self-consistency iteration #    5

  Date     :  20260729, Time     :  181626.484
------------------------------------------------------------
  Pulay mixing of updated and previous charge densities.
  Available memory per node after mixing [GB]:   1034.00
  Renormalizing the density to the exact electron count on the 3D integration grid.
  | Formal number of electrons (from input files) :      26.0000000000
  | Integrated number of electrons on 3D grid     :      26.0000000000
  | Charge integration error                      :       0.0000000000
  | Normalization factor for density and gradient :       1.0000000000

  Evaluating partitioned Hartree potential by multipole expansion.
  | Original multipole sum: apparent total charge =   0.199857E-14
  | Sum of charges compensated after spline to logarithmic grids =  -0.142760E-05
  | Analytical far-field extrapolation by fixed multipoles:
  | Hartree multipole sum: apparent total charge =   0.193707E-14
  Summing up the Hartree potential.
  Time summed over all CPUs for potential: real work        0.007 s, elapsed        0.009 s
  | RMS charge density error from multipole expansion :   0.658864E-02

  Integrating Hamiltonian matrix: batch-based integration.
  Time summed over all CPUs for integration: real work        0.548 s, elapsed        0.626 s

  Updating Kohn-Sham eigenvalues and eigenvectors using ELSI and the ELPA eigensolver.
  Starting ELPA eigensolver
  Finished transformation to standard eigenproblem
  | Time :     0.000 s
  Finished solving standard eigenproblem
  | Time :     0.001 s
  Finished back-transformation of eigenvectors
  | Time :     0.001 s

  Obtaining occupation numbers and electronic chemical potential using ELSI.
  | Note that, for insulating systems, the printed 'chemical potential' value is not uniquely defined.
  | It can be anywhere in the energy gap, as long as it correctly separates occupied and unoccupied states.
  | In systems with a gap, the physically relevant chemical potential is the VBM or HOMO.

  | Chemical potential (Fermi level):    -3.88756204 eV
  Highest occupied state (VBM) at     -7.51566028 eV
  | Occupation number:      2.00000000

  Lowest unoccupied state (CBM) at    -0.25946380 eV
  | Occupation number:      0.00000000

  Overall HOMO-LUMO gap:      7.25619648 eV.

  Total energy components:
  | Sum of eigenvalues            :        -214.26712283 Ha       -5830.50506502 eV
  | XC energy correction          :         -29.54729698 Ha        -804.02285903 eV
  | XC potential correction       :          40.18032834 Ha        1093.36236384 eV
  | Free-atom electrostatic energy:        -164.70149895 Ha       -4481.75581559 eV
  | Hartree energy correction     :          -2.73999786 Ha         -74.55913539 eV
  | Entropy correction            :          -0.00000000 Ha          -0.00000000 eV
  | ---------------------------
  | Total energy                  :        -371.07558828 Ha      -10097.48051118 eV
  | Total energy, T -> 0          :        -371.07558828 Ha      -10097.48051118 eV  <-- do not rely on this value for anything but (periodic) metals
  | Electronic free energy        :        -371.07558828 Ha      -10097.48051118 eV

  Derived energy quantities:
  | Kinetic energy                :         371.99654623 Ha       10122.54105223 eV
  | Electrostatic energy          :        -713.52483753 Ha      -19415.99870439 eV
  | Energy correction for multipole
  | error in Hartree potential    :          -0.00720000 Ha          -0.19592209 eV
  | Sum of eigenvalues per atom                           :        -728.81313313 eV
  | Total energy (T->0) per atom                          :       -1262.18506390 eV  <-- do not rely on this value for anything but (periodic) metals
  | Electronic free energy per atom                       :       -1262.18506390 eV
  Evaluating new KS density.
  Integration grid: deviation in total charge (<rho> - N_e) =  -7.105427E-15

  Self-consistency convergence accuracy:
  | Change of charge density      :  0.3244E-01
  | Change of unmixed KS density  :  0.3015E-01
  | Change of sum of eigenvalues  :  0.5041E+01 eV
  | Change of total energy        :  0.3009E-03 eV


------------------------------------------------------------
  End self-consistency iteration #     5       :  max(cpu_time)    wall_clock(cpu1)
  | Time for this iteration                     :        0.299 s           0.120 s
  | Charge density update                       :        0.005 s           0.005 s
  | Density mixing                              :        0.270 s           0.091 s
  | Hartree multipole update                    :        0.002 s           0.002 s
  | Hartree multipole summation                 :        0.009 s           0.010 s
  | Integration                                 :        0.010 s           0.010 s
  | Solution of K.-S. eqns.                     :        0.002 s           0.002 s
  | Total energy evaluation                     :        0.000 s           0.000 s

  Partial memory accounting:
  | Current value for overall tracked memory usage:
  |   Minimum:        1.370 MB (on task 28)
  |   Maximum:        1.498 MB (on task 30)
  |   Average:        1.410 MB
  | Peak value for overall tracked memory usage:
  |   Minimum:        2.519 MB (on task 48 after allocating wave)
  |   Maximum:        2.660 MB (on task 30 after allocating wave)
  |   Average:        2.572 MB
  | Largest tracked array allocation so far:
  |   Minimum:        0.365 MB (gradient_basis_wave_store on task 46)
  |   Maximum:        0.383 MB (previous_rho_gradient_diff on task 30)
  |   Average:        0.371 MB
  Note:  These values currently only include a subset of arrays which are explicitly tracked.
  The "true" memory usage will be greater.
------------------------------------------------------------

------------------------------------------------------------
          Begin self-consistency iteration #    6

  Date     :  20260729, Time     :  181626.746
------------------------------------------------------------
  Pulay mixing of updated and previous charge densities.
  Available memory per node after mixing [GB]:   1034.00
  Renormalizing the density to the exact electron count on the 3D integration grid.
  | Formal number of electrons (from input files) :      26.0000000000
  | Integrated number of electrons on 3D grid     :      26.0000000000
  | Charge integration error                      :      -0.0000000000
  | Normalization factor for density and gradient :       1.0000000000

  Evaluating partitioned Hartree potential by multipole expansion.
  | Original multipole sum: apparent total charge =  -0.225684E-14
  | Sum of charges compensated after spline to logarithmic grids =  -0.137127E-05
  | Analytical far-field extrapolation by fixed multipoles:
  | Hartree multipole sum: apparent total charge =  -0.285334E-14
  Summing up the Hartree potential.
  Time summed over all CPUs for potential: real work        0.007 s, elapsed        0.009 s
  | RMS charge density error from multipole expansion :   0.681959E-02

  Integrating Hamiltonian matrix: batch-based integration.
  Time summed over all CPUs for integration: real work        0.577 s, elapsed        0.675 s

  Updating Kohn-Sham eigenvalues and eigenvectors using ELSI and the ELPA eigensolver.
  Starting ELPA eigensolver
  Finished transformation to standard eigenproblem
  | Time :     0.000 s
  Finished solving standard eigenproblem
  | Time :     0.001 s
  Finished back-transformation of eigenvectors
  | Time :     0.000 s

  Obtaining occupation numbers and electronic chemical potential using ELSI.
  | Note that, for insulating systems, the printed 'chemical potential' value is not uniquely defined.
  | It can be anywhere in the energy gap, as long as it correctly separates occupied and unoccupied states.
  | In systems with a gap, the physically relevant chemical potential is the VBM or HOMO.

  | Chemical potential (Fermi level):    -3.89354413 eV
  Highest occupied state (VBM) at     -7.53653560 eV
  | Occupation number:      2.00000000

  Lowest unoccupied state (CBM) at    -0.25055266 eV
  | Occupation number:      0.00000000

  Overall HOMO-LUMO gap:      7.28598294 eV.

  Total energy components:
  | Sum of eigenvalues            :        -214.33961152 Ha       -5832.47758260 eV
  | XC energy correction          :         -29.54268037 Ha        -803.89723462 eV
  | XC potential correction       :          40.17234113 Ha        1093.14502083 eV
  | Free-atom electrostatic energy:        -164.70149895 Ha       -4481.75581559 eV
  | Hartree energy correction     :          -2.66410348 Ha         -72.49394410 eV
  | Entropy correction            :          -0.00000000 Ha          -0.00000000 eV
  | ---------------------------
  | Total energy                  :        -371.07555318 Ha      -10097.47955608 eV
  | Total energy, T -> 0          :        -371.07555318 Ha      -10097.47955608 eV  <-- do not rely on this value for anything but (periodic) metals
  | Electronic free energy        :        -371.07555318 Ha      -10097.47955608 eV

  Derived energy quantities:
  | Kinetic energy                :         371.91911456 Ha       10120.43402926 eV
  | Electrostatic energy          :        -713.45198737 Ha      -19414.01635072 eV
  | Energy correction for multipole
  | error in Hartree potential    :          -0.00713044 Ha          -0.19402910 eV
  | Sum of eigenvalues per atom                           :        -729.05969782 eV
  | Total energy (T->0) per atom                          :       -1262.18494451 eV  <-- do not rely on this value for anything but (periodic) metals
  | Electronic free energy per atom                       :       -1262.18494451 eV
  Evaluating new KS density.
  Integration grid: deviation in total charge (<rho> - N_e) =   2.486900E-14

  Self-consistency convergence accuracy:
  | Change of charge density      :  0.1211E-01
  | Change of unmixed KS density  :  0.6387E-02
  | Change of sum of eigenvalues  : -0.1973E+01 eV
  | Change of total energy        :  0.9551E-03 eV


------------------------------------------------------------
  End self-consistency iteration #     6       :  max(cpu_time)    wall_clock(cpu1)
  | Time for this iteration                     :        0.297 s           0.167 s
  | Charge density update                       :        0.005 s           0.005 s
  | Density mixing                              :        0.268 s           0.137 s
  | Hartree multipole update                    :        0.002 s           0.003 s
  | Hartree multipole summation                 :        0.009 s           0.009 s
  | Integration                                 :        0.011 s           0.011 s
  | Solution of K.-S. eqns.                     :        0.002 s           0.002 s
  | Total energy evaluation                     :        0.000 s           0.000 s

  Partial memory accounting:
  | Current value for overall tracked memory usage:
  |   Minimum:        1.370 MB (on task 28)
  |   Maximum:        1.498 MB (on task 30)
  |   Average:        1.410 MB
  | Peak value for overall tracked memory usage:
  |   Minimum:        2.519 MB (on task 48 after allocating wave)
  |   Maximum:        2.660 MB (on task 30 after allocating wave)
  |   Average:        2.572 MB
  | Largest tracked array allocation so far:
  |   Minimum:        0.365 MB (gradient_basis_wave_store on task 46)
  |   Maximum:        0.383 MB (previous_rho_gradient_diff on task 30)
  |   Average:        0.371 MB
  Note:  These values currently only include a subset of arrays which are explicitly tracked.
  The "true" memory usage will be greater.
------------------------------------------------------------

------------------------------------------------------------
          Begin self-consistency iteration #    7

  Date     :  20260729, Time     :  181626.925
------------------------------------------------------------
  Pulay mixing of updated and previous charge densities.
  Available memory per node after mixing [GB]:   1034.00
  Renormalizing the density to the exact electron count on the 3D integration grid.
  | Formal number of electrons (from input files) :      26.0000000000
  | Integrated number of electrons on 3D grid     :      26.0000000000
  | Charge integration error                      :      -0.0000000000
  | Normalization factor for density and gradient :       1.0000000000

  Evaluating partitioned Hartree potential by multipole expansion.
  | Original multipole sum: apparent total charge =  -0.120221E-13
  | Sum of charges compensated after spline to logarithmic grids =  -0.134483E-05
  | Analytical far-field extrapolation by fixed multipoles:
  | Hartree multipole sum: apparent total charge =  -0.132274E-13
  Summing up the Hartree potential.
  Time summed over all CPUs for potential: real work        0.007 s, elapsed        0.008 s
  | RMS charge density error from multipole expansion :   0.681049E-02

  Integrating Hamiltonian matrix: batch-based integration.
  Time summed over all CPUs for integration: real work        0.533 s, elapsed        0.608 s

  Updating Kohn-Sham eigenvalues and eigenvectors using ELSI and the ELPA eigensolver.
  Starting ELPA eigensolver
  Finished transformation to standard eigenproblem
  | Time :     0.000 s
  Finished solving standard eigenproblem
  | Time :     0.001 s
  Finished back-transformation of eigenvectors
  | Time :     0.000 s

  Obtaining occupation numbers and electronic chemical potential using ELSI.
  | Note that, for insulating systems, the printed 'chemical potential' value is not uniquely defined.
  | It can be anywhere in the energy gap, as long as it correctly separates occupied and unoccupied states.
  | In systems with a gap, the physically relevant chemical potential is the VBM or HOMO.

  | Chemical potential (Fermi level):    -3.88758565 eV
  Highest occupied state (VBM) at     -7.51424233 eV
  | Occupation number:      2.00000000

  Lowest unoccupied state (CBM) at    -0.26092897 eV
  | Occupation number:      0.00000000

  Overall HOMO-LUMO gap:      7.25331335 eV.

  Total energy components:
  | Sum of eigenvalues            :        -214.34163856 Ha       -5832.53274122 eV
  | XC energy correction          :         -29.54223213 Ha        -803.88503740 eV
  | XC potential correction       :          40.17183378 Ha        1093.13121505 eV
  | Free-atom electrostatic energy:        -164.70149895 Ha       -4481.75581559 eV
  | Hartree energy correction     :          -2.66201087 Ha         -72.43700128 eV
  | Entropy correction            :          -0.00000000 Ha          -0.00000000 eV
  | ---------------------------
  | Total energy                  :        -371.07554672 Ha      -10097.47938044 eV
  | Total energy, T -> 0          :        -371.07554672 Ha      -10097.47938044 eV  <-- do not rely on this value for anything but (periodic) metals
  | Electronic free energy        :        -371.07554672 Ha      -10097.47938044 eV

  Derived energy quantities:
  | Kinetic energy                :         371.91754092 Ha       10120.39120830 eV
  | Electrostatic energy          :        -713.45085552 Ha      -19413.98555135 eV
  | Energy correction for multipole
  | error in Hartree potential    :          -0.00712149 Ha          -0.19378564 eV
  | Sum of eigenvalues per atom                           :        -729.06659265 eV
  | Total energy (T->0) per atom                          :       -1262.18492256 eV  <-- do not rely on this value for anything but (periodic) metals
  | Electronic free energy per atom                       :       -1262.18492256 eV
  Evaluating new KS density.
  Integration grid: deviation in total charge (<rho> - N_e) =  -3.552714E-15

  Self-consistency convergence accuracy:
  | Change of charge density      :  0.3499E-02
  | Change of unmixed KS density  :  0.3610E-02
  | Change of sum of eigenvalues  : -0.5516E-01 eV
  | Change of total energy        :  0.1756E-03 eV


------------------------------------------------------------
  End self-consistency iteration #     7       :  max(cpu_time)    wall_clock(cpu1)
  | Time for this iteration                     :        0.294 s           0.293 s
  | Charge density update                       :        0.005 s           0.005 s
  | Density mixing                              :        0.266 s           0.265 s
  | Hartree multipole update                    :        0.002 s           0.002 s
  | Hartree multipole summation                 :        0.008 s           0.009 s
  | Integration                                 :        0.010 s           0.010 s
  | Solution of K.-S. eqns.                     :        0.002 s           0.001 s
  | Total energy evaluation                     :        0.000 s           0.000 s

  Partial memory accounting:
  | Current value for overall tracked memory usage:
  |   Minimum:        1.370 MB (on task 28)
  |   Maximum:        1.498 MB (on task 30)
  |   Average:        1.410 MB
  | Peak value for overall tracked memory usage:
  |   Minimum:        2.519 MB (on task 48 after allocating wave)
  |   Maximum:        2.661 MB (on task 30 after allocating wave)
  |   Average:        2.572 MB
  | Largest tracked array allocation so far:
  |   Minimum:        0.365 MB (gradient_basis_wave_store on task 46)
  |   Maximum:        0.383 MB (previous_rho_gradient_diff on task 30)
  |   Average:        0.371 MB
  Note:  These values currently only include a subset of arrays which are explicitly tracked.
  The "true" memory usage will be greater.
------------------------------------------------------------

------------------------------------------------------------
          Begin self-consistency iteration #    8

  Date     :  20260729, Time     :  181627.475
------------------------------------------------------------
  Pulay mixing of updated and previous charge densities.
  Available memory per node after mixing [GB]:   1034.00
  Renormalizing the density to the exact electron count on the 3D integration grid.
  | Formal number of electrons (from input files) :      26.0000000000
  | Integrated number of electrons on 3D grid     :      26.0000000000
  | Charge integration error                      :       0.0000000000
  | Normalization factor for density and gradient :       1.0000000000

  Evaluating partitioned Hartree potential by multipole expansion.
  | Original multipole sum: apparent total charge =  -0.111305E-14
  | Sum of charges compensated after spline to logarithmic grids =  -0.131467E-05
  | Analytical far-field extrapolation by fixed multipoles:
  | Hartree multipole sum: apparent total charge =  -0.103311E-14
  Summing up the Hartree potential.
  Time summed over all CPUs for potential: real work        0.007 s, elapsed        0.008 s
  | RMS charge density error from multipole expansion :   0.685444E-02

  Integrating Hamiltonian matrix: batch-based integration.
  Time summed over all CPUs for integration: real work        0.551 s, elapsed        0.648 s

  Updating Kohn-Sham eigenvalues and eigenvectors using ELSI and the ELPA eigensolver.
  Starting ELPA eigensolver
  Finished transformation to standard eigenproblem
  | Time :     0.000 s
  Finished solving standard eigenproblem
  | Time :     0.001 s
  Finished back-transformation of eigenvectors
  | Time :     0.000 s

  Obtaining occupation numbers and electronic chemical potential using ELSI.
  | Note that, for insulating systems, the printed 'chemical potential' value is not uniquely defined.
  | It can be anywhere in the energy gap, as long as it correctly separates occupied and unoccupied states.
  | In systems with a gap, the physically relevant chemical potential is the VBM or HOMO.

  | Chemical potential (Fermi level):    -3.88929130 eV
  Highest occupied state (VBM) at     -7.52450696 eV
  | Occupation number:      2.00000000

  Lowest unoccupied state (CBM) at    -0.25407564 eV
  | Occupation number:      0.00000000

  Overall HOMO-LUMO gap:      7.27043132 eV.

  Total energy components:
  | Sum of eigenvalues            :        -214.33606222 Ha       -5832.38100139 eV
  | XC energy correction          :         -29.54284943 Ha        -803.90183516 eV
  | XC potential correction       :          40.17239035 Ha        1093.14636011 eV
  | Free-atom electrostatic energy:        -164.70149895 Ha       -4481.75581559 eV
  | Hartree energy correction     :          -2.66752825 Ha         -72.58713701 eV
  | Entropy correction            :          -0.00000000 Ha          -0.00000000 eV
  | ---------------------------
  | Total energy                  :        -371.07554851 Ha      -10097.47942903 eV
  | Total energy, T -> 0          :        -371.07554851 Ha      -10097.47942903 eV  <-- do not rely on this value for anything but (periodic) metals
  | Electronic free energy        :        -371.07554851 Ha      -10097.47942903 eV

  Derived energy quantities:
  | Kinetic energy                :         371.91789641 Ha       10120.40088163 eV
  | Electrostatic energy          :        -713.45059549 Ha      -19413.97847550 eV
  | Energy correction for multipole
  | error in Hartree potential    :          -0.00712825 Ha          -0.19396966 eV
  | Sum of eigenvalues per atom                           :        -729.04762517 eV
  | Total energy (T->0) per atom                          :       -1262.18492863 eV  <-- do not rely on this value for anything but (periodic) metals
  | Electronic free energy per atom                       :       -1262.18492863 eV
  Evaluating new KS density.
  Integration grid: deviation in total charge (<rho> - N_e) =   7.105427E-15

  Self-consistency convergence accuracy:
  | Change of charge density      :  0.2385E-02
  | Change of unmixed KS density  :  0.1470E-02
  | Change of sum of eigenvalues  :  0.1517E+00 eV
  | Change of total energy        : -0.4859E-04 eV


------------------------------------------------------------
  End self-consistency iteration #     8       :  max(cpu_time)    wall_clock(cpu1)
  | Time for this iteration                     :        0.294 s           0.049 s
  | Charge density update                       :        0.005 s           0.005 s
  | Density mixing                              :        0.265 s           0.020 s
  | Hartree multipole update                    :        0.002 s           0.002 s
  | Hartree multipole summation                 :        0.009 s           0.009 s
  | Integration                                 :        0.010 s           0.010 s
  | Solution of K.-S. eqns.                     :        0.002 s           0.002 s
  | Total energy evaluation                     :        0.000 s           0.000 s

  Partial memory accounting:
  | Current value for overall tracked memory usage:
  |   Minimum:        1.370 MB (on task 28)
  |   Maximum:        1.498 MB (on task 30)
  |   Average:        1.410 MB
  | Peak value for overall tracked memory usage:
  |   Minimum:        2.519 MB (on task 48 after allocating wave)
  |   Maximum:        2.661 MB (on task 30 after allocating wave)
  |   Average:        2.572 MB
  | Largest tracked array allocation so far:
  |   Minimum:        0.365 MB (gradient_basis_wave_store on task 46)
  |   Maximum:        0.383 MB (previous_rho_gradient_diff on task 30)
  |   Average:        0.371 MB
  Note:  These values currently only include a subset of arrays which are explicitly tracked.
  The "true" memory usage will be greater.
------------------------------------------------------------

------------------------------------------------------------
          Begin self-consistency iteration #    9

  Date     :  20260729, Time     :  181627.734
------------------------------------------------------------
  Pulay mixing of updated and previous charge densities.
  Available memory per node after mixing [GB]:   1033.99
  Renormalizing the density to the exact electron count on the 3D integration grid.
  | Formal number of electrons (from input files) :      26.0000000000
  | Integrated number of electrons on 3D grid     :      26.0000000000
  | Charge integration error                      :       0.0000000000
  | Normalization factor for density and gradient :       1.0000000000

  Evaluating partitioned Hartree potential by multipole expansion.
  | Original multipole sum: apparent total charge =   0.170339E-14
  | Sum of charges compensated after spline to logarithmic grids =  -0.131297E-05
  | Analytical far-field extrapolation by fixed multipoles:
  | Hartree multipole sum: apparent total charge =   0.916266E-15
  Summing up the Hartree potential.
  Time summed over all CPUs for potential: real work        0.006 s, elapsed        0.007 s
  | RMS charge density error from multipole expansion :   0.685748E-02

  Integrating Hamiltonian matrix: batch-based integration.
  Time summed over all CPUs for integration: real work        0.550 s, elapsed        0.660 s

  Updating Kohn-Sham eigenvalues and eigenvectors using ELSI and the ELPA eigensolver.
  Starting ELPA eigensolver
  Finished transformation to standard eigenproblem
  | Time :     0.000 s
  Finished solving standard eigenproblem
  | Time :     0.001 s
  Finished back-transformation of eigenvectors
  | Time :     0.000 s

  Obtaining occupation numbers and electronic chemical potential using ELSI.
  | Note that, for insulating systems, the printed 'chemical potential' value is not uniquely defined.
  | It can be anywhere in the energy gap, as long as it correctly separates occupied and unoccupied states.
  | In systems with a gap, the physically relevant chemical potential is the VBM or HOMO.

  | Chemical potential (Fermi level):    -3.88778936 eV
  Highest occupied state (VBM) at     -7.52259246 eV
  | Occupation number:      2.00000000

  Lowest unoccupied state (CBM) at    -0.25298627 eV
  | Occupation number:      0.00000000

  Overall HOMO-LUMO gap:      7.26960619 eV.

  Total energy components:
  | Sum of eigenvalues            :        -214.33391830 Ha       -5832.32266218 eV
  | XC energy correction          :         -29.54308495 Ha        -803.90824397 eV
  | XC potential correction       :          40.17269655 Ha        1093.15469228 eV
  | Free-atom electrostatic energy:        -164.70149895 Ha       -4481.75581559 eV
  | Hartree energy correction     :          -2.66974297 Ha         -72.64740238 eV
  | Entropy correction            :          -0.00000000 Ha          -0.00000000 eV
  | ---------------------------
  | Total energy                  :        -371.07554861 Ha      -10097.47943183 eV
  | Total energy, T -> 0          :        -371.07554861 Ha      -10097.47943183 eV  <-- do not rely on this value for anything but (periodic) metals
  | Electronic free energy        :        -371.07554861 Ha      -10097.47943183 eV

  Derived energy quantities:
  | Kinetic energy                :         371.91894260 Ha       10120.42934996 eV
  | Electrostatic energy          :        -713.45140626 Ha      -19414.00053782 eV
  | Energy correction for multipole
  | error in Hartree potential    :          -0.00713155 Ha          -0.19405934 eV
  | Sum of eigenvalues per atom                           :        -729.04033277 eV
  | Total energy (T->0) per atom                          :       -1262.18492898 eV  <-- do not rely on this value for anything but (periodic) metals
  | Electronic free energy per atom                       :       -1262.18492898 eV
  Evaluating new KS density.
  Integration grid: deviation in total charge (<rho> - N_e) =   7.105427E-15

  Self-consistency convergence accuracy:
  | Change of charge density      :  0.3906E-03
  | Change of unmixed KS density  :  0.6078E-03
  | Change of sum of eigenvalues  :  0.5834E-01 eV
  | Change of total energy        : -0.2807E-05 eV


------------------------------------------------------------
  End self-consistency iteration #     9       :  max(cpu_time)    wall_clock(cpu1)
  | Time for this iteration                     :        0.305 s           0.107 s
  | Charge density update                       :        0.005 s           0.005 s
  | Density mixing                              :        0.278 s           0.079 s
  | Hartree multipole update                    :        0.002 s           0.002 s
  | Hartree multipole summation                 :        0.008 s           0.008 s
  | Integration                                 :        0.011 s           0.011 s
  | Solution of K.-S. eqns.                     :        0.002 s           0.002 s
  | Total energy evaluation                     :        0.000 s           0.000 s

  Partial memory accounting:
  | Current value for overall tracked memory usage:
  |   Minimum:        1.370 MB (on task 28)
  |   Maximum:        1.498 MB (on task 30)
  |   Average:        1.410 MB
  | Peak value for overall tracked memory usage:
  |   Minimum:        2.520 MB (on task 48 after allocating wave)
  |   Maximum:        2.661 MB (on task 30 after allocating wave)
  |   Average:        2.572 MB
  | Largest tracked array allocation so far:
  |   Minimum:        0.365 MB (gradient_basis_wave_store on task 46)
  |   Maximum:        0.383 MB (previous_rho_gradient_diff on task 30)
  |   Average:        0.371 MB
  Note:  These values currently only include a subset of arrays which are explicitly tracked.
  The "true" memory usage will be greater.
------------------------------------------------------------

------------------------------------------------------------
          Begin self-consistency iteration #   10

  Date     :  20260729, Time     :  181627.853
------------------------------------------------------------
  Pulay mixing of updated and previous charge densities.
  Available memory per node after mixing [GB]:   1033.99
  Renormalizing the density to the exact electron count on the 3D integration grid.
  | Formal number of electrons (from input files) :      26.0000000000
  | Integrated number of electrons on 3D grid     :      26.0000000000
  | Charge integration error                      :       0.0000000000
  | Normalization factor for density and gradient :       1.0000000000

  Evaluating partitioned Hartree potential by multipole expansion.
  | Original multipole sum: apparent total charge =   0.312391E-14
  | Sum of charges compensated after spline to logarithmic grids =  -0.131056E-05
  | Analytical far-field extrapolation by fixed multipoles:
  | Hartree multipole sum: apparent total charge =   0.332069E-14
  Summing up the Hartree potential.
  Time summed over all CPUs for potential: real work        0.007 s, elapsed        0.008 s
  | RMS charge density error from multipole expansion :   0.686300E-02

  Integrating Hamiltonian matrix: batch-based integration.
  Time summed over all CPUs for integration: real work        0.548 s, elapsed        0.700 s

  Updating Kohn-Sham eigenvalues and eigenvectors using ELSI and the ELPA eigensolver.
  Starting ELPA eigensolver
  Finished transformation to standard eigenproblem
  | Time :     0.000 s
  Finished solving standard eigenproblem
  | Time :     0.001 s
  Finished back-transformation of eigenvectors
  | Time :     0.000 s

  Obtaining occupation numbers and electronic chemical potential using ELSI.
  | Note that, for insulating systems, the printed 'chemical potential' value is not uniquely defined.
  | It can be anywhere in the energy gap, as long as it correctly separates occupied and unoccupied states.
  | In systems with a gap, the physically relevant chemical potential is the VBM or HOMO.

  | Chemical potential (Fermi level):    -3.88697247 eV
  Highest occupied state (VBM) at     -7.52265044 eV
  | Occupation number:      2.00000000

  Lowest unoccupied state (CBM) at    -0.25129450 eV
  | Occupation number:      0.00000000

  Overall HOMO-LUMO gap:      7.27135594 eV.

  Total energy components:
  | Sum of eigenvalues            :        -214.33217317 Ha       -5832.27517496 eV
  | XC energy correction          :         -29.54324823 Ha        -803.91268699 eV
  | XC potential correction       :          40.17288729 Ha        1093.15988244 eV
  | Free-atom electrostatic energy:        -164.70149895 Ha       -4481.75581559 eV
  | Hartree energy correction     :          -2.67151575 Ha         -72.69564223 eV
  | Entropy correction            :          -0.00000000 Ha          -0.00000000 eV
  | ---------------------------
  | Total energy                  :        -371.07554881 Ha      -10097.47943732 eV
  | Total energy, T -> 0          :        -371.07554881 Ha      -10097.47943732 eV  <-- do not rely on this value for anything but (periodic) metals
  | Electronic free energy        :        -371.07554881 Ha      -10097.47943732 eV

  Derived energy quantities:
  | Kinetic energy                :         371.91944174 Ha       10120.44293228 eV
  | Electrostatic energy          :        -713.45174233 Ha      -19414.00968261 eV
  | Energy correction for multipole
  | error in Hartree potential    :          -0.00713411 Ha          -0.19412901 eV
  | Sum of eigenvalues per atom                           :        -729.03439687 eV
  | Total energy (T->0) per atom                          :       -1262.18492966 eV  <-- do not rely on this value for anything but (periodic) metals
  | Electronic free energy per atom                       :       -1262.18492966 eV
  Evaluating new KS density.
  Integration grid: deviation in total charge (<rho> - N_e) =   7.105427E-15

  Self-consistency convergence accuracy:
  | Change of charge density      :  0.2631E-03
  | Change of unmixed KS density  :  0.6319E-04
  | Change of sum of eigenvalues  :  0.4749E-01 eV
  | Change of total energy        : -0.5484E-05 eV


------------------------------------------------------------
  End self-consistency iteration #    10       :  max(cpu_time)    wall_clock(cpu1)
  | Time for this iteration                     :        0.292 s           0.292 s
  | Charge density update                       :        0.005 s           0.004 s
  | Density mixing                              :        0.263 s           0.263 s
  | Hartree multipole update                    :        0.002 s           0.003 s
  | Hartree multipole summation                 :        0.009 s           0.008 s
  | Integration                                 :        0.011 s           0.011 s
  | Solution of K.-S. eqns.                     :        0.002 s           0.002 s
  | Total energy evaluation                     :        0.000 s           0.000 s

  Partial memory accounting:
  | Current value for overall tracked memory usage:
  |   Minimum:        1.370 MB (on task 28)
  |   Maximum:        1.498 MB (on task 30)
  |   Average:        1.410 MB
  | Peak value for overall tracked memory usage:
  |   Minimum:        2.520 MB (on task 48 after allocating wave)
  |   Maximum:        2.661 MB (on task 30 after allocating wave)
  |   Average:        2.572 MB
  | Largest tracked array allocation so far:
  |   Minimum:        0.365 MB (gradient_basis_wave_store on task 46)
  |   Maximum:        0.383 MB (previous_rho_gradient_diff on task 30)
  |   Average:        0.371 MB
  Note:  These values currently only include a subset of arrays which are explicitly tracked.
  The "true" memory usage will be greater.
------------------------------------------------------------

------------------------------------------------------------
          Begin self-consistency iteration #   11

  Date     :  20260729, Time     :  181628.324
------------------------------------------------------------
  Pulay mixing of updated and previous charge densities.
  Available memory per node after mixing [GB]:   1033.99
  Renormalizing the density to the exact electron count on the 3D integration grid.
  | Formal number of electrons (from input files) :      26.0000000000
  | Integrated number of electrons on 3D grid     :      26.0000000000
  | Charge integration error                      :      -0.0000000000
  | Normalization factor for density and gradient :       1.0000000000

  Evaluating partitioned Hartree potential by multipole expansion.
  | Original multipole sum: apparent total charge =  -0.972841E-14
  | Sum of charges compensated after spline to logarithmic grids =  -0.131059E-05
  | Analytical far-field extrapolation by fixed multipoles:
  | Hartree multipole sum: apparent total charge =  -0.968536E-14
  Summing up the Hartree potential.
  Time summed over all CPUs for potential: real work        0.006 s, elapsed        0.007 s
  | RMS charge density error from multipole expansion :   0.686357E-02

  Integrating Hamiltonian matrix: batch-based integration.
  Time summed over all CPUs for integration: real work        0.533 s, elapsed        0.639 s

  Updating Kohn-Sham eigenvalues and eigenvectors using ELSI and the ELPA eigensolver.
  Starting ELPA eigensolver
  Finished transformation to standard eigenproblem
  | Time :     0.000 s
  Finished solving standard eigenproblem
  | Time :     0.001 s
  Finished back-transformation of eigenvectors
  | Time :     0.001 s

  Obtaining occupation numbers and electronic chemical potential using ELSI.
  | Note that, for insulating systems, the printed 'chemical potential' value is not uniquely defined.
  | It can be anywhere in the energy gap, as long as it correctly separates occupied and unoccupied states.
  | In systems with a gap, the physically relevant chemical potential is the VBM or HOMO.

  | Chemical potential (Fermi level):    -3.88728635 eV
  Highest occupied state (VBM) at     -7.52272513 eV
  | Occupation number:      2.00000000

  Lowest unoccupied state (CBM) at    -0.25184756 eV
  | Occupation number:      0.00000000

  Overall HOMO-LUMO gap:      7.27087757 eV.

  Total energy components:
  | Sum of eigenvalues            :        -214.33308770 Ha       -5832.30006037 eV
  | XC energy correction          :         -29.54320825 Ha        -803.91159913 eV
  | XC potential correction       :          40.17283193 Ha        1093.15837613 eV
  | Free-atom electrostatic energy:        -164.70149895 Ha       -4481.75581559 eV
  | Hartree energy correction     :          -2.67058586 Ha         -72.67033871 eV
  | Entropy correction            :          -0.00000000 Ha          -0.00000000 eV
  | ---------------------------
  | Total energy                  :        -371.07554883 Ha      -10097.47943767 eV
  | Total energy, T -> 0          :        -371.07554883 Ha      -10097.47943767 eV  <-- do not rely on this value for anything but (periodic) metals
  | Electronic free energy        :        -371.07554883 Ha      -10097.47943767 eV

  Derived energy quantities:
  | Kinetic energy                :         371.91907394 Ha       10120.43292386 eV
  | Electrostatic energy          :        -713.45141451 Ha      -19414.00076240 eV
  | Energy correction for multipole
  | error in Hartree potential    :          -0.00713375 Ha          -0.19411927 eV
  | Sum of eigenvalues per atom                           :        -729.03750755 eV
  | Total energy (T->0) per atom                          :       -1262.18492971 eV  <-- do not rely on this value for anything but (periodic) metals
  | Electronic free energy per atom                       :       -1262.18492971 eV
  Evaluating new KS density.
  Integration grid: deviation in total charge (<rho> - N_e) =   1.065814E-14

  Self-consistency convergence accuracy:
  | Change of charge density      :  0.7217E-04
  | Change of unmixed KS density  :  0.1019E-03
  | Change of sum of eigenvalues  : -0.2489E-01 eV
  | Change of total energy        : -0.3516E-06 eV


------------------------------------------------------------
  End self-consistency iteration #    11       :  max(cpu_time)    wall_clock(cpu1)
  | Time for this iteration                     :        0.362 s           0.195 s
  | Charge density update                       :        0.005 s           0.004 s
  | Density mixing                              :        0.335 s           0.167 s
  | Hartree multipole update                    :        0.002 s           0.003 s
  | Hartree multipole summation                 :        0.008 s           0.008 s
  | Integration                                 :        0.010 s           0.010 s
  | Solution of K.-S. eqns.                     :        0.002 s           0.002 s
  | Total energy evaluation                     :        0.000 s           0.000 s

  Partial memory accounting:
  | Current value for overall tracked memory usage:
  |   Minimum:        1.370 MB (on task 28)
  |   Maximum:        1.498 MB (on task 30)
  |   Average:        1.410 MB
  | Peak value for overall tracked memory usage:
  |   Minimum:        2.520 MB (on task 48 after allocating wave)
  |   Maximum:        2.661 MB (on task 30 after allocating wave)
  |   Average:        2.572 MB
  | Largest tracked array allocation so far:
  |   Minimum:        0.365 MB (gradient_basis_wave_store on task 46)
  |   Maximum:        0.383 MB (previous_rho_gradient_diff on task 30)
  |   Average:        0.371 MB
  Note:  These values currently only include a subset of arrays which are explicitly tracked.
  The "true" memory usage will be greater.
------------------------------------------------------------

------------------------------------------------------------
          Begin self-consistency iteration #   12

  Date     :  20260729, Time     :  181628.533
------------------------------------------------------------
  Pulay mixing of updated and previous charge densities.
  Available memory per node after mixing [GB]:   1033.99
  Renormalizing the density to the exact electron count on the 3D integration grid.
  | Formal number of electrons (from input files) :      26.0000000000
  | Integrated number of electrons on 3D grid     :      26.0000000000
  | Charge integration error                      :       0.0000000000
  | Normalization factor for density and gradient :       1.0000000000

  Evaluating partitioned Hartree potential by multipole expansion.
  | Original multipole sum: apparent total charge =  -0.541765E-14
  | Sum of charges compensated after spline to logarithmic grids =  -0.131059E-05
  | Analytical far-field extrapolation by fixed multipoles:
  | Hartree multipole sum: apparent total charge =  -0.545455E-14
  Summing up the Hartree potential.
  Time summed over all CPUs for potential: real work        0.007 s, elapsed        0.010 s
  | RMS charge density error from multipole expansion :   0.686375E-02

  Integrating Hamiltonian matrix: batch-based integration.
  Time summed over all CPUs for integration: real work        0.592 s, elapsed        0.770 s => Consider using load balancing!

  Updating Kohn-Sham eigenvalues and eigenvectors using ELSI and the ELPA eigensolver.
  Starting ELPA eigensolver
  Finished transformation to standard eigenproblem
  | Time :     0.000 s
  Finished solving standard eigenproblem
  | Time :     0.002 s
  Finished back-transformation of eigenvectors
  | Time :     0.000 s

  Obtaining occupation numbers and electronic chemical potential using ELSI.
  | Note that, for insulating systems, the printed 'chemical potential' value is not uniquely defined.
  | It can be anywhere in the energy gap, as long as it correctly separates occupied and unoccupied states.
  | In systems with a gap, the physically relevant chemical potential is the VBM or HOMO.

  | Chemical potential (Fermi level):    -3.88726060 eV
  Highest occupied state (VBM) at     -7.52276942 eV
  | Occupation number:      2.00000000

  Lowest unoccupied state (CBM) at    -0.25175177 eV
  | Occupation number:      0.00000000

  Overall HOMO-LUMO gap:      7.27101766 eV.

  Total energy components:
  | Sum of eigenvalues            :        -214.33301046 Ha       -5832.29795866 eV
  | XC energy correction          :         -29.54321768 Ha        -803.91185560 eV
  | XC potential correction       :          40.17284402 Ha        1093.15870502 eV
  | Free-atom electrostatic energy:        -164.70149895 Ha       -4481.75581559 eV
  | Hartree energy correction     :          -2.67066576 Ha         -72.67251295 eV
  | Entropy correction            :          -0.00000000 Ha          -0.00000000 eV
  | ---------------------------
  | Total energy                  :        -371.07554883 Ha      -10097.47943778 eV
  | Total energy, T -> 0          :        -371.07554883 Ha      -10097.47943778 eV  <-- do not rely on this value for anything but (periodic) metals
  | Electronic free energy        :        -371.07554883 Ha      -10097.47943778 eV

  Derived energy quantities:
  | Kinetic energy                :         371.91910547 Ha       10120.43378173 eV
  | Electrostatic energy          :        -713.45143662 Ha      -19414.00136392 eV
  | Energy correction for multipole
  | error in Hartree potential    :          -0.00713390 Ha          -0.19412336 eV
  | Sum of eigenvalues per atom                           :        -729.03724483 eV
  | Total energy (T->0) per atom                          :       -1262.18492972 eV  <-- do not rely on this value for anything but (periodic) metals
  | Electronic free energy per atom                       :       -1262.18492972 eV
  Evaluating new KS density.
  Integration grid: deviation in total charge (<rho> - N_e) =   1.421085E-14

  Self-consistency convergence accuracy:
  | Change of charge density      :  0.1146E-04
  | Change of unmixed KS density  :  0.3076E-04
  | Change of sum of eigenvalues  :  0.2102E-02 eV
  | Change of total energy        : -0.1144E-06 eV


------------------------------------------------------------
  End self-consistency iteration #    12       :  max(cpu_time)    wall_clock(cpu1)
  | Time for this iteration                     :        0.298 s           0.296 s
  | Charge density update                       :        0.005 s           0.005 s
  | Density mixing                              :        0.264 s           0.262 s
  | Hartree multipole update                    :        0.003 s           0.003 s
  | Hartree multipole summation                 :        0.011 s           0.010 s
  | Integration                                 :        0.012 s           0.013 s
  | Solution of K.-S. eqns.                     :        0.002 s           0.002 s
  | Total energy evaluation                     :        0.000 s           0.000 s

  Partial memory accounting:
  | Current value for overall tracked memory usage:
  |   Minimum:        1.370 MB (on task 28)
  |   Maximum:        1.498 MB (on task 30)
  |   Average:        1.410 MB
  | Peak value for overall tracked memory usage:
  |   Minimum:        2.520 MB (on task 48 after allocating wave)
  |   Maximum:        2.661 MB (on task 30 after allocating wave)
  |   Average:        2.572 MB
  | Largest tracked array allocation so far:
  |   Minimum:        0.365 MB (gradient_basis_wave_store on task 46)
  |   Maximum:        0.383 MB (previous_rho_gradient_diff on task 30)
  |   Average:        0.371 MB
  Note:  These values currently only include a subset of arrays which are explicitly tracked.
  The "true" memory usage will be greater.
------------------------------------------------------------

------------------------------------------------------------
          Begin self-consistency iteration #   13

  Date     :  20260729, Time     :  181628.975
------------------------------------------------------------
  Pulay mixing of updated and previous charge densities.
  Available memory per node after mixing [GB]:   1034.00
  Renormalizing the density to the exact electron count on the 3D integration grid.
  | Formal number of electrons (from input files) :      26.0000000000
  | Integrated number of electrons on 3D grid     :      26.0000000000
  | Charge integration error                      :       0.0000000000
  | Normalization factor for density and gradient :       1.0000000000

  Evaluating partitioned Hartree potential by multipole expansion.
  | Original multipole sum: apparent total charge =   0.177719E-14
  | Sum of charges compensated after spline to logarithmic grids =  -0.131053E-05
  | Analytical far-field extrapolation by fixed multipoles:
  | Hartree multipole sum: apparent total charge =   0.216460E-14
  Summing up the Hartree potential.
  Time summed over all CPUs for potential: real work        0.007 s, elapsed        0.009 s
  | RMS charge density error from multipole expansion :   0.686352E-02

  Integrating Hamiltonian matrix: batch-based integration.
  Time summed over all CPUs for integration: real work        0.571 s, elapsed        0.682 s

  Updating Kohn-Sham eigenvalues and eigenvectors using ELSI and the ELPA eigensolver.
  Starting ELPA eigensolver
  Finished transformation to standard eigenproblem
  | Time :     0.000 s
  Finished solving standard eigenproblem
  | Time :     0.002 s
  Finished back-transformation of eigenvectors
  | Time :     0.000 s

  Obtaining occupation numbers and electronic chemical potential using ELSI.
  | Note that, for insulating systems, the printed 'chemical potential' value is not uniquely defined.
  | It can be anywhere in the energy gap, as long as it correctly separates occupied and unoccupied states.
  | In systems with a gap, the physically relevant chemical potential is the VBM or HOMO.

  | Chemical potential (Fermi level):    -3.88729902 eV
  Highest occupied state (VBM) at     -7.52283436 eV
  | Occupation number:      2.00000000

  Lowest unoccupied state (CBM) at    -0.25176369 eV
  | Occupation number:      0.00000000

  Overall HOMO-LUMO gap:      7.27107067 eV.

  Total energy components:
  | Sum of eigenvalues            :        -214.33301004 Ha       -5832.29794724 eV
  | XC energy correction          :         -29.54321039 Ha        -803.91165732 eV
  | XC potential correction       :          40.17283649 Ha        1093.15850016 eV
  | Free-atom electrostatic energy:        -164.70149895 Ha       -4481.75581559 eV
  | Hartree energy correction     :          -2.67066593 Ha         -72.67251762 eV
  | Entropy correction            :          -0.00000000 Ha          -0.00000000 eV
  | ---------------------------
  | Total energy                  :        -371.07554882 Ha      -10097.47943760 eV
  | Total energy, T -> 0          :        -371.07554882 Ha      -10097.47943760 eV  <-- do not rely on this value for anything but (periodic) metals
  | Electronic free energy        :        -371.07554882 Ha      -10097.47943760 eV

  Derived energy quantities:
  | Kinetic energy                :         371.91911906 Ha       10120.43415173 eV
  | Electrostatic energy          :        -713.45145750 Ha      -19414.00193201 eV
  | Energy correction for multipole
  | error in Hartree potential    :          -0.00713384 Ha          -0.19412159 eV
  | Sum of eigenvalues per atom                           :        -729.03724341 eV
  | Total energy (T->0) per atom                          :       -1262.18492970 eV  <-- do not rely on this value for anything but (periodic) metals
  | Electronic free energy per atom                       :       -1262.18492970 eV
  Evaluating new KS density.
  Integration grid: deviation in total charge (<rho> - N_e) =   0.000000E+00

  Self-consistency convergence accuracy:
  | Change of charge density      :  0.1023E-04
  | Change of unmixed KS density  :  0.3975E-05
  | Change of sum of eigenvalues  :  0.1141E-04 eV
  | Change of total energy        :  0.1788E-06 eV


------------------------------------------------------------
  End self-consistency iteration #    13       :  max(cpu_time)    wall_clock(cpu1)
  | Time for this iteration                     :        0.310 s           0.177 s
  | Charge density update                       :        0.005 s           0.005 s
  | Density mixing                              :        0.281 s           0.147 s
  | Hartree multipole update                    :        0.002 s           0.003 s
  | Hartree multipole summation                 :        0.009 s           0.009 s
  | Integration                                 :        0.011 s           0.011 s
  | Solution of K.-S. eqns.                     :        0.002 s           0.002 s
  | Total energy evaluation                     :        0.000 s           0.000 s

  Partial memory accounting:
  | Current value for overall tracked memory usage:
  |   Minimum:        1.370 MB (on task 28)
  |   Maximum:        1.498 MB (on task 30)
  |   Average:        1.410 MB
  | Peak value for overall tracked memory usage:
  |   Minimum:        2.520 MB (on task 48 after allocating wave)
  |   Maximum:        2.661 MB (on task 30 after allocating wave)
  |   Average:        2.572 MB
  | Largest tracked array allocation so far:
  |   Minimum:        0.365 MB (gradient_basis_wave_store on task 46)
  |   Maximum:        0.383 MB (previous_rho_gradient_diff on task 30)
  |   Average:        0.371 MB
  Note:  These values currently only include a subset of arrays which are explicitly tracked.
  The "true" memory usage will be greater.
------------------------------------------------------------

------------------------------------------------------------
          Begin self-consistency iteration #   14

  Date     :  20260729, Time     :  181629.401
------------------------------------------------------------
  Pulay mixing of updated and previous charge densities.
  Available memory per node after mixing [GB]:   1034.00
  Renormalizing the density to the exact electron count on the 3D integration grid.
  | Formal number of electrons (from input files) :      26.0000000000
  | Integrated number of electrons on 3D grid     :      26.0000000000
  | Charge integration error                      :      -0.0000000000
  | Normalization factor for density and gradient :       1.0000000000

  Evaluating partitioned Hartree potential by multipole expansion.
  | Original multipole sum: apparent total charge =  -0.532541E-14
  | Sum of charges compensated after spline to logarithmic grids =  -0.131053E-05
  | Analytical far-field extrapolation by fixed multipoles:
  | Hartree multipole sum: apparent total charge =  -0.532541E-14
  Summing up the Hartree potential.
  Time summed over all CPUs for potential: real work        0.007 s, elapsed        0.010 s
  | RMS charge density error from multipole expansion :   0.686356E-02

  Integrating Hamiltonian matrix: batch-based integration.
  Time summed over all CPUs for integration: real work        0.565 s, elapsed        0.659 s

  Updating Kohn-Sham eigenvalues and eigenvectors using ELSI and the ELPA eigensolver.
  Starting ELPA eigensolver
  Finished transformation to standard eigenproblem
  | Time :     0.000 s
  Finished solving standard eigenproblem
  | Time :     0.001 s
  Finished back-transformation of eigenvectors
  | Time :     0.000 s

  Obtaining occupation numbers and electronic chemical potential using ELSI.
  | Note that, for insulating systems, the printed 'chemical potential' value is not uniquely defined.
  | It can be anywhere in the energy gap, as long as it correctly separates occupied and unoccupied states.
  | In systems with a gap, the physically relevant chemical potential is the VBM or HOMO.

  | Chemical potential (Fermi level):    -3.88729178 eV
  Highest occupied state (VBM) at     -7.52283592 eV
  | Occupation number:      2.00000000

  Lowest unoccupied state (CBM) at    -0.25174763 eV
  | Occupation number:      0.00000000

  Overall HOMO-LUMO gap:      7.27108829 eV.

  Total energy components:
  | Sum of eigenvalues            :        -214.33299406 Ha       -5832.29751247 eV
  | XC energy correction          :         -29.54321289 Ha        -803.91172529 eV
  | XC potential correction       :          40.17283980 Ha        1093.15859017 eV
  | Free-atom electrostatic energy:        -164.70149895 Ha       -4481.75581559 eV
  | Hartree energy correction     :          -2.67068272 Ha         -72.67297445 eV
  | Entropy correction            :          -0.00000000 Ha          -0.00000000 eV
  | ---------------------------
  | Total energy                  :        -371.07554882 Ha      -10097.47943762 eV
  | Total energy, T -> 0          :        -371.07554882 Ha      -10097.47943762 eV  <-- do not rely on this value for anything but (periodic) metals
  | Electronic free energy        :        -371.07554882 Ha      -10097.47943762 eV

  Derived energy quantities:
  | Kinetic energy                :         371.91912843 Ha       10120.43440657 eV
  | Electrostatic energy          :        -713.45146436 Ha      -19414.00211890 eV
  | Energy correction for multipole
  | error in Hartree potential    :          -0.00713388 Ha          -0.19412287 eV
  | Sum of eigenvalues per atom                           :        -729.03718906 eV
  | Total energy (T->0) per atom                          :       -1262.18492970 eV  <-- do not rely on this value for anything but (periodic) metals
  | Electronic free energy per atom                       :       -1262.18492970 eV
  Evaluating new KS density.
  Integration grid: deviation in total charge (<rho> - N_e) =   2.842171E-14

  Self-consistency convergence accuracy:
  | Change of charge density      :  0.2864E-05
  | Change of unmixed KS density  :  0.2748E-05
  | Change of sum of eigenvalues  :  0.4348E-03 eV
  | Change of total energy        : -0.1544E-07 eV


------------------------------------------------------------
  End self-consistency iteration #    14       :  max(cpu_time)    wall_clock(cpu1)
  | Time for this iteration                     :        0.297 s           0.061 s
  | Charge density update                       :        0.005 s           0.005 s
  | Density mixing                              :        0.266 s           0.030 s
  | Hartree multipole update                    :        0.002 s           0.003 s
  | Hartree multipole summation                 :        0.010 s           0.010 s
  | Integration                                 :        0.011 s           0.011 s
  | Solution of K.-S. eqns.                     :        0.002 s           0.002 s
  | Total energy evaluation                     :        0.000 s           0.000 s

  Partial memory accounting:
  | Current value for overall tracked memory usage:
  |   Minimum:        1.370 MB (on task 28)
  |   Maximum:        1.498 MB (on task 30)
  |   Average:        1.410 MB
  | Peak value for overall tracked memory usage:
  |   Minimum:        2.520 MB (on task 48 after allocating wave)
  |   Maximum:        2.661 MB (on task 30 after allocating wave)
  |   Average:        2.572 MB
  | Largest tracked array allocation so far:
  |   Minimum:        0.365 MB (gradient_basis_wave_store on task 46)
  |   Maximum:        0.383 MB (previous_rho_gradient_diff on task 30)
  |   Average:        0.371 MB
  Note:  These values currently only include a subset of arrays which are explicitly tracked.
  The "true" memory usage will be greater.
------------------------------------------------------------

------------------------------------------------------------
          Begin self-consistency iteration #   15

  Date     :  20260729, Time     :  181629.474
------------------------------------------------------------
  Pulay mixing of updated and previous charge densities.
  Available memory per node after mixing [GB]:   1034.00
  Renormalizing the density to the exact electron count on the 3D integration grid.
  | Formal number of electrons (from input files) :      26.0000000000
  | Integrated number of electrons on 3D grid     :      26.0000000000
  | Charge integration error                      :       0.0000000000
  | Normalization factor for density and gradient :       1.0000000000

  Evaluating partitioned Hartree potential by multipole expansion.
  | Original multipole sum: apparent total charge =  -0.220150E-14
  | Sum of charges compensated after spline to logarithmic grids =  -0.131053E-05
  | Analytical far-field extrapolation by fixed multipoles:
  | Hartree multipole sum: apparent total charge =  -0.170339E-14
  Summing up the Hartree potential.
  Time summed over all CPUs for potential: real work        0.007 s, elapsed        0.009 s
  | RMS charge density error from multipole expansion :   0.686357E-02

  Integrating Hamiltonian matrix: batch-based integration.
  Time summed over all CPUs for integration: real work        0.569 s, elapsed        0.676 s

  Updating Kohn-Sham eigenvalues and eigenvectors using ELSI and the ELPA eigensolver.
  Starting ELPA eigensolver
  Finished transformation to standard eigenproblem
  | Time :     0.001 s
  Finished solving standard eigenproblem
  | Time :     0.001 s
  Finished back-transformation of eigenvectors
  | Time :     0.000 s

  Obtaining occupation numbers and electronic chemical potential using ELSI.
  | Note that, for insulating systems, the printed 'chemical potential' value is not uniquely defined.
  | It can be anywhere in the energy gap, as long as it correctly separates occupied and unoccupied states.
  | In systems with a gap, the physically relevant chemical potential is the VBM or HOMO.

  | Chemical potential (Fermi level):    -3.88729089 eV
  Highest occupied state (VBM) at     -7.52283542 eV
  | Occupation number:      2.00000000

  Lowest unoccupied state (CBM) at    -0.25174636 eV
  | Occupation number:      0.00000000

  Overall HOMO-LUMO gap:      7.27108907 eV.

  Total energy components:
  | Sum of eigenvalues            :        -214.33299304 Ha       -5832.29748454 eV
  | XC energy correction          :         -29.54321315 Ha        -803.91173248 eV
  | XC potential correction       :          40.17284013 Ha        1093.15859931 eV
  | Free-atom electrostatic energy:        -164.70149895 Ha       -4481.75581559 eV
  | Hartree energy correction     :          -2.67068382 Ha         -72.67300432 eV
  | Entropy correction            :          -0.00000000 Ha          -0.00000000 eV
  | ---------------------------
  | Total energy                  :        -371.07554882 Ha      -10097.47943762 eV
  | Total energy, T -> 0          :        -371.07554882 Ha      -10097.47943762 eV  <-- do not rely on this value for anything but (periodic) metals
  | Electronic free energy        :        -371.07554882 Ha      -10097.47943762 eV

  Derived energy quantities:
  | Kinetic energy                :         371.91912897 Ha       10120.43442118 eV
  | Electrostatic energy          :        -713.45146464 Ha      -19414.00212632 eV
  | Energy correction for multipole
  | error in Hartree potential    :          -0.00713389 Ha          -0.19412298 eV
  | Sum of eigenvalues per atom                           :        -729.03718557 eV
  | Total energy (T->0) per atom                          :       -1262.18492970 eV  <-- do not rely on this value for anything but (periodic) metals
  | Electronic free energy per atom                       :       -1262.18492970 eV

  Self-consistency convergence accuracy:
  | Change of charge density      :  0.3863E-06
  | Change of unmixed KS density  :  0.7865E-06
  | Change of sum of eigenvalues  :  0.2793E-04 eV
  | Change of total energy        : -0.2560E-08 eV

  Writing Kohn-Sham eigenvalues.

  State    Occupation    Eigenvalue [Ha]    Eigenvalue [eV]
      1       2.00000         -77.233943        -2101.64253
      2       2.00000          -6.575936         -178.94032
      3       2.00000          -6.557510         -178.43894
      4       2.00000          -4.665028         -126.94187
      5       2.00000          -4.665024         -126.94175
      6       2.00000          -4.661051         -126.83366
      7       2.00000          -0.667014          -18.15036
      8       2.00000          -0.465658          -12.67121
      9       2.00000          -0.413623          -11.25524
     10       2.00000          -0.413620          -11.25517
     11       2.00000          -0.295170           -8.03199
     12       2.00000          -0.276460           -7.52287
     13       2.00000          -0.276459           -7.52284
     14       0.00000          -0.009252           -0.25175
     15       0.00000          -0.009244           -0.25153
     16       0.00000           0.003450            0.09389
     17       0.00000           0.023096            0.62847
     18       0.00000           0.104396            2.84077
     19       0.00000           0.104397            2.84078
     20       0.00000           0.121982            3.31930
     21       0.00000           0.132006            3.59206
     22       0.00000           0.132008            3.59212
     23       0.00000           0.165072            4.49183
     24       0.00000           0.180268            4.90534
     25       0.00000           0.180269            4.90537
     26       0.00000           0.259668            7.06592
     27       0.00000           0.259932            7.07310
     28       0.00000           0.259935            7.07318

  Highest occupied state (VBM) at     -7.52283542 eV
  | Occupation number:      2.00000000

  Lowest unoccupied state (CBM) at    -0.25174636 eV
  | Occupation number:      0.00000000

  Overall HOMO-LUMO gap:      7.27108907 eV.

  | Chemical Potential                          :    -3.88729089 eV
  | Note that, for insulating systems, the printed 'chemical potential' value is not uniquely defined.
  | It can be anywhere in the energy gap, as long as it correctly separates occupied and unoccupied states.
  | In systems with a gap, the physically relevant chemical potential is the VBM or HOMO.

  Self-consistency cycle converged.


------------------------------------------------------------
  End self-consistency iteration #    15       :  max(cpu_time)    wall_clock(cpu1)
  | Time for this iteration                     :        0.291 s           0.291 s
  | Charge density update                       :        0.000 s           0.000 s
  | Density mixing                              :        0.266 s           0.266 s
  | Hartree multipole update                    :        0.002 s           0.002 s
  | Hartree multipole summation                 :        0.009 s           0.009 s
  | Integration                                 :        0.011 s           0.011 s
  | Solution of K.-S. eqns.                     :        0.002 s           0.002 s
  | Total energy evaluation                     :        0.000 s           0.000 s

  Partial memory accounting:
  | Current value for overall tracked memory usage:
  |   Minimum:        1.370 MB (on task 28)
  |   Maximum:        1.498 MB (on task 30)
  |   Average:        1.410 MB
  | Peak value for overall tracked memory usage:
  |   Minimum:        2.520 MB (on task 48 after allocating wave)
  |   Maximum:        2.661 MB (on task 30 after allocating wave)
  |   Average:        2.572 MB
  | Largest tracked array allocation so far:
  |   Minimum:        0.365 MB (gradient_basis_wave_store on task 46)
  |   Maximum:        0.383 MB (previous_rho_gradient_diff on task 30)
  |   Average:        0.371 MB
  Note:  These values currently only include a subset of arrays which are explicitly tracked.
  The "true" memory usage will be greater.
------------------------------------------------------------

  Energy and forces in a compact form:
  | Total energy uncorrected      :         -0.100974794376226E+05 eV
  | Total energy corrected        :         -0.100974794376226E+05 eV  <-- do not rely on this value for anything but (periodic) metals
  | Electronic free energy        :         -0.100974794376226E+05 eV

  ------------------------------------ 
  Start decomposition of the XC Energy 
  ------------------------------------ 
  X and C from original XC functional choice 
  Hartree-Fock Energy :          0.000000000 Ha              0.000000000 eV
  X Energy            :        -28.695590762 Ha           -780.846753687 eV
  C Energy            :         -0.847622391 Ha            -23.064978792 eV
  XC Energy w/o HF    :        -29.543213153 Ha           -803.911732479 eV
  Total XC Energy     :        -29.543213153 Ha           -803.911732479 eV
  ------------------------------------ 
  LDA X and C from self-consistent density 
  X Energy LDA        :        -26.199307655 Ha           -712.919434231 eV
  C Energy LDA        :         -1.761830674 Ha            -47.941851882 eV
  ------------------------------------ 
  End decomposition of the XC Energy 
  ------------------------------------ 

------------------------------------------------------------

------------------------------------------------------------------------------
  Final output of selected total energy values:

  The following output summarizes some interesting total energy values
  at the end of a run (AFTER all relaxation, molecular dynamics, etc.).

  | Total energy of the DFT / Hartree-Fock s.c.f. calculation      :         -10097.479437623 eV
  | Final zero-broadening corrected energy (caution - metals only) :         -10097.479437623 eV
  | For reference only, the value of 1 Hartree used in FHI-aims is :             27.211384500 eV

  Before relying on these values, please be sure to understand exactly which
  total energy value is referred to by a given number. Different objects may
  all carry the same name 'total energy'. Definitions:

  Total energy of the DFT / Hartree-Fock s.c.f. calculation:
  | Note that this energy does not include ANY quantities calculated after the
  | s.c.f. cycle, in particular not ANY RPA, MP2, etc. many-body perturbation terms.

  Final zero-broadening corrected energy:
  | For metallic systems only, a broadening of the occupation numbers at the Fermi
  | level can be extrapolated back to zero broadening by an electron-gas inspired
  | formula. For all systems that are not real metals, this value can be
  | meaningless and should be avoided.

------------------------------------------------------------------------------
  Methods described in the following list of references were used in this FHI-aims run.
  If you publish the results, please make sure to cite these reference if they apply.
  FHI-aims is an academic code, and for our developers (often, Ph.D. students
  and postdocs), scientific credit in the community is essential.
  Thank you for helping us!

  For any use of FHI-aims, please cite:

    Volker Blum, Ralf Gehrke, Felix Hanke, Paula Havu, Ville Havu,
    Xinguo Ren, Karsten Reuter, and Matthias Scheffler
    'Ab initio molecular simulations with numeric atom-centered orbitals'
    Computer Physics Communications 180, 2175-2196 (2009)
    http://doi.org/10.1016/j.cpc.2009.06.022


  The ELSI infrastructure was used in your run to solve the Kohn-Sham electronic structure.
  Please check out https://wordpress.elsi-interchange.org to learn more.
  If scalability is important for your project, please acknowledge ELSI by citing:

    V. W-z. Yu, F. Corsetti, A. Garcia, W. P. Huhn, M. Jacquelin, W. Jia,
    B. Lange, L. Lin, J. Lu, W. Mi, A. Seifitokaldani, A. Vazquez-Mayagoitia,
    C. Yang, H. Yang, and V. Blum
    'ELSI: A unified software interface for Kohn-Sham electronic structure solvers'
    Computer Physics Communications 222, 267-285 (2018).
    http://doi.org/10.1016/j.cpc.2017.09.007


  For the real-space grid partitioning and parallelization used in this calculation, please cite:

    Ville Havu, Volker Blum, Paula Havu, and Matthias Scheffler,
    'Efficient O(N) integration for all-electron electronic structure calculation'
    'using numerically tabulated basis functions'
    Journal of Computational Physics 228, 8367-8379 (2009).
    http://doi.org/10.1016/j.jcp.2009.08.008

  Of course, there are many other important community references, e.g., those cited in the
  above references. Our list is limited to references that describe implementations in the
  FHI-aims code. The reason is purely practical (length of this list) - please credit others as well.
------------------------------------------------------------
Warnings summary:

At least    2 warnings were raised during execution.

------------------------------------------------------------
          Leaving FHI-aims.
          Date     :  20260729, Time     :  181630.043

          Computational steps:
          | Number of self-consistency cycles          :           15
          | Number of SCF (re)initializations          :            1

          Detailed time accounting                     :  max(cpu_time)    wall_clock(cpu1)
          | Total time                                  :        4.788 s           6.031 s
          | Preparation time                            :        0.188 s           0.589 s
          | Boundary condition initalization            :        0.002 s           0.002 s
          | Grid partitioning                           :        0.033 s           0.034 s
          | Preloading free-atom quantities on grid     :        0.008 s           0.007 s
          | Free-atom superposition energy              :        0.002 s           0.002 s
          | Total time for integrations                 :        0.187 s           0.188 s
          | Total time for solution of K.-S. equations  :        0.238 s           0.261 s
          | Total time for density update               :        0.076 s           0.074 s
          | Total time for mixing                       :        3.832 s           2.259 s
          | Total time for Hartree multipole update     :        0.038 s           0.040 s
          | Total time for Hartree multipole sum        :        0.142 s           0.143 s
          | Total time for total energy evaluation      :        0.001 s           0.000 s
          | Total time for scaled ZORA corrections      :        0.000 s           0.000 s

          Partial memory accounting:
          | Residual value for overall tracked memory usage across tasks:     0.000000 MB (should be 0.000000 MB)
          | Peak values for overall tracked memory usage:
          |   Minimum:        2.520 MB (on task 48 after allocating wave)
          |   Maximum:        2.661 MB (on task 30 after allocating wave)
          |   Average:        2.572 MB
          | Largest tracked array allocation:
          |   Minimum:        0.365 MB (gradient_basis_wave_store on task 46)
          |   Maximum:        0.383 MB (previous_rho_gradient_diff on task 30)
          |   Average:        0.371 MB
          Note:  These values currently only include a subset of arrays which are explicitly tracked.
          The "true" memory usage will be greater.

          Have a nice day.
------------------------------------------------------------
