------------------------------------------------------------
          Invoking FHI-aims ...

          When using FHI-aims, please cite the following reference:

            Volker Blum, Ralf Gehrke, Felix Hanke, Paula Havu,
            Ville Havu, Xinguo Ren, Karsten Reuter, and Matthias Scheffler,
            'Ab Initio Molecular Simulations with Numeric Atom-Centered Orbitals',
            Computer Physics Communications 180, 2175-2196 (2009)

          In addition, many other developments in FHI-aims are likely important for
          your particular application. If so, please cite them. A partial list of references
          is written at the end of this file. Thank you for giving credit to the authors
          of these developments.

          For general information about FHI-aims please find us at

            https://fhi-aims.org

          Online tutorials can be found at

            https://fhi-aims-club.gitlab.io/tutorials/tutorials-overview/

          For any questions about FHI-aims, please visit our slack channel at

            https://fhi-aims.slack.com

          and our main development and support site at

            https://aims-git.rz-berlin.mpg.de .

          The latter site, in particular, has a wiki to collect information, as well
          as an issue tracker to log discussions, suggest improvements, and report issues
          or bugs. https://aims-git.rz-berlin.mpg.de is also the main development site
          of the project and all new and updated code versions can be obtained there.
          Please send an email to aims-coordinators@ms1p.org and we will add
          you to these sites. They are for you and everyone is welcome there.

------------------------------------------------------------



  Date     :  20260729, Time     :  181235.800
  Time zero on CPU 1             :   0.321141000000000E+00  s.
  Internal wall clock time zero  :           554580755.800  s.

  FHI-aims created a unique identifier for this run for later identification
  aims_uuid : A0321189-A31D-4852-A0FE-5C5B728A95AB

  Build configuration of the current instance of FHI-aims
  -------------------------------------------------------
  FHI-aims version      : 260331
  Commit number         : GITDIR-NOTFOUND
  CMake host system     : Linux-4.18.0-553.97.1.el8_10.x86_64
  CMake version         : 3.31.6
  OS Distribution       : Rocky Linux 8.10 (Green Obsidian)
  Built on              : Intel(R) Xeon(R) w5-3435X
  Fortran compiler      : /mnt/sw/nix/store/pa59vldasm7gxpr7dkijhk09q5qq63q1-openmpi-4.1.8/bin/mpifort (GNU) version 13.3.0
  Fortran compiler flags: -O2 -fallow-argument-mismatch -ffree-line-length-none
  C compiler            : /mnt/sw/nix/store/pa59vldasm7gxpr7dkijhk09q5qq63q1-openmpi-4.1.8/bin/mpicc (GNU) version 13.3.0
  C compiler flags      : -O2
  C++ compiler          : /mnt/sw/nix/store/pa59vldasm7gxpr7dkijhk09q5qq63q1-openmpi-4.1.8/bin/mpicxx (GNU) version 13.3.0
  C++ compiler flags    : -O2
  HIP compiler          :
  HIP compiler flags    :
  HIP GPU arch          :
  Using MPI
  Using ScaLAPACK
  Using LibXC
  Using i-PI
  Using RLSY
  Using GREENX
  Linking against: /mnt/sw/nix/store/dwd607jzx9m5bdd100br72s3b6g05zrf-intel-oneapi-mkl-2024.2.2/mkl/2024.2/lib/libmkl_intel_lp64.so
                   /mnt/sw/nix/store/dwd607jzx9m5bdd100br72s3b6g05zrf-intel-oneapi-mkl-2024.2.2/mkl/2024.2/lib/libmkl_sequential.so
                   /mnt/sw/nix/store/dwd607jzx9m5bdd100br72s3b6g05zrf-intel-oneapi-mkl-2024.2.2/mkl/2024.2/lib/libmkl_core.so
                   /mnt/sw/nix/store/dwd607jzx9m5bdd100br72s3b6g05zrf-intel-oneapi-mkl-2024.2.2/mkl/2024.2/lib/libmkl_blacs_openmpi_lp64.so
                   /mnt/sw/nix/store/dwd607jzx9m5bdd100br72s3b6g05zrf-intel-oneapi-mkl-2024.2.2/mkl/2024.2/lib/libmkl_scalapack_lp64.so

  Using       64 parallel tasks.
  Task        0 on host worker6187 reporting.
  Task        1 on host worker6187 reporting.
  Task        2 on host worker6187 reporting.
  Task        3 on host worker6187 reporting.
  Task        4 on host worker6187 reporting.
  Task        5 on host worker6187 reporting.
  Task        6 on host worker6187 reporting.
  Task        7 on host worker6187 reporting.
  Task        8 on host worker6187 reporting.
  Task        9 on host worker6187 reporting.
  Task       10 on host worker6187 reporting.
  Task       11 on host worker6187 reporting.
  Task       12 on host worker6187 reporting.
  Task       13 on host worker6187 reporting.
  Task       14 on host worker6187 reporting.
  Task       15 on host worker6187 reporting.
  Task       16 on host worker6187 reporting.
  Task       17 on host worker6187 reporting.
  Task       18 on host worker6187 reporting.
  Task       19 on host worker6187 reporting.
  Task       20 on host worker6187 reporting.
  Task       21 on host worker6187 reporting.
  Task       22 on host worker6187 reporting.
  Task       23 on host worker6187 reporting.
  Task       24 on host worker6187 reporting.
  Task       25 on host worker6187 reporting.
  Task       26 on host worker6187 reporting.
  Task       27 on host worker6187 reporting.
  Task       28 on host worker6187 reporting.
  Task       29 on host worker6187 reporting.
  Task       30 on host worker6187 reporting.
  Task       31 on host worker6187 reporting.
  Task       32 on host worker6188 reporting.
  Task       33 on host worker6188 reporting.
  Task       34 on host worker6188 reporting.
  Task       35 on host worker6188 reporting.
  Task       36 on host worker6188 reporting.
  Task       37 on host worker6188 reporting.
  Task       38 on host worker6188 reporting.
  Task       39 on host worker6188 reporting.
  Task       40 on host worker6188 reporting.
  Task       41 on host worker6188 reporting.
  Task       42 on host worker6188 reporting.
  Task       43 on host worker6188 reporting.
  Task       44 on host worker6188 reporting.
  Task       45 on host worker6188 reporting.
  Task       46 on host worker6188 reporting.
  Task       47 on host worker6188 reporting.
  Task       48 on host worker6188 reporting.
  Task       49 on host worker6188 reporting.
  Task       50 on host worker6188 reporting.
  Task       51 on host worker6188 reporting.
  Task       52 on host worker6188 reporting.
  Task       53 on host worker6188 reporting.
  Task       54 on host worker6188 reporting.
  Task       55 on host worker6188 reporting.
  Task       56 on host worker6188 reporting.
  Task       57 on host worker6188 reporting.
  Task       58 on host worker6188 reporting.
  Task       59 on host worker6188 reporting.
  Task       60 on host worker6188 reporting.
  Task       61 on host worker6188 reporting.
  Task       62 on host worker6188 reporting.
  Task       63 on host worker6188 reporting.

  Obtaining array dimensions for all initial allocations:
  
  -----------------------------------------------------------------------
  Parsing control.in (first pass over file, find array dimensions only).
  The contents of control.in will be repeated verbatim below
  unless switched off by setting 'verbatim_writeout .false.' .
  in the first line of control.in .
  -----------------------------------------------------------------------
  
  override_warning_libxc             True
  xc                                 libxc MGGA_X_R2SCAN+MGGA_C_R2SCAN
  
  spin                               none
  charge                             0
  
  relativistic                       atomic_zora scalar
  atomic_solver_xc                   pbe
  ionic_solver_xc                    pbe
  
  occupation_type                    gaussian 0.01
  
  sc_accuracy_rho                    1e-06
  sc_accuracy_eev                    1e-03
  sc_accuracy_etot                   1e-06
  occupation_acc                     1e-09
  
  charge_mix_param                   0.1
  n_max_pulay                        8
  max_zeroin                         20000
  
  # Species defaults for H
  ################################################################################
  #
  #  FHI-aims code project
  #  Volker Blum, 2017
  #
  #  Suggested "intermediate" defaults for H atom (to be pasted into control.in file)
  #
  ################################################################################
    species        H
  #     global species definitions
      nucleus             1
      mass                1.00794
  #
      l_hartree           6
  #
      cut_pot             4.0  2.0  1.0
      basis_dep_cutoff    1e-4
  #
      radial_base         24 7.0
      radial_multiplier   2
      angular_grids       specified
        division   0.1930   50
        division   0.3175  110
        division   0.4293  194
        division   0.5066  302
        division   0.5626  434
  #      division   0.5922  590
  #      division   0.6227  974
  #      division   0.6868 1202
  #      outer_grid  770
        outer_grid  434
  ################################################################################
  #
  #  Definition of "minimal" basis
  #
  ################################################################################
  #     valence basis states
      valence      1  s   1.
  #     ion occupancy
      ion_occ      1  s   0.5
  ################################################################################
  #
  #  Suggested additional basis functions. For production calculations,
  #  uncomment them one after another (the most important basis functions are
  #  listed first).
  #
  #  Basis constructed for dimers: 0.5 A, 0.7 A, 1.0 A, 1.5 A, 2.5 A
  #
  ################################################################################
  #  "First tier" - improvements: -1014.90 meV to -62.69 meV
       hydro 2 s 2.1
       hydro 2 p 3.5
  #  "Second tier" - improvements: -12.89 meV to -1.83 meV
       hydro 1 s 0.85
  #     hydro 2 p 3.7
  #     hydro 2 s 1.2
    for_aux    hydro 3 d 7
  #  "Third tier" - improvements: -0.25 meV to -0.12 meV
  #     hydro 4 f 11.2
  #     hydro 3 p 4.8
  #     hydro 4 d 9
  #     hydro 3 s 3.2
  
  # Species defaults for B
  ################################################################################
  #
  #  FHI-aims code project
  #  Volker Blum, 2019
  #
  #  Suggested "intermediate" defaults for B atom (to be pasted into control.in file)
  #
  ################################################################################
    species        B
  #     global species definitions
      nucleus             5
      mass                10.811
  #
      l_hartree           6
  #
      cut_pot             4.0  2.0  1.0
      basis_dep_cutoff    1e-4
  #
      radial_base         32 7.0
      radial_multiplier   2
      angular_grids       specified
        division   0.3742  110
        division   0.5197  194
        division   0.5753  302
        division   0.7664  434
  #      division   0.8392  770
  #      division   1.6522  974
  #      outer_grid   974
        outer_grid  434
  ################################################################################
  #
  #  Definition of "minimal" basis
  #
  ################################################################################
  #     valence basis states
      valence      2  s   2.
      valence      2  p   1.
  #     ion occupancy
      ion_occ      2  s   1.
  ################################################################################
  #
  #  Suggested additional basis functions. For production calculations,
  #  uncomment them one after another (the most important basis functions are
  #  listed first).
  #
  #  Constructed for dimers: 1.25 A, 1.625 A, 2.5 A, 3.5 A
  #
  ################################################################################
  #  "First tier" - improvements: -710.52 meV to -92.39 meV
       hydro 2 p 1.4
       hydro 3 d 4.8
       hydro 2 s 4
  #  "Second tier" - improvements: -33.88 meV to -2.20 meV
       hydro 4 f 7.8
  #     hydro 3 p 4.2
  #     hydro 3 s 3.3
    for_aux   hydro 5 g 11.2
  #     hydro 3 d 5.4
  #  "Third tier" - improvements: -1.28 meV to -0.36 meV
  #     hydro 2 p 4.7
  #     hydro 2 s 8.4
  #     hydro 4 d 5.8
  #  "Fourth tier" - improvements: -0.25 meV to -0.12 meV
  #     hydro 3 p 2.2
  #     hydro 3 s 3
  #     hydro 4 f 9.8
  #     hydro 5 g 12.8
  #     hydro 4 d 10
  #  Further functions
  #     hydro 4 f 14
  #     hydro 3 p 12.4
  ################################################################################
  #
  # For methods that use the localized form of the "resolution of identity" for
  # the two-electron Coulomb operator (RI_method LVL), particularly Hartree-Fock and
  # hybrid density functional calculations, the highest accuracy can be obtained by
  # uncommenting the line beginning with "for_aux"  below, thus adding an extra g radial
  # function to the construction of the product basis set for the expansion.
  # See Ref. New J. Phys. 17, 093020 (2015) for more information, particularly Figs. 1 and 6.
  #
  ################################################################################
  #
  # for_aux hydro 5 g 6.0
  
  # Species defaults for P
  ################################################################################
  #
  #  FHI-aims code project
  #  Volker Blum, Maria Dragoumi, Sebastian Kokott 2020
  #
  #  Suggested "intermediate" defaults for P atom (to be pasted into control.in file)
  #
  ################################################################################
    species        P
  #     global species definitions
      nucleus             15
      mass                30.973762
  #
      l_hartree           6
  #
      cut_pot             4.0          2.0  1.0
      basis_dep_cutoff    1e-4
  #
      radial_base         43 7.0
      radial_multiplier   2
      angular_grids       specified
        division   0.2995   50
        division   0.5998  110
        division   0.9240  194
        division   1.0921  302
        division   1.2863  434
  #      division   1.3165  590
  #      division   1.4113  770
  #      division   1.5128  974
  #      division   2.4980 1202
        outer_grid  434
  ################################################################################
  #
  #  Definition of "minimal" basis
  #
  ################################################################################
  #     valence basis states
      valence      3  s   2.
      valence      3  p   3.
  #     ion occupancy
      ion_occ      3  s   1.
      ion_occ      3  p   2.
  ################################################################################
  #
  #  Suggested additional basis functions. For production calculations,
  #  uncomment them one after another (the most important basis functions are
  #  listed first).
  #
  #  Constructed for dimers: 1.625 A, 1.875 A, 2.5 A, 3.25 A, 4.0 A
  #
  ################################################################################
  #  "First tier" - improvements: -726.20 meV to -35.91 meV
       ionic 3 d auto
       ionic 3 p auto
       hydro 4 f 6.2
    for_aux   hydro 5 g 8.6
       ionic 3 s auto
  #  "Second tier" - improvements: -16.02 meV to -1.71 meV
  #     hydro 4 d 6.2
  #     hydro 4 p 9.2
  #     hydro 5 f 9.8
  #     hydro 1 s 0.7
  #     hydro 5 g 13.2
  #  "Third tier" - improvements: -1.82 meV to -0.20 meV
  #     hydro 3 p 2.5
  #     hydro 4 d 6.4
  #     hydro 5 f 11.2
  #     hydro 2 s 1.5
  #  "Fourth tier" - improvements: -0.91 meV to -0.17 meV
  #     hydro 3 d 16.8
  #     hydro 5 g 18
  #     hydro 4 p 4.5
  #     hydro 3 s 2.1
  #  Further basis functions that fell out of the optimization - < -0.09 meV
  #     hydro 4 p 10.4
  #     hydro 4 d 17.6
  #     hydro 4 s 11.2
  ################################################################################
  #
  # For methods that use the localized form of the "resolution of identity" for
  # the two-electron Coulomb operator (RI_method LVL), particularly Hartree-Fock and
  # hybrid density functional calculations, the highest accuracy can be obtained by
  # uncommenting the line beginning with "for_aux"  below, thus adding an extra g radial
  # function to the construction of the product basis set for the expansion.
  # See Ref. New J. Phys. 17, 093020 (2015) for more information, particularly Figs. 1 and 6.
  #
  ################################################################################
  #
  # for_aux hydro 5 g 6.0
  
  -----------------------------------------------------------------------
  Completed first pass over input file control.in .
  -----------------------------------------------------------------------
  
  
  -----------------------------------------------------------------------
  Parsing geometry.in (first pass over file, find array dimensions only).
  The contents of geometry.in will be repeated verbatim below
  unless switched off by setting 'verbatim_writeout .false.' .
  in the first line of geometry.in .
  -----------------------------------------------------------------------
  
  #===============================================================================
  # Created using the Atomic Simulation Environment (ASE)
  
  # Wed Jul 29 18:09:32 2026
  
  #=======================================================
  atom 0.0000000000000000 -0.0000004825032893 0.9299999999998749 B
  atom 0.0000000000000000 0.0000004825032893 -0.9299999999998749 P
  atom 0.0000000000000000 1.1687465174967107 1.2120909999998748 H
  atom -1.0121659999999999 -0.5843764825032893 1.2120869999998749 H
  atom 1.0121659999999999 -0.5843774825032894 1.2120879999998748 H
  atom 0.0000000000000000 -1.2367375174967108 -1.5871029999998749 H
  atom -1.0710420000000000 0.6183664825032894 -1.5871069999998750 H
  atom 1.0710409999999999 0.6183674825032893 -1.5871079999998750 H
  
  -----------------------------------------------------------------------
  Completed first pass over input file geometry.in .
  -----------------------------------------------------------------------
  

  Basic array size parameters:
  | Number of species                 :        3
  | Number of atoms                   :        8
  | Max. basis fn. angular momentum   :        4
  | Max. atomic/ionic basis occupied n:        3
  | Max. number of basis fn. types    :        3
  | Max. radial fns per species/type  :        5
  | Max. logarithmic grid size        :     1352
  | Max. radial integration grid size :       87
  | Max. angular integration grid size:      434
  | Max. angular grid division number :        8
  | Radial grid for Hartree potential :     1352
  | Number of spin channels           :        1

  Definition of standardized fundamental physical constants in this FHI-aims run:
  | Using the set of values used in FHI-aims up to 2024, which combines values from
  | different CODATA sets - see constants.f90.
  | Use the 'codata' keyword in control.in to change this selection.

  Memory overcommitment is allowed on your operating system.

------------------------------------------------------------
          Reading file control.in.
------------------------------------------------------------
  XC: Using LibXC. Please refer to LibXC output for further details.
  Using libxc - Initializing
  Libxc version: 6.1.0

  You have selected libxc functional MGGA_X_R2SCAN (497)
    - Description: Re-regularized SCAN exchange by Furness et al
    - Type: MGGA(Exchange)
    - Using the following   6 external libxc parameters:
               _c1 = 0.667000000000D+00  (c1 parameter)
               _c2 = 0.800000000000D+00  (c2 parameter)
                _d = 0.124000000000D+01  (d parameter)
               _k1 = 0.650000000000D-01  (k1 parameter)
              _eta = 0.100000000000D-02  (eta parameter)
              _dp2 = 0.361000000000D+00  (dp2 parameter)
    - Reference to Literature:
      [1] J. W. Furness, A. D. Kaplan, J. Ning, J. P. Perdew, and J. Sun.,  J. Phys. Chem. Lett. 11, 8208-8215 (2020)
      [2] J. W. Furness, A. D. Kaplan, J. Ning, J. P. Perdew, and J. Sun.,  J. Phys. Chem. Lett. 11, 9248-9248 (2020)

  You have selected libxc functional MGGA_C_R2SCAN (498)
    - Description: Re-regularized SCAN correlation by Furness et al
    - Type: MGGA(Correlation)
    - Using the following   1 external libxc parameters:
              _eta = 0.100000000000D-02  (Regularization parameter)
    - Reference to Literature:
      [1] J. W. Furness, A. D. Kaplan, J. Ning, J. P. Perdew, and J. Sun.,  J. Phys. Chem. Lett. 11, 8208-8215 (2020)
      [2] J. W. Furness, A. D. Kaplan, J. Ning, J. P. Perdew, and J. Sun.,  J. Phys. Chem. Lett. 11, 9248-9248 (2020)

  Switching on meta-ggas
  Spin treatment: No spin polarisation.
  Charge =   0.000000E+00: Neutral system requested explicitly.
  Scalar relativistic treatment of kinetic energy: on-site free-atom approximation to ZORA.
  Atomic Solver XC: Using user-defined functional for generating the minimal NAO basis functions.
  Note that only the following functionals are available: kli, pz-lda, pw-lda, vwn, vwn-gauss, pw91_gga, pbe, rpbe, revpbe, pbeint, pbesol, blyp.
  Ionic Solver XC: Using user-defined functional for generating the minimal NAO basis functions.
  Note that only the following functionals are available: kli, pz-lda, pw-lda, vwn, vwn-gauss, pw91_gga, pbe, rpbe, revpbe, pbeint, pbesol, blyp.
  Occupation type: Gaussian broadening, width =   0.100000E-01 eV.
  Convergence accuracy of self-consistent charge density:  0.1000E-05
  Convergence accuracy of sum of eigenvalues:  0.1000E-02
  Convergence accuracy of total energy:  0.1000E-05
  Accuracy of occupation numbers  :  0.1000E-08
  Charge density mixing - mixing parameter:     0.1000
  Pulay mixing - number of memorized iterations:    8
  Maximum # of zeroin steps  : ****

  Reading configuration options for species H                   .
  | Found nuclear charge :   1.0000
  | Found atomic mass :    1.0079400000000001      amu
  | Found l_max for Hartree potential  :   6
  | Found cutoff potl. onset [A], width [A], scale factor :    4.00000    2.00000    1.00000
  | Threshold for basis-dependent cutoff potential is   0.100000E-03
  | Found data for basic radial integration grid :    24 points, outermost radius =    7.000 A
  | Found multiplier for basic radial grid :   2
  | Found angular grid specification: user-specified.
  | Specified grid contains     6 separate shells.
  | Check grid settings after all constraints further below.
  | Found free-atom valence shell :  1 s   1.000
  | Found free-ion valence shell :  1 s   0.500
  | Found hydrogenic basis function :  2 s   2.100
  | Found hydrogenic basis function :  2 p   3.500
  | Found hydrogenic basis function :  1 s   0.850
  | Found hydrogenic extended basis function :  3 d   7.000
 | Encountered keyword species, ending the description of species H                   .
  Species H                   : Missing cutoff potential type.
  Defaulting to exp(1/x)/(1-x)^2 type cutoff potential.
  Species H : No 'logarithmic' tag. Using default grid for free atom:
  | Default logarithmic grid data [bohr] : 0.1000E-03 0.1000E+03 0.1012E+01
  Species H : On-site basis accuracy parameter (for Gram-Schmidt orthonormalisation) not specified.
  Using default value basis_acc =  0.1000000E-03.
  Species H                   : Using default innermost maximum threshold i_radial=  2 for radial functions.
  Species H                   : Default cutoff onset for free atom density etc. : 0.40000000E+01 AA.
  Species H                   : Basic radial grid will be enhanced according to radial_multiplier =   2, to contain    49 grid points.

  Reading configuration options for species B                   .
  | Found nuclear charge :   5.0000
  | Found atomic mass :    10.811000000000000      amu
  | Found l_max for Hartree potential  :   6
  | Found cutoff potl. onset [A], width [A], scale factor :    4.00000    2.00000    1.00000
  | Threshold for basis-dependent cutoff potential is   0.100000E-03
  | Found data for basic radial integration grid :    32 points, outermost radius =    7.000 A
  | Found multiplier for basic radial grid :   2
  | Found angular grid specification: user-specified.
  | Specified grid contains     5 separate shells.
  | Check grid settings after all constraints further below.
  | Found free-atom valence shell :  2 s   2.000
  | Found free-atom valence shell :  2 p   1.000
  | Found free-ion valence shell :  2 s   1.000
  | Found hydrogenic basis function :  2 p   1.400
  | Found hydrogenic basis function :  3 d   4.800
  | Found hydrogenic basis function :  2 s   4.000
  | Found hydrogenic basis function :  4 f   7.800
  | Found hydrogenic extended basis function :  5 g  11.200
 | Encountered keyword species, ending the description of species B                   .
  Species B                   : Missing cutoff potential type.
  Defaulting to exp(1/x)/(1-x)^2 type cutoff potential.
  Species B : No 'logarithmic' tag. Using default grid for free atom:
  | Default logarithmic grid data [bohr] : 0.1000E-03 0.1000E+03 0.1012E+01
  Species B : On-site basis accuracy parameter (for Gram-Schmidt orthonormalisation) not specified.
  Using default value basis_acc =  0.1000000E-03.
  Species B                   : Using default innermost maximum threshold i_radial=  2 for radial functions.
  Species B                   : Default cutoff onset for free atom density etc. : 0.40000000E+01 AA.
  Species B                   : Basic radial grid will be enhanced according to radial_multiplier =   2, to contain    65 grid points.

  Reading configuration options for species P                   .
  | Found nuclear charge :  15.0000
  | Found atomic mass :    30.973762000000001      amu
  | Found l_max for Hartree potential  :   6
  | Found cutoff potl. onset [A], width [A], scale factor :    4.00000    2.00000    1.00000
  | Threshold for basis-dependent cutoff potential is   0.100000E-03
  | Found data for basic radial integration grid :    43 points, outermost radius =    7.000 A
  | Found multiplier for basic radial grid :   2
  | Found angular grid specification: user-specified.
  | Specified grid contains     6 separate shells.
  | Check grid settings after all constraints further below.
  | Found free-atom valence shell :  3 s   2.000
  | Found free-atom valence shell :  3 p   3.000
  | Found free-ion valence shell :  3 s   1.000
  | Found free-ion valence shell :  3 p   2.000
  | Found ionic basis function :  3 d , default cutoff radius.
  | Found ionic basis function :  3 p , default cutoff radius.
  | Found hydrogenic basis function :  4 f   6.200
  | Found hydrogenic extended basis function :  5 g   8.600
  | Found ionic basis function :  3 s , default cutoff radius.
  Species P                   : Missing cutoff potential type.
  Defaulting to exp(1/x)/(1-x)^2 type cutoff potential.
  Species P : No 'logarithmic' tag. Using default grid for free atom:
  | Default logarithmic grid data [bohr] : 0.1000E-03 0.1000E+03 0.1012E+01
  | Will include ionic basis functions of  2.0-fold positive P                    ion.
  Species P : On-site basis accuracy parameter (for Gram-Schmidt orthonormalisation) not specified.
  Using default value basis_acc =  0.1000000E-03.
  Species P                   : Using default innermost maximum threshold i_radial=  2 for radial functions.
  Species P                   : Default cutoff onset for free atom density etc. : 0.40000000E+01 AA.
  Species P                   : Basic radial grid will be enhanced according to radial_multiplier =   2, to contain    87 grid points.

  Finished reading input file 'control.in'.

------------------------------------------------------------


------------------------------------------------------------
          Reading geometry description geometry.in.
------------------------------------------------------------
  | The smallest distance between any two atoms is         1.20230815 AA.
  | The first atom of this pair is atom number                      1 .
  | The second atom of this pair is atom number                     3 .
  Input structure read successfully.
  The structure contains        8 atoms,  and a total of         26.000 electrons.

  Input geometry:
  | No unit cell requested.
  | Atomic structure:
  |       Atom                x [A]            y [A]            z [A]
  |    1: Species B             0.00000000       -0.00000048        0.93000000
  |    2: Species P             0.00000000        0.00000048       -0.93000000
  |    3: Species H             0.00000000        1.16874652        1.21209100
  |    4: Species H            -1.01216600       -0.58437648        1.21208700
  |    5: Species H             1.01216600       -0.58437748        1.21208800
  |    6: Species H             0.00000000       -1.23673752       -1.58710300
  |    7: Species H            -1.07104200        0.61836648       -1.58710700
  |    8: Species H             1.07104100        0.61836748       -1.58710800

  Slab Identifier: This is not a periodic structure.

  Finished reading input file 'geometry.in'.



  Consistency checks for stacksize environment parameter are next.

  | Maximum stacksize for task 0: unlimited
  | Maximum stacksize for task 1: unlimited
  | Maximum stacksize for task 2: unlimited
  | Maximum stacksize for task 3: unlimited
  | Maximum stacksize for task 4: unlimited
  | Maximum stacksize for task 5: unlimited
  | Maximum stacksize for task 6: unlimited
  | Maximum stacksize for task 7: unlimited
  | Maximum stacksize for task 8: unlimited
  | Maximum stacksize for task 9: unlimited
  | Maximum stacksize for task 10: unlimited
  | Maximum stacksize for task 11: unlimited
  | Maximum stacksize for task 12: unlimited
  | Maximum stacksize for task 13: unlimited
  | Maximum stacksize for task 14: unlimited
  | Maximum stacksize for task 15: unlimited
  | Maximum stacksize for task 16: unlimited
  | Maximum stacksize for task 17: unlimited
  | Maximum stacksize for task 18: unlimited
  | Maximum stacksize for task 19: unlimited
  | Maximum stacksize for task 20: unlimited
  | Maximum stacksize for task 21: unlimited
  | Maximum stacksize for task 22: unlimited
  | Maximum stacksize for task 23: unlimited
  | Maximum stacksize for task 24: unlimited
  | Maximum stacksize for task 25: unlimited
  | Maximum stacksize for task 26: unlimited
  | Maximum stacksize for task 27: unlimited
  | Maximum stacksize for task 28: unlimited
  | Maximum stacksize for task 29: unlimited
  | Maximum stacksize for task 30: unlimited
  | Maximum stacksize for task 31: unlimited
  | Maximum stacksize for task 32: unlimited
  | Maximum stacksize for task 33: unlimited
  | Maximum stacksize for task 34: unlimited
  | Maximum stacksize for task 35: unlimited
  | Maximum stacksize for task 36: unlimited
  | Maximum stacksize for task 37: unlimited
  | Maximum stacksize for task 38: unlimited
  | Maximum stacksize for task 39: unlimited
  | Maximum stacksize for task 40: unlimited
  | Maximum stacksize for task 41: unlimited
  | Maximum stacksize for task 42: unlimited
  | Maximum stacksize for task 43: unlimited
  | Maximum stacksize for task 44: unlimited
  | Maximum stacksize for task 45: unlimited
  | Maximum stacksize for task 46: unlimited
  | Maximum stacksize for task 47: unlimited
  | Maximum stacksize for task 48: unlimited
  | Maximum stacksize for task 49: unlimited
  | Maximum stacksize for task 50: unlimited
  | Maximum stacksize for task 51: unlimited
  | Maximum stacksize for task 52: unlimited
  | Maximum stacksize for task 53: unlimited
  | Maximum stacksize for task 54: unlimited
  | Maximum stacksize for task 55: unlimited
  | Maximum stacksize for task 56: unlimited
  | Maximum stacksize for task 57: unlimited
  | Maximum stacksize for task 58: unlimited
  | Maximum stacksize for task 59: unlimited
  | Maximum stacksize for task 60: unlimited
  | Maximum stacksize for task 61: unlimited
  | Maximum stacksize for task 62: unlimited
  | Maximum stacksize for task 63: unlimited
  | Current stacksize for task 0: unlimited
  | Current stacksize for task 1: unlimited
  | Current stacksize for task 2: unlimited
  | Current stacksize for task 3: unlimited
  | Current stacksize for task 4: unlimited
  | Current stacksize for task 5: unlimited
  | Current stacksize for task 6: unlimited
  | Current stacksize for task 7: unlimited
  | Current stacksize for task 8: unlimited
  | Current stacksize for task 9: unlimited
  | Current stacksize for task 10: unlimited
  | Current stacksize for task 11: unlimited
  | Current stacksize for task 12: unlimited
  | Current stacksize for task 13: unlimited
  | Current stacksize for task 14: unlimited
  | Current stacksize for task 15: unlimited
  | Current stacksize for task 16: unlimited
  | Current stacksize for task 17: unlimited
  | Current stacksize for task 18: unlimited
  | Current stacksize for task 19: unlimited
  | Current stacksize for task 20: unlimited
  | Current stacksize for task 21: unlimited
  | Current stacksize for task 22: unlimited
  | Current stacksize for task 23: unlimited
  | Current stacksize for task 24: unlimited
  | Current stacksize for task 25: unlimited
  | Current stacksize for task 26: unlimited
  | Current stacksize for task 27: unlimited
  | Current stacksize for task 28: unlimited
  | Current stacksize for task 29: unlimited
  | Current stacksize for task 30: unlimited
  | Current stacksize for task 31: unlimited
  | Current stacksize for task 32: unlimited
  | Current stacksize for task 33: unlimited
  | Current stacksize for task 34: unlimited
  | Current stacksize for task 35: unlimited
  | Current stacksize for task 36: unlimited
  | Current stacksize for task 37: unlimited
  | Current stacksize for task 38: unlimited
  | Current stacksize for task 39: unlimited
  | Current stacksize for task 40: unlimited
  | Current stacksize for task 41: unlimited
  | Current stacksize for task 42: unlimited
  | Current stacksize for task 43: unlimited
  | Current stacksize for task 44: unlimited
  | Current stacksize for task 45: unlimited
  | Current stacksize for task 46: unlimited
  | Current stacksize for task 47: unlimited
  | Current stacksize for task 48: unlimited
  | Current stacksize for task 49: unlimited
  | Current stacksize for task 50: unlimited
  | Current stacksize for task 51: unlimited
  | Current stacksize for task 52: unlimited
  | Current stacksize for task 53: unlimited
  | Current stacksize for task 54: unlimited
  | Current stacksize for task 55: unlimited
  | Current stacksize for task 56: unlimited
  | Current stacksize for task 57: unlimited
  | Current stacksize for task 58: unlimited
  | Current stacksize for task 59: unlimited
  | Current stacksize for task 60: unlimited
  | Current stacksize for task 61: unlimited
  | Current stacksize for task 62: unlimited
  | Current stacksize for task 63: unlimited

  Consistency checks for the contents of control.in are next.

  MPI_IN_PLACE appears to work with this MPI implementation.
  | Keeping use_mpi_in_place .true. (see manual).
  Target number of points in a grid batch is not set. Defaulting to  100
  Method for grid partitioning is not set. Defaulting to parallel hash+maxmin partitioning.
  Batch size limit is not set. Defaulting to    200
  By default, will store active basis functions for each batch.
  If in need of memory, prune_basis_once .false. can be used to disable this option.
  communication_type for Hartree potential was not specified.
  Defaulting to calc_hartree .
  Defaulting to Pulay charge density mixer.
  Pulay mixer: Number of initial linear mixing iterations not set.
  Defaulting to    0 iterations.
  Work space size for distributed Hartree potential not set.
  Defaulting to   0.200000E+03 MB.
  Algorithm-dependent basis array size parameters:
  | n_max_pulay                         :        8
  Maximum number of self-consistency iterations not provided.
  Presetting  1000 iterations.
  Presetting      1001 iterations before the initial mixing cycle
  is restarted anyway using the sc_init_iter criterion / keyword.
  Presetting a factor      1.000 between actual scf density residual
  and density convergence criterion sc_accuracy_rho below which sc_init_iter
  takes no effect.
  Calculation of forces was not defined in control.in. No forces will be calculated.
  Geometry relaxation not requested: no relaxation will be performed.
  No accuracy limit for integral partition fn. given. Defaulting to  0.1000E-14.
  No threshold value for u(r) in integrations given. Defaulting to  0.1000E-05.
  No threshold value for occupation numbers given. Defaulting to  0.0000E+00.
  No accuracy for fermi level given. Defaulting to  0.1000E-19.
  Preferred method for the eigenvalue solver ('KS_method') not specified in 'control.in'.
  Calling BLACS routine to test compilation state
  Since ScaLAPACK support is enabled, defaulting to ELPA (via ELSI).
  Threshold for basis singularities not set.
  Default threshold for basis singularities:  0.1000E-04
  partition_type (choice of integration weights) for integrals was not specified.
  | Using a version of the partition function of Stratmann and coworkers ('stratmann_sparse').
  | At each grid point, the set of atoms used to build the partition table is smoothly restricted to
  | only those atoms whose free-atom density would be non-zero at that grid point.
  Partitioning for Hartree potential was not defined. Using partition_type for integrals.
  | Adjusted default value of keyword multip_moments_threshold to:       0.10000000E-11
  | This value may affect high angular momentum components of the Hartree potential in periodic systems.
  No q(lm)/r^(l+1) cutoff set for long-range Hartree potential.
  | Using default value of  0.100000E-09 .
  | Verify using the multipole_threshold keyword.
  Defaulting to new monopole extrapolation.
  Density update method: automatic selection selected.
  Charge integration errors on the 3D integration grid will be compensated
  by explicit normalization and distribution of residual charges.
  Use the "compensate_multipole_errors" flag to change this behaviour.
  Set 'collect_eigenvectors' to be '.true.' for use_density_matrix .false.
  Found potential conflicts with setting 'use_local_index' for this calculation. Will not set it.
** WARNING:

  You have specified the use of LibXC.

  ** PLEASE ** be careful using LibXC. Whilst most of the LDA, GGA and MGGA
  functionals, and hybrid variations therein, should be stable (though we
  always recommend testing!), there are several fancy functionals with e.g.
  range-separation, like HSE03/HSE06/LC-PBEh, and also MGGA functionals
  that depend on the laplacian of the density, like BR89, that are not
  fully implemented due to the infrastructure for these functionals being
  incomplete or non-generic.
  If you want to use these functionals please contact the development team
  and we will work on them with you!

** END OF WARNING

  Consistency checks for the contents of geometry.in are next.

  Number of empty states per atom not set in control.in - providing a guess from actual geometry.
  | Total number of empty states used during s.c.f. cycle:       15
  If you use a very high smearing, use empty_states (per atom!) in control.in to increase this value.

  Structure-dependent array size parameters: 
  | Maximum number of distinct radial functions  :       23
  | Maximum number of basis functions            :      130
  | Number of Kohn-Sham states (occupied + empty):       28
------------------------------------------------------------
  After read_input_data [GB]:   1035.44

  Performing system and environment tests:
  | Environment variable OMP_NUM_THREADS correctly set to 1.
  | Checking for ScaLAPACK...
  | Testing pdtran()...
  *** WARNING: CPU mismatch detected for Node worker6188 : Intel(R) Xeon(R) Platinum 8362 CPU @ 2.80GHz                                                 
  | All pdtran() tests passed.
  | Testing CPU compatibility for run-time vs. build-time.
  | Reading /proc/cpuinfo for CPU information ...
  | Built for  : Intel(R) Xeon(R) w5-3435X
  *** WARNING: CPU mismatch detected for Node worker6187 : Intel(R) Xeon(R) Platinum 8362 CPU @ 2.80GHz                                                 
** WARNING:
  | WARNING: This FHI-aims executable was built on a different
  CPU type than the CPUs used in this run.

  | Running on different hardware than that on which a code was compiled
  | can produce incorrect results (wrong numbers) due to architecture-specific
  | optimizations made by the compiler. Those wrong numbers may occur only spuriously.
  | They are therefore very difficult to rule out even by tests ahead of time.

** END OF WARNING
  | Running on : Intel(R) Xeon(R) Platinum 8362 CPU @ 2.80GHz
  | Runtime CPU compatibility verified.
  
  After prepare_system [GB]:   1035.44

------------------------------------------------------------
          Preparing all fixed parts of the calculation.
------------------------------------------------------------
  Determining machine precision:
     2.2250738585072014E-308
  Setting up grids for atomic and cluster calculations.

  Creating wave function, potential, and density for free atoms.
  Runtime choices for atomic solver:
  | atomic solver xc        : PBE
  | compute density gradient: 1
  | compute kinetic density : T

  Species: H

  List of occupied orbitals and eigenvalues:
    n    l              occ      energy [Ha]    energy [eV]
    1    0           1.0000        -0.238386        -6.4868


  Species: B

  List of occupied orbitals and eigenvalues:
    n    l              occ      energy [Ha]    energy [eV]
    1    0           2.0000        -6.635780      -180.5688
    2    0           2.0000        -0.345517        -9.4020
    2    1           1.0000        -0.130792        -3.5590


  Species: P

  List of occupied orbitals and eigenvalues:
    n    l              occ      energy [Ha]    energy [eV]
    1    0           2.0000       -76.790257     -2089.5692
    2    0           2.0000        -6.393895      -173.9867
    3    0           2.0000        -0.512112       -13.9353
    2    1           6.0000        -4.574086      -124.4672
    3    1           3.0000        -0.201148        -5.4735


  Adding cutoff potential to free-atom effective potential.
  Creating fixed part of basis set: Ionic, confined, hydrogenic.

  H                    hydrogenic:

  List of hydrogenic basis orbitals: 
    n    l      effective z      eigenvalue [eV]  inner max. [A]     outer max. [A]     outer radius [A]   
    2    0         2.100000       -14.9965           0.193243           1.317208           5.373006
    2    1         3.500000       -41.6672           0.602369           0.602369           4.056063
    1    0         0.850000        -9.8292           0.624871           0.624871           5.373006

  List of extra hydrogenic orbitals for auxiliary basis: 
    n    l      effective z      eigenvalue [eV]  inner max. [A]     outer max. [A]     outer radius [A]   
    3    2         7.000000       -74.0753           0.680699           0.680699           3.769201


  B                    hydrogenic:

  List of hydrogenic basis orbitals: 
    n    l      effective z      eigenvalue [eV]  inner max. [A]     outer max. [A]     outer radius [A]   
    2    1         1.400000        -6.6027           1.494848           1.494848           5.462314
    3    2         4.800000       -34.8303           0.986467           0.986467           4.893206
    2    0         4.000000       -54.4226           0.101523           0.692014           3.878983
    4    3         7.800000       -51.7355           1.087819           1.087819           4.716999

  List of extra hydrogenic orbitals for auxiliary basis: 
    n    l      effective z      eigenvalue [eV]  inner max. [A]     outer max. [A]     outer radius [A]   
    5    4        11.200000       -68.2678           1.185008           1.185008           4.659684


  P                    ion:
  Runtime choices for ionic solver:
  | ionic solver xc        : PBE

  List of free ionic orbitals and eigenvalues:
    n    l      energy [Ha]    energy [eV]
    1    0       -77.734373     -2115.2599
    2    0        -7.310959      -198.9413
    3    0        -1.271460       -34.5982
    2    1        -5.492730      -149.4648
    3    1        -0.913468       -24.8567


  List of ionic basis orbitals and eigenvalues:
    n    l      energy [Ha]    energy [eV]    outer radius [A]
    3    2        -0.457450       -12.4478       5.404780
    3    1        -0.913460       -24.8565       4.724723
    3    0        -1.271453       -34.5980       4.232463


  P                    hydrogenic:

  List of hydrogenic basis orbitals: 
    n    l      effective z      eigenvalue [eV]  inner max. [A]     outer max. [A]     outer radius [A]   
    4    3         6.200000       -32.6870           1.357793           1.357793           5.339109

  List of extra hydrogenic orbitals for auxiliary basis: 
    n    l      effective z      eigenvalue [eV]  inner max. [A]     outer max. [A]     outer radius [A]   
    5    4         8.600000       -40.2502           1.534356           1.534356           5.404780

  Creating atomic-like basis functions for current effective potential.

  Species H                   :

  List of atomic basis orbitals and eigenvalues:
    n    l      energy [Ha]    energy [eV]    outer radius [A]
    1    0        -0.238386        -6.4868       5.373006


  Species B                   :

  List of atomic basis orbitals and eigenvalues:
    n    l      energy [Ha]    energy [eV]    outer radius [A]
    1    0        -6.635780      -180.5688       2.349843
    2    0        -0.345517        -9.4020       5.330380
    2    1        -0.130792        -3.5590       5.395944


  Species P                   :

  List of atomic basis orbitals and eigenvalues:
    n    l      energy [Ha]    energy [eV]    outer radius [A]
    1    0       -76.790257     -2089.5692       0.727884
    2    0        -6.393895      -173.9867       2.532824
    3    0        -0.512112       -13.9353       5.274236
    2    1        -4.574086      -124.4672       2.862183
    3    1        -0.201148        -5.4735       5.404780

  Assembling full basis from fixed parts.
  | Species H :   atomic orbital   1 s accepted.
  | Species H :    hydro orbital   2 s accepted.
  | Species H :    hydro orbital   1 s accepted.
  | Species H :    hydro orbital   2 p accepted.
  | Species B :   atomic orbital   1 s accepted.
  | Species B :    hydro orbital   2 s accepted.
  | Species B :   atomic orbital   2 s accepted.
  | Species B :   atomic orbital   2 p accepted.
  | Species B :    hydro orbital   2 p accepted.
  | Species B :    hydro orbital   3 d accepted.
  | Species B :    hydro orbital   4 f accepted.
  | Species P :   atomic orbital   1 s accepted.
  | Species P :   atomic orbital   2 s accepted.
  | Species P :    ionic orbital   3 s accepted.
  | Species P :   atomic orbital   3 s accepted.
  | Species P :   atomic orbital   2 p accepted.
  | Species P :    ionic orbital   3 p accepted.
  | Species P :   atomic orbital   3 p accepted.
  | Species P :    ionic orbital   3 d accepted.
  | Species P :    hydro orbital   4 f accepted.

  Basis size parameters after reduction:
  | Total number of radial functions:       20
  | Total number of basis functions :       82

  Assembling extended basis for auxiliary basis.
  | Species H :   atomic orbital   1 s accepted.
  | Species H :    hydro orbital   2 s accepted.
  | Species H :    hydro orbital   1 s accepted.
  | Species H :    hydro orbital   2 p accepted.
  | Species H :    hydro orbital   3 d accepted.
  | Species B :   atomic orbital   1 s accepted.
  | Species B :    hydro orbital   2 s accepted.
  | Species B :   atomic orbital   2 s accepted.
  | Species B :   atomic orbital   2 p accepted.
  | Species B :    hydro orbital   2 p accepted.
  | Species B :    hydro orbital   3 d accepted.
  | Species B :    hydro orbital   4 f accepted.
  | Species B :    hydro orbital   5 g accepted.
  | Species P :   atomic orbital   1 s accepted.
  | Species P :   atomic orbital   2 s accepted.
  | Species P :    ionic orbital   3 s accepted.
  | Species P :   atomic orbital   3 s accepted.
  | Species P :   atomic orbital   2 p accepted.
  | Species P :    ionic orbital   3 p accepted.
  | Species P :   atomic orbital   3 p accepted.
  | Species P :    ionic orbital   3 d accepted.
  | Species P :    hydro orbital   4 f accepted.
  | Species P :    hydro orbital   5 g accepted.
  Per-task memory consumption for arrays in subroutine allocate_ext:
  |           7.965532MB.

  Extended basis size parameters after reduction:
  | Total number of radial functions:       23
  | Total number of basis functions :      130

  Testing on-site integration grid accuracy.
  |  Species  Function  <phi|h_atom|phi> (log., in eV)  <phi|h_atom|phi> (rad., in eV)
           1        1                 -6.4870767962                 -6.4871688290
           1        2                 13.5032046589                 13.5028982997
           1        3                 32.8195184817                 32.8119941656
           1        4                 25.2452007246                 25.2452010322
           2        5               -180.5687569307               -180.5687561212
           2        6                 -7.1438314513                 -7.1438317353
           2        7                 12.0187568333                 12.0189574632
           2        8                 -3.5612258789                 -3.5609079337
           2        9                  5.9635381578                  5.9675020528
           2       10                 17.1402149446                 17.1402132576
           2       11                 37.0814692226                 37.0814713082
           3       12              -2089.5691986335              -2089.5691596863
           3       13               -173.9867283695               -173.9867277557
           3       14                -13.6361081844                -13.6361080848
           3       15                  6.3196202277                  6.3196248730
           3       16               -124.4672117337               -124.4672115736
           3       17                 -4.8326310060                 -4.8326301332
           3       18                  5.8128667531                  5.8123810283
           3       19                  5.1351171633                  5.1350933795
           3       20                 19.3185135835                 19.3185098349

  Preparing densities etc. for the partition functions (integrals / Hartree potential).

  Preparations completed.
  max(cpu_time)          :      0.191 s.
  Wall clock time (cpu1) :      0.586 s.
------------------------------------------------------------
  After prepare_scf [GB]:   1034.51

  Initializing index lists of integration centers etc. from given atomic structure:
  | Number of centers in hartree potential                       :         8
  | Number of centers in hartree multipole                       :         8
  | Number of centers in electron density summation              :         8
  | Number of centers in basis integrals                         :         8
  | Number of centers in integrals                               :         8
  | Number of centers in hamiltonian                             :         8
  | Number of centers in partition table from touching 0-cell    :         8
  | Number of centers in partition table total                   :         8
  After initialize_bc_dependent_lists [GB]:   1034.51

------------------------------------------------------------
          Begin self-consistency loop: Initialization.

          Date     :  20260729, Time     :  181236.723
------------------------------------------------------------
  Available memory per node after initialize_hartree_non_periodic_ewald [GB]:   1034.51
  Available memory per node after initialize_recip_hartree_potential [GB]:   1034.51
  * Using 64 tasks for Scalapack Eigenvalue solver.
  Detailed listing of tasks and assigned k-points:
  (for non-periodic systems, the "k-point" denotes an internal label only)
   Task     0 k-point     1 on worker6187
   Task     1 k-point     1 on worker6187
   Task     2 k-point     1 on worker6187
   Task     3 k-point     1 on worker6187
   Task     4 k-point     1 on worker6187
   Task     5 k-point     1 on worker6187
   Task     6 k-point     1 on worker6187
   Task     7 k-point     1 on worker6187
   Task     8 k-point     1 on worker6187
   Task     9 k-point     1 on worker6187
   Task    10 k-point     1 on worker6187
   Task    11 k-point     1 on worker6187
   Task    12 k-point     1 on worker6187
   Task    13 k-point     1 on worker6187
   Task    14 k-point     1 on worker6187
   Task    15 k-point     1 on worker6187
   Task    16 k-point     1 on worker6187
   Task    17 k-point     1 on worker6187
   Task    18 k-point     1 on worker6187
   Task    19 k-point     1 on worker6187
   Task    20 k-point     1 on worker6187
   Task    21 k-point     1 on worker6187
   Task    22 k-point     1 on worker6187
   Task    23 k-point     1 on worker6187
   Task    24 k-point     1 on worker6187
   Task    25 k-point     1 on worker6187
   Task    26 k-point     1 on worker6187
   Task    27 k-point     1 on worker6187
   Task    28 k-point     1 on worker6187
   Task    29 k-point     1 on worker6187
   Task    30 k-point     1 on worker6187
   Task    31 k-point     1 on worker6187
   Task    32 k-point     1 on worker6188
   Task    33 k-point     1 on worker6188
   Task    34 k-point     1 on worker6188
   Task    35 k-point     1 on worker6188
   Task    36 k-point     1 on worker6188
   Task    37 k-point     1 on worker6188
   Task    38 k-point     1 on worker6188
   Task    39 k-point     1 on worker6188
   Task    40 k-point     1 on worker6188
   Task    41 k-point     1 on worker6188
   Task    42 k-point     1 on worker6188
   Task    43 k-point     1 on worker6188
   Task    44 k-point     1 on worker6188
   Task    45 k-point     1 on worker6188
   Task    46 k-point     1 on worker6188
   Task    47 k-point     1 on worker6188
   Task    48 k-point     1 on worker6188
   Task    49 k-point     1 on worker6188
   Task    50 k-point     1 on worker6188
   Task    51 k-point     1 on worker6188
   Task    52 k-point     1 on worker6188
   Task    53 k-point     1 on worker6188
   Task    54 k-point     1 on worker6188
   Task    55 k-point     1 on worker6188
   Task    56 k-point     1 on worker6188
   Task    57 k-point     1 on worker6188
   Task    58 k-point     1 on worker6188
   Task    59 k-point     1 on worker6188
   Task    60 k-point     1 on worker6188
   Task    61 k-point     1 on worker6188
   Task    62 k-point     1 on worker6188
   Task    63 k-point     1 on worker6188
  Tasks:    64 split into      8 X      8 BLACS grid
  Calculating block size based on n_basis =           82  max_nprow =            8  max_npcol =            8
  ScaLAPACK block size set to:            8
  Allocating        0.002 MB for ovlp
  Allocating        0.002 MB for ham
  Allocating        0.002 MB for eigenvec
  Required Scalapack workspace - INTEGER:            1  REAL:             1
  Available memory per node after initialize_scalapack [GB]:   1034.51
  Available memory per node after aims_elsi_init_scf [GB]:   1034.51
  Available memory per node after initialize_fixed_grids [GB]:   1034.51
  Partitioning the integration grid into batches with parallel hashing+maxmin method.
  | Number of batches:     1833
  | Maximal batch size:     196
  | Minimal batch size:       2
  | Average batch size:      68.546
  | Standard deviation of batch sizes:      24.667

  Integration load balanced across    64 MPI tasks.
  Work distribution over tasks is as follows:
  Task     0 has       1914 integration points.
  Task     1 has       1930 integration points.
  Task     2 has       1958 integration points.
  Task     3 has       1911 integration points.
  Task     4 has       1927 integration points.
  Task     5 has       1996 integration points.
  Task     6 has       1909 integration points.
  Task     7 has       1938 integration points.
  Task     8 has       2072 integration points.
  Task     9 has       1910 integration points.
  Task    10 has       2095 integration points.
  Task    11 has       1920 integration points.
  Task    12 has       1911 integration points.
  Task    13 has       1935 integration points.
  Task    14 has       1998 integration points.
  Task    15 has       1929 integration points.
  Task    16 has       1924 integration points.
  Task    17 has       1917 integration points.
  Task    18 has       1911 integration points.
  Task    19 has       1910 integration points.
  Task    20 has       1912 integration points.
  Task    21 has       1909 integration points.
  Task    22 has       1994 integration points.
  Task    23 has       1939 integration points.
  Task    24 has       2002 integration points.
  Task    25 has       1940 integration points.
  Task    26 has       2009 integration points.
  Task    27 has       1946 integration points.
  Task    28 has       1933 integration points.
  Task    29 has       1967 integration points.
  Task    30 has       2013 integration points.
  Task    31 has       1934 integration points.
  Task    32 has       2067 integration points.
  Task    33 has       1911 integration points.
  Task    34 has       1963 integration points.
  Task    35 has       2016 integration points.
  Task    36 has       1930 integration points.
  Task    37 has       1988 integration points.
  Task    38 has       1953 integration points.
  Task    39 has       2068 integration points.
  Task    40 has       1925 integration points.
  Task    41 has       1914 integration points.
  Task    42 has       2013 integration points.
  Task    43 has       1914 integration points.
  Task    44 has       1919 integration points.
  Task    45 has       1991 integration points.
  Task    46 has       1961 integration points.
  Task    47 has       1912 integration points.
  Task    48 has       1936 integration points.
  Task    49 has       1921 integration points.
  Task    50 has       2046 integration points.
  Task    51 has       1910 integration points.
  Task    52 has       1908 integration points.
  Task    53 has       2079 integration points.
  Task    54 has       1917 integration points.
  Task    55 has       2048 integration points.
  Task    56 has       1950 integration points.
  Task    57 has       2070 integration points.
  Task    58 has       2092 integration points.
  Task    59 has       2082 integration points.
  Task    60 has       1908 integration points.
  Task    61 has       1924 integration points.
  Task    62 has       1996 integration points.
  Task    63 has       1999 integration points.
  Available memory per node after partition_grid [GB]:   1034.17
  Initializing partition tables, free-atom densities, potentials, etc. across the integration grid (initialize_grid_storage).
  | initialize_grid_storage: Actual outermost partition radius vs. multipole_radius_free
  | (-- VB: in principle, multipole_radius_free should be larger, hence this output)
  | Species        1: Confinement radius =              6.000000000000000 AA, multipole_radius_free =              6.071692442739658 AA.
  | Species        1: outer_partition_radius set to              6.071692442739658 AA .
  | Species        2: Confinement radius =              6.000000000000000 AA, multipole_radius_free =              6.023523403561800 AA.
  | Species        2: outer_partition_radius set to              6.023523403561800 AA .
  | Species        3: Confinement radius =              6.000000000000000 AA, multipole_radius_free =              6.033387558927091 AA.
  | Species        3: outer_partition_radius set to              6.033387558927091 AA .
  | The sparse table of interatomic distances needs          0.71 kbyte instead of         0.51 kbyte of memory.
  | Using the partition_type stratmann_smoother will reduce your memory usage.
  | Net number of integration points:   125644
  | of which are non-zero points    :   107093
  Available memory per node after initialize_grid_storage_p1 [GB]:   1034.17
  Renormalizing the initial density to the exact electron count on the 3D integration grid.
  | Initial density: Formal number of electrons (from input files) :      26.0000000000
  | Integrated number of electrons on 3D grid     :      25.9999903024
  | Charge integration error                      :      -0.0000096976
  | Normalization factor for density and gradient :       1.0000003730
  Renormalizing the free-atom superposition density to the exact electron count on the 3D integration grid.
  | Formal number of electrons (from input files) :      26.0000000000
  | Integrated number of electrons on 3D grid     :      25.9999903024
  | Charge integration error                      :      -0.0000096976
  | Normalization factor for density and gradient :       1.0000003730
  Obtaining max. number of non-zero basis functions in each batch (get_n_compute_maxes).
  | Maximal number of non-zero basis functions:       82 in task     0
  | Maximal number of non-zero basis functions:       82 in task     1
  | Maximal number of non-zero basis functions:       82 in task     2
  | Maximal number of non-zero basis functions:       82 in task     3
  | Maximal number of non-zero basis functions:       82 in task     4
  | Maximal number of non-zero basis functions:       82 in task     5
  | Maximal number of non-zero basis functions:       82 in task     6
  | Maximal number of non-zero basis functions:       82 in task     7
  | Maximal number of non-zero basis functions:       82 in task     8
  | Maximal number of non-zero basis functions:       82 in task     9
  | Maximal number of non-zero basis functions:       82 in task    10
  | Maximal number of non-zero basis functions:       82 in task    11
  | Maximal number of non-zero basis functions:       82 in task    12
  | Maximal number of non-zero basis functions:       82 in task    13
  | Maximal number of non-zero basis functions:       82 in task    14
  | Maximal number of non-zero basis functions:       82 in task    15
  | Maximal number of non-zero basis functions:       82 in task    16
  | Maximal number of non-zero basis functions:       82 in task    17
  | Maximal number of non-zero basis functions:       82 in task    18
  | Maximal number of non-zero basis functions:       82 in task    19
  | Maximal number of non-zero basis functions:       82 in task    20
  | Maximal number of non-zero basis functions:       82 in task    21
  | Maximal number of non-zero basis functions:       82 in task    22
  | Maximal number of non-zero basis functions:       82 in task    23
  | Maximal number of non-zero basis functions:       82 in task    24
  | Maximal number of non-zero basis functions:       82 in task    25
  | Maximal number of non-zero basis functions:       82 in task    26
  | Maximal number of non-zero basis functions:       82 in task    27
  | Maximal number of non-zero basis functions:       82 in task    28
  | Maximal number of non-zero basis functions:       82 in task    29
  | Maximal number of non-zero basis functions:       82 in task    30
  | Maximal number of non-zero basis functions:       82 in task    31
  | Maximal number of non-zero basis functions:       82 in task    32
  | Maximal number of non-zero basis functions:       82 in task    33
  | Maximal number of non-zero basis functions:       82 in task    34
  | Maximal number of non-zero basis functions:       82 in task    35
  | Maximal number of non-zero basis functions:       82 in task    36
  | Maximal number of non-zero basis functions:       82 in task    37
  | Maximal number of non-zero basis functions:       82 in task    38
  | Maximal number of non-zero basis functions:       82 in task    39
  | Maximal number of non-zero basis functions:       82 in task    40
  | Maximal number of non-zero basis functions:       82 in task    41
  | Maximal number of non-zero basis functions:       82 in task    42
  | Maximal number of non-zero basis functions:       82 in task    43
  | Maximal number of non-zero basis functions:       82 in task    44
  | Maximal number of non-zero basis functions:       82 in task    45
  | Maximal number of non-zero basis functions:       82 in task    46
  | Maximal number of non-zero basis functions:       82 in task    47
  | Maximal number of non-zero basis functions:       82 in task    48
  | Maximal number of non-zero basis functions:       82 in task    49
  | Maximal number of non-zero basis functions:       82 in task    50
  | Maximal number of non-zero basis functions:       82 in task    51
  | Maximal number of non-zero basis functions:       82 in task    52
  | Maximal number of non-zero basis functions:       82 in task    53
  | Maximal number of non-zero basis functions:       82 in task    54
  | Maximal number of non-zero basis functions:       82 in task    55
  | Maximal number of non-zero basis functions:       82 in task    56
  | Maximal number of non-zero basis functions:       82 in task    57
  | Maximal number of non-zero basis functions:       82 in task    58
  | Maximal number of non-zero basis functions:       82 in task    59
  | Maximal number of non-zero basis functions:       82 in task    60
  | Maximal number of non-zero basis functions:       82 in task    61
  | Maximal number of non-zero basis functions:       82 in task    62
  | Maximal number of non-zero basis functions:       82 in task    63
  Selecting the method for density update.
  Loop over occupied states selected for charge density update.
  Available memory per node after get_n_compute_maxes_p1 [GB]:   1034.17
  Allocating        0.018 MB for KS_eigenvector
  Available memory per node after allocate_matrices [GB]:   1034.17
  Available memory per node after init_comm_sparse_local_matrix_scalapack [GB]:   1034.17
  Integrating Hamiltonian matrix: batch-based integration.
  Time summed over all CPUs for integration: real work        0.463 s, elapsed        0.649 s => Consider using load balancing!
  Available memory per node after integrate hamiltonian matrix [GB]:   1034.16
  Integrating overlap matrix.
  Time summed over all CPUs for integration: real work        0.177 s, elapsed        0.281 s
  Available memory per node after integrate ovlp matrix [GB]:   1034.16
  Deallocating overlap matrix.
  Available memory per node after save_overlap_scalapack [GB]:   1034.16

  Updating Kohn-Sham eigenvalues and eigenvectors using ELSI and the ELPA eigensolver.
  Overlap matrix is not singular
  | Lowest and highest eigenvalues :  0.1622E-02,  0.5094E+01
  Finished singularity check of overlap matrix
  | Time :     0.167 s
  Starting ELPA eigensolver
  Finished Cholesky decomposition
  | Time :     0.003 s
  Finished transformation to standard eigenproblem
  | Time :     0.000 s
  Finished solving standard eigenproblem
  | Time :     0.002 s
  Finished back-transformation of eigenvectors
  | Time :     0.000 s

  Obtaining occupation numbers and electronic chemical potential using ELSI.
  | Note that, for insulating systems, the printed 'chemical potential' value is not uniquely defined.
  | It can be anywhere in the energy gap, as long as it correctly separates occupied and unoccupied states.
  | In systems with a gap, the physically relevant chemical potential is the VBM or HOMO.

  | Chemical potential (Fermi level):    -6.84749616 eV
  Available memory per node after advance_KS_solution [GB]:   1034.16
  Writing Kohn-Sham eigenvalues.

  State    Occupation    Eigenvalue [Ha]    Eigenvalue [eV]
      1       2.00000         -76.501463        -2081.71071
      2       2.00000          -6.641266         -180.71804
      3       2.00000          -6.409819         -174.42005
      4       2.00000          -4.621667         -125.76197
      5       2.00000          -4.620207         -125.72223
      6       2.00000          -4.620206         -125.72221
      7       2.00000          -0.734080          -19.97535
      8       2.00000          -0.615511          -16.74891
      9       2.00000          -0.482127          -13.11934
     10       2.00000          -0.482126          -13.11932
     11       2.00000          -0.430976          -11.72744
     12       2.00000          -0.430975          -11.72743
     13       2.00000          -0.428543          -11.66124
     14       0.00000          -0.074739           -2.03376
     15       0.00000          -0.074736           -2.03367
     16       0.00000          -0.069623           -1.89453
     17       0.00000          -0.058424           -1.58980
     18       0.00000          -0.012072           -0.32849
     19       0.00000          -0.012071           -0.32847
     20       0.00000           0.008680            0.23619
     21       0.00000           0.045652            1.24225
     22       0.00000           0.045652            1.24225
     23       0.00000           0.058923            1.60338
     24       0.00000           0.081894            2.22846
     25       0.00000           0.081895            2.22847
     26       0.00000           0.154904            4.21515
     27       0.00000           0.154906            4.21520
     28       0.00000           0.164175            4.46744

  Highest occupied state (VBM) at    -11.66123638 eV
  | Occupation number:      2.00000000

  Lowest unoccupied state (CBM) at    -2.03375593 eV
  | Occupation number:      0.00000000

  Overall HOMO-LUMO gap:      9.62748044 eV.
  Calculating total energy contributions from superposition of free atom densities.

  Total energy components:
  | Sum of eigenvalues            :        -214.03793268 Ha       -5824.26848381 eV
  | XC energy correction          :         -27.59351966 Ha        -750.85787306 eV
  | XC potential correction       :          36.41516012 Ha         990.90692376 eV
  | Free-atom electrostatic energy:        -164.45235354 Ha       -4474.97622406 eV
  | Hartree energy correction     :          -0.00000000 Ha          -0.00000000 eV
  | Entropy correction            :          -0.00000000 Ha          -0.00000000 eV
  | ---------------------------
  | Total energy                  :        -369.66864575 Ha      -10059.19565717 eV
  | Total energy, T -> 0          :        -369.66864575 Ha      -10059.19565717 eV  <-- do not rely on this value for anything but (periodic) metals
  | Electronic free energy        :        -369.66864575 Ha      -10059.19565717 eV

  Derived energy quantities:
  | Kinetic energy                :         370.63525767 Ha       10085.49850581 eV
  | Electrostatic energy          :        -712.71038377 Ha      -19393.83628992 eV
  | Energy correction for multipole
  | error in Hartree potential    :           0.00000000 Ha           0.00000000 eV
  | Sum of eigenvalues per atom                           :        -728.03356048 eV
  | Total energy (T->0) per atom                          :       -1257.39945715 eV  <-- do not rely on this value for anything but (periodic) metals
  | Electronic free energy per atom                       :       -1257.39945715 eV
  Initialize hartree_potential_storage
  Max. number of atoms included in rho_multipole:            8

  End scf initialization - timings             :  max(cpu_time)    wall_clock(cpu1)
  | Time for scf. initialization                :        0.212 s           0.245 s
  | Boundary condition initialization           :        0.002 s           0.002 s
  | Integration                                 :        0.020 s           0.020 s
  | Solution of K.-S. eqns.                     :        0.147 s           0.177 s
  | Grid partitioning                           :        0.034 s           0.033 s
  | Preloading free-atom quantities on grid     :        0.008 s           0.008 s
  | Free-atom superposition energy              :        0.003 s           0.003 s
  | Total energy evaluation                     :        0.000 s           0.000 s

  Partial memory accounting:
  | Current value for overall tracked memory usage:
  |   Minimum:        0.046 MB (on task 27)
  |   Maximum:        0.050 MB (on task  0)
  |   Average:        0.047 MB
  | Peak value for overall tracked memory usage:
  |   Minimum:        1.228 MB (on task 27 after allocating wave)
  |   Maximum:        1.233 MB (on task  0 after allocating wave)
  |   Average:        1.229 MB
  | Largest tracked array allocation so far:
  |   Minimum:        0.368 MB (gradient_basis_wave_store on task  0)
  |   Maximum:        0.368 MB (all_coords on task 26)
  |   Average:        0.368 MB
  Note:  These values currently only include a subset of arrays which are explicitly tracked.
  The "true" memory usage will be greater.
------------------------------------------------------------
  Available memory after initialize_scf [GB]:   1034.12
  Available memory after allocating mixing [GB]:   1034.12
  Evaluating new KS density.
  Integration grid: deviation in total charge (<rho> - N_e) =   2.131628E-14

  Time for density update prior                :  max(cpu_time)    wall_clock(cpu1)
  | self-consistency iterative process          :        0.006 s           0.006 s
  Available memory before start of SCF loop [GB]:   1034.10

------------------------------------------------------------
          Begin self-consistency iteration #    1

  Date     :  20260729, Time     :  181236.974
------------------------------------------------------------
  Pulay mixing of updated and previous charge densities.
  Available memory per node after mixing [GB]:   1034.10
  Renormalizing the density to the exact electron count on the 3D integration grid.
  | Formal number of electrons (from input files) :      26.0000000000
  | Integrated number of electrons on 3D grid     :      26.0000000000
  | Charge integration error                      :       0.0000000000
  | Normalization factor for density and gradient :       1.0000000000

  Evaluating partitioned Hartree potential by multipole expansion.
  | Original multipole sum: apparent total charge =   0.276263E-14
  | Sum of charges compensated after spline to logarithmic grids =   0.158494E-06
  | Analytical far-field extrapolation by fixed multipoles:
  | Hartree multipole sum: apparent total charge =   0.265041E-14
  Summing up the Hartree potential.
  Time summed over all CPUs for potential: real work        0.008 s, elapsed        0.010 s
  | RMS charge density error from multipole expansion :   0.807610E-03

  Integrating Hamiltonian matrix: batch-based integration.
  Time summed over all CPUs for integration: real work        0.622 s, elapsed        0.808 s

  Updating Kohn-Sham eigenvalues and eigenvectors using ELSI and the ELPA eigensolver.
  Starting ELPA eigensolver
  Finished transformation to standard eigenproblem
  | Time :     0.001 s
  Finished solving standard eigenproblem
  | Time :     0.050 s
  Finished back-transformation of eigenvectors
  | Time :     0.000 s

  Obtaining occupation numbers and electronic chemical potential using ELSI.
  | Note that, for insulating systems, the printed 'chemical potential' value is not uniquely defined.
  | It can be anywhere in the energy gap, as long as it correctly separates occupied and unoccupied states.
  | In systems with a gap, the physically relevant chemical potential is the VBM or HOMO.

  | Chemical potential (Fermi level):    -6.32586387 eV
  Writing Kohn-Sham eigenvalues.

  State    Occupation    Eigenvalue [Ha]    Eigenvalue [eV]
      1       2.00000         -77.293672        -2103.26783
      2       2.00000          -6.776088         -184.38673
      3       2.00000          -6.605938         -179.75671
      4       2.00000          -4.713651         -128.26498
      5       2.00000          -4.712917         -128.24499
      6       2.00000          -4.712915         -128.24493
      7       2.00000          -0.745846          -20.29551
      8       2.00000          -0.612866          -16.67694
      9       2.00000          -0.478855          -13.03032
     10       2.00000          -0.478854          -13.03029
     11       2.00000          -0.420588          -11.44478
     12       2.00000          -0.420587          -11.44476
     13       2.00000          -0.407959          -11.10112
     14       0.00000          -0.056984           -1.55061
     15       0.00000          -0.056979           -1.55048
     16       0.00000          -0.038344           -1.04339
     17       0.00000          -0.034639           -0.94258
     18       0.00000           0.021021            0.57201
     19       0.00000           0.021024            0.57209
     20       0.00000           0.044029            1.19809
     21       0.00000           0.085373            2.32312
     22       0.00000           0.085374            2.32314
     23       0.00000           0.102865            2.79909
     24       0.00000           0.120877            3.28923
     25       0.00000           0.120879            3.28927
     26       0.00000           0.195688            5.32495
     27       0.00000           0.195692            5.32505
     28       0.00000           0.210756            5.73495

  Highest occupied state (VBM) at    -11.10111904 eV
  | Occupation number:      2.00000000

  Lowest unoccupied state (CBM) at    -1.55060869 eV
  | Occupation number:      0.00000000

  Overall HOMO-LUMO gap:      9.55051035 eV.

  Total energy components:
  | Sum of eigenvalues            :        -216.76147312 Ha       -5898.37978998 eV
  | XC energy correction          :         -29.18960847 Ha        -794.28965955 eV
  | XC potential correction       :          39.71889074 Ha        1080.80600781 eV
  | Free-atom electrostatic energy:        -164.45235354 Ha       -4474.97622406 eV
  | Hartree energy correction     :          -0.47823545 Ha         -13.01344867 eV
  | Entropy correction            :          -0.00000000 Ha          -0.00000000 eV
  | ---------------------------
  | Total energy                  :        -371.16277985 Ha      -10099.85311445 eV
  | Total energy, T -> 0          :        -371.16277985 Ha      -10099.85311445 eV  <-- do not rely on this value for anything but (periodic) metals
  | Electronic free energy        :        -371.16277985 Ha      -10099.85311445 eV

  Derived energy quantities:
  | Kinetic energy                :         370.87379370 Ha       10091.98940137 eV
  | Electrostatic energy          :        -712.84696507 Ha      -19397.55285628 eV
  | Energy correction for multipole
  | error in Hartree potential    :          -0.00115224 Ha          -0.03135403 eV
  | Sum of eigenvalues per atom                           :        -737.29747375 eV
  | Total energy (T->0) per atom                          :       -1262.48163931 eV  <-- do not rely on this value for anything but (periodic) metals
  | Electronic free energy per atom                       :       -1262.48163931 eV
  Evaluating new KS density.
  Integration grid: deviation in total charge (<rho> - N_e) =   1.776357E-14

  Self-consistency convergence accuracy:
  | Change of charge density      :  0.3437E+00
  | Change of unmixed KS density  :  0.2624E+02
  | Change of sum of eigenvalues  : -0.7411E+02 eV
  | Change of total energy        : -0.4066E+02 eV


------------------------------------------------------------
  End self-consistency iteration #     1       :  max(cpu_time)    wall_clock(cpu1)
  | Time for this iteration                     :        0.084 s           0.084 s
  | Charge density update                       :        0.006 s           0.006 s
  | Density mixing                              :        0.000 s           0.000 s
  | Hartree multipole update                    :        0.003 s           0.003 s
  | Hartree multipole summation                 :        0.010 s           0.011 s
  | Integration                                 :        0.013 s           0.013 s
  | Solution of K.-S. eqns.                     :        0.051 s           0.051 s
  | Total energy evaluation                     :        0.000 s           0.000 s

  Partial memory accounting:
  | Current value for overall tracked memory usage:
  |   Minimum:        1.370 MB (on task 52)
  |   Maximum:        1.502 MB (on task 10)
  |   Average:        1.410 MB
  | Peak value for overall tracked memory usage:
  |   Minimum:        2.527 MB (on task 52 after allocating wave)
  |   Maximum:        2.659 MB (on task 10 after allocating wave)
  |   Average:        2.566 MB
  | Largest tracked array allocation so far:
  |   Minimum:        0.368 MB (all_coords on task  0)
  |   Maximum:        0.384 MB (previous_rho_gradient_diff on task 10)
  |   Average:        0.370 MB
  Note:  These values currently only include a subset of arrays which are explicitly tracked.
  The "true" memory usage will be greater.
------------------------------------------------------------

------------------------------------------------------------
          Begin self-consistency iteration #    2

  Date     :  20260729, Time     :  181237.226
------------------------------------------------------------
  Pulay mixing of updated and previous charge densities.
  Available memory per node after mixing [GB]:   1034.05
  Renormalizing the density to the exact electron count on the 3D integration grid.
  | Formal number of electrons (from input files) :      26.0000000000
  | Integrated number of electrons on 3D grid     :      26.0000000000
  | Charge integration error                      :      -0.0000000000
  | Normalization factor for density and gradient :       1.0000000000

  Evaluating partitioned Hartree potential by multipole expansion.
  | Original multipole sum: apparent total charge =  -0.861536E-14
  | Sum of charges compensated after spline to logarithmic grids =  -0.981514E-07
  | Analytical far-field extrapolation by fixed multipoles:
  | Hartree multipole sum: apparent total charge =  -0.897817E-14
  Summing up the Hartree potential.
  Time summed over all CPUs for potential: real work        0.007 s, elapsed        0.009 s
  | RMS charge density error from multipole expansion :   0.277458E-02

  Integrating Hamiltonian matrix: batch-based integration.
  Time summed over all CPUs for integration: real work        0.599 s, elapsed        0.705 s

  Updating Kohn-Sham eigenvalues and eigenvectors using ELSI and the ELPA eigensolver.
  Starting ELPA eigensolver
  Finished transformation to standard eigenproblem
  | Time :     0.001 s
  Finished solving standard eigenproblem
  | Time :     0.003 s
  Finished back-transformation of eigenvectors
  | Time :     0.000 s

  Obtaining occupation numbers and electronic chemical potential using ELSI.
  | Note that, for insulating systems, the printed 'chemical potential' value is not uniquely defined.
  | It can be anywhere in the energy gap, as long as it correctly separates occupied and unoccupied states.
  | In systems with a gap, the physically relevant chemical potential is the VBM or HOMO.

  | Chemical potential (Fermi level):    -5.42439309 eV
  Highest occupied state (VBM) at     -9.73261099 eV
  | Occupation number:      2.00000000

  Lowest unoccupied state (CBM) at    -1.11617519 eV
  | Occupation number:      0.00000000

  Overall HOMO-LUMO gap:      8.61643579 eV.

  Checking to see if s.c.f. parameters should be adjusted.

  Total energy components:
  | Sum of eigenvalues            :        -215.78717248 Ha       -5871.86772060 eV
  | XC energy correction          :         -29.32364634 Ha        -797.93701562 eV
  | XC potential correction       :          39.89798634 Ha        1085.67944714 eV
  | Free-atom electrostatic energy:        -164.45235354 Ha       -4474.97622406 eV
  | Hartree energy correction     :          -1.43688468 Ha         -39.09962145 eV
  | Entropy correction            :          -0.00000000 Ha          -0.00000000 eV
  | ---------------------------
  | Total energy                  :        -371.10207070 Ha      -10098.20113460 eV
  | Total energy, T -> 0          :        -371.10207070 Ha      -10098.20113460 eV  <-- do not rely on this value for anything but (periodic) metals
  | Electronic free energy        :        -371.10207070 Ha      -10098.20113460 eV

  Derived energy quantities:
  | Kinetic energy                :         371.40837044 Ha       10106.53597458 eV
  | Electrostatic energy          :        -713.18679480 Ha      -19406.80009356 eV
  | Energy correction for multipole
  | error in Hartree potential    :          -0.00371190 Ha          -0.10100585 eV
  | Sum of eigenvalues per atom                           :        -733.98346508 eV
  | Total energy (T->0) per atom                          :       -1262.27514182 eV  <-- do not rely on this value for anything but (periodic) metals
  | Electronic free energy per atom                       :       -1262.27514182 eV
  Evaluating new KS density.
  Integration grid: deviation in total charge (<rho> - N_e) =   3.552714E-15

  Self-consistency convergence accuracy:
  | Change of charge density      :  0.2876E+00
  | Change of unmixed KS density  :  0.6824E-01
  | Change of sum of eigenvalues  :  0.2651E+02 eV
  | Change of total energy        :  0.1652E+01 eV


------------------------------------------------------------
  End self-consistency iteration #     2       :  max(cpu_time)    wall_clock(cpu1)
  | Time for this iteration                     :        0.290 s           0.141 s
  | Charge density update                       :        0.006 s           0.006 s
  | Density mixing                              :        0.256 s           0.107 s
  | Hartree multipole update                    :        0.003 s           0.002 s
  | Hartree multipole summation                 :        0.009 s           0.010 s
  | Integration                                 :        0.011 s           0.011 s
  | Solution of K.-S. eqns.                     :        0.004 s           0.005 s
  | Total energy evaluation                     :        0.000 s           0.000 s

  Partial memory accounting:
  | Current value for overall tracked memory usage:
  |   Minimum:        1.371 MB (on task 52)
  |   Maximum:        1.503 MB (on task 10)
  |   Average:        1.410 MB
  | Peak value for overall tracked memory usage:
  |   Minimum:        2.528 MB (on task 52 after allocating wave)
  |   Maximum:        2.660 MB (on task 10 after allocating wave)
  |   Average:        2.567 MB
  | Largest tracked array allocation so far:
  |   Minimum:        0.368 MB (previous_rho_gradient_diff on task  0)
  |   Maximum:        0.384 MB (previous_rho_gradient_diff on task 10)
  |   Average:        0.370 MB
  Note:  These values currently only include a subset of arrays which are explicitly tracked.
  The "true" memory usage will be greater.
------------------------------------------------------------

------------------------------------------------------------
          Begin self-consistency iteration #    3

  Date     :  20260729, Time     :  181237.379
------------------------------------------------------------
  Pulay mixing of updated and previous charge densities.
  Available memory per node after mixing [GB]:   1034.04
  Renormalizing the density to the exact electron count on the 3D integration grid.
  | Formal number of electrons (from input files) :      26.0000000000
  | Integrated number of electrons on 3D grid     :      26.0000000000
  | Charge integration error                      :       0.0000000000
  | Normalization factor for density and gradient :       1.0000000000

  Evaluating partitioned Hartree potential by multipole expansion.
  | Original multipole sum: apparent total charge =   0.245977E-16
  | Sum of charges compensated after spline to logarithmic grids =  -0.606786E-06
  | Analytical far-field extrapolation by fixed multipoles:
  | Hartree multipole sum: apparent total charge =  -0.688737E-15
  Summing up the Hartree potential.
  Time summed over all CPUs for potential: real work        0.007 s, elapsed        0.010 s
  | RMS charge density error from multipole expansion :   0.583979E-02

  Integrating Hamiltonian matrix: batch-based integration.
  Time summed over all CPUs for integration: real work        0.573 s, elapsed        0.642 s

  Updating Kohn-Sham eigenvalues and eigenvectors using ELSI and the ELPA eigensolver.
  Starting ELPA eigensolver
  Finished transformation to standard eigenproblem
  | Time :     0.001 s
  Finished solving standard eigenproblem
  | Time :     0.001 s
  Finished back-transformation of eigenvectors
  | Time :     0.000 s

  Obtaining occupation numbers and electronic chemical potential using ELSI.
  | Note that, for insulating systems, the printed 'chemical potential' value is not uniquely defined.
  | It can be anywhere in the energy gap, as long as it correctly separates occupied and unoccupied states.
  | In systems with a gap, the physically relevant chemical potential is the VBM or HOMO.

  | Chemical potential (Fermi level):    -3.87342576 eV
  Highest occupied state (VBM) at     -7.34926831 eV
  | Occupation number:      2.00000000

  Lowest unoccupied state (CBM) at    -0.39758322 eV
  | Occupation number:      0.00000000

  Overall HOMO-LUMO gap:      6.95168509 eV.

  Total energy components:
  | Sum of eigenvalues            :        -214.40310567 Ha       -5834.20534643 eV
  | XC energy correction          :         -29.55000300 Ha        -804.09649363 eV
  | XC potential correction       :          40.19479034 Ha        1093.75589471 eV
  | Free-atom electrostatic energy:        -164.45235354 Ha       -4474.97622406 eV
  | Hartree energy correction     :          -2.87650346 Ha         -78.27364161 eV
  | Entropy correction            :          -0.00000000 Ha          -0.00000000 eV
  | ---------------------------
  | Total energy                  :        -371.08717533 Ha      -10097.79581103 eV
  | Total energy, T -> 0          :        -371.08717533 Ha      -10097.79581103 eV  <-- do not rely on this value for anything but (periodic) metals
  | Electronic free energy        :        -371.08717533 Ha      -10097.79581103 eV

  Derived energy quantities:
  | Kinetic energy                :         372.07133105 Ha       10124.57605072 eV
  | Electrostatic energy          :        -713.60850339 Ha      -19418.27536812 eV
  | Energy correction for multipole
  | error in Hartree potential    :          -0.00756555 Ha          -0.20586910 eV
  | Sum of eigenvalues per atom                           :        -729.27566830 eV
  | Total energy (T->0) per atom                          :       -1262.22447638 eV  <-- do not rely on this value for anything but (periodic) metals
  | Electronic free energy per atom                       :       -1262.22447638 eV
  Evaluating new KS density.
  Integration grid: deviation in total charge (<rho> - N_e) =   1.065814E-14

  Self-consistency convergence accuracy:
  | Change of charge density      :  0.1865E+00
  | Change of unmixed KS density  :  0.5566E-01
  | Change of sum of eigenvalues  :  0.3766E+02 eV
  | Change of total energy        :  0.4053E+00 eV


------------------------------------------------------------
  End self-consistency iteration #     3       :  max(cpu_time)    wall_clock(cpu1)
  | Time for this iteration                     :        0.297 s           0.297 s
  | Charge density update                       :        0.005 s           0.005 s
  | Density mixing                              :        0.266 s           0.266 s
  | Hartree multipole update                    :        0.002 s           0.002 s
  | Hartree multipole summation                 :        0.010 s           0.011 s
  | Integration                                 :        0.010 s           0.010 s
  | Solution of K.-S. eqns.                     :        0.002 s           0.002 s
  | Total energy evaluation                     :        0.000 s           0.000 s

  Partial memory accounting:
  | Current value for overall tracked memory usage:
  |   Minimum:        1.371 MB (on task 52)
  |   Maximum:        1.503 MB (on task 10)
  |   Average:        1.410 MB
  | Peak value for overall tracked memory usage:
  |   Minimum:        2.528 MB (on task 52 after allocating wave)
  |   Maximum:        2.660 MB (on task 10 after allocating wave)
  |   Average:        2.567 MB
  | Largest tracked array allocation so far:
  |   Minimum:        0.368 MB (previous_rho_gradient_diff on task  0)
  |   Maximum:        0.384 MB (previous_rho_gradient_diff on task 10)
  |   Average:        0.370 MB
  Note:  These values currently only include a subset of arrays which are explicitly tracked.
  The "true" memory usage will be greater.
------------------------------------------------------------

------------------------------------------------------------
          Begin self-consistency iteration #    4

  Date     :  20260729, Time     :  181237.706
------------------------------------------------------------
  Pulay mixing of updated and previous charge densities.
  Available memory per node after mixing [GB]:   1034.04
  Renormalizing the density to the exact electron count on the 3D integration grid.
  | Formal number of electrons (from input files) :      26.0000000000
  | Integrated number of electrons on 3D grid     :      26.0000000000
  | Charge integration error                      :       0.0000000000
  | Normalization factor for density and gradient :       1.0000000000

  Evaluating partitioned Hartree potential by multipole expansion.
  | Original multipole sum: apparent total charge =   0.639541E-15
  | Sum of charges compensated after spline to logarithmic grids =  -0.107732E-05
  | Analytical far-field extrapolation by fixed multipoles:
  | Hartree multipole sum: apparent total charge =   0.122989E-14
  Summing up the Hartree potential.
  Time summed over all CPUs for potential: real work        0.007 s, elapsed        0.009 s
  | RMS charge density error from multipole expansion :   0.643243E-02

  Integrating Hamiltonian matrix: batch-based integration.
  Time summed over all CPUs for integration: real work        0.575 s, elapsed        0.676 s

  Updating Kohn-Sham eigenvalues and eigenvectors using ELSI and the ELPA eigensolver.
  Starting ELPA eigensolver
  Finished transformation to standard eigenproblem
  | Time :     0.001 s
  Finished solving standard eigenproblem
  | Time :     0.001 s
  Finished back-transformation of eigenvectors
  | Time :     0.000 s

  Obtaining occupation numbers and electronic chemical potential using ELSI.
  | Note that, for insulating systems, the printed 'chemical potential' value is not uniquely defined.
  | It can be anywhere in the energy gap, as long as it correctly separates occupied and unoccupied states.
  | In systems with a gap, the physically relevant chemical potential is the VBM or HOMO.

  | Chemical potential (Fermi level):    -4.05464560 eV
  Highest occupied state (VBM) at     -7.90505057 eV
  | Occupation number:      2.00000000

  Lowest unoccupied state (CBM) at    -0.20424063 eV
  | Occupation number:      0.00000000

  Overall HOMO-LUMO gap:      7.70080994 eV.

  Total energy components:
  | Sum of eigenvalues            :        -214.47246210 Ha       -5836.09263093 eV
  | XC energy correction          :         -29.55618148 Ha        -804.26461858 eV
  | XC potential correction       :          40.19854521 Ha        1093.85807011 eV
  | Free-atom electrostatic energy:        -164.45235354 Ha       -4474.97622406 eV
  | Hartree energy correction     :          -2.79757705 Ha         -76.12594466 eV
  | Entropy correction            :          -0.00000000 Ha          -0.00000000 eV
  | ---------------------------
  | Total energy                  :        -371.08002895 Ha      -10097.60134812 eV
  | Total energy, T -> 0          :        -371.08002895 Ha      -10097.60134812 eV  <-- do not rely on this value for anything but (periodic) metals
  | Electronic free energy        :        -371.08002895 Ha      -10097.60134812 eV

  Derived energy quantities:
  | Kinetic energy                :         372.05145352 Ha       10124.03515551 eV
  | Electrostatic energy          :        -713.57530099 Ha      -19417.37188505 eV
  | Energy correction for multipole
  | error in Hartree potential    :          -0.00779315 Ha          -0.21206252 eV
  | Sum of eigenvalues per atom                           :        -729.51157887 eV
  | Total energy (T->0) per atom                          :       -1262.20016851 eV  <-- do not rely on this value for anything but (periodic) metals
  | Electronic free energy per atom                       :       -1262.20016851 eV
  Evaluating new KS density.
  Integration grid: deviation in total charge (<rho> - N_e) =   0.000000E+00

  Self-consistency convergence accuracy:
  | Change of charge density      :  0.9031E-01
  | Change of unmixed KS density  :  0.7037E-01
  | Change of sum of eigenvalues  : -0.1887E+01 eV
  | Change of total energy        :  0.1945E+00 eV


------------------------------------------------------------
  End self-consistency iteration #     4       :  max(cpu_time)    wall_clock(cpu1)
  | Time for this iteration                     :        0.289 s           0.271 s
  | Charge density update                       :        0.005 s           0.004 s
  | Density mixing                              :        0.259 s           0.242 s
  | Hartree multipole update                    :        0.002 s           0.002 s
  | Hartree multipole summation                 :        0.009 s           0.009 s
  | Integration                                 :        0.011 s           0.010 s
  | Solution of K.-S. eqns.                     :        0.002 s           0.002 s
  | Total energy evaluation                     :        0.000 s           0.001 s

  Partial memory accounting:
  | Current value for overall tracked memory usage:
  |   Minimum:        1.371 MB (on task 52)
  |   Maximum:        1.503 MB (on task 10)
  |   Average:        1.410 MB
  | Peak value for overall tracked memory usage:
  |   Minimum:        2.528 MB (on task 52 after allocating wave)
  |   Maximum:        2.660 MB (on task 10 after allocating wave)
  |   Average:        2.567 MB
  | Largest tracked array allocation so far:
  |   Minimum:        0.368 MB (previous_rho_gradient_diff on task  0)
  |   Maximum:        0.384 MB (previous_rho_gradient_diff on task 10)
  |   Average:        0.370 MB
  Note:  These values currently only include a subset of arrays which are explicitly tracked.
  The "true" memory usage will be greater.
------------------------------------------------------------

------------------------------------------------------------
          Begin self-consistency iteration #    5

  Date     :  20260729, Time     :  181238.117
------------------------------------------------------------
  Pulay mixing of updated and previous charge densities.
  Available memory per node after mixing [GB]:   1034.04
  Renormalizing the density to the exact electron count on the 3D integration grid.
  | Formal number of electrons (from input files) :      26.0000000000
  | Integrated number of electrons on 3D grid     :      26.0000000000
  | Charge integration error                      :       0.0000000000
  | Normalization factor for density and gradient :       1.0000000000

  Evaluating partitioned Hartree potential by multipole expansion.
  | Original multipole sum: apparent total charge =  -0.178334E-15
  | Sum of charges compensated after spline to logarithmic grids =  -0.128056E-05
  | Analytical far-field extrapolation by fixed multipoles:
  | Hartree multipole sum: apparent total charge =  -0.608794E-15
  Summing up the Hartree potential.
  Time summed over all CPUs for potential: real work        0.007 s, elapsed        0.008 s
  | RMS charge density error from multipole expansion :   0.715678E-02

  Integrating Hamiltonian matrix: batch-based integration.
  Time summed over all CPUs for integration: real work        0.577 s, elapsed        0.661 s

  Updating Kohn-Sham eigenvalues and eigenvectors using ELSI and the ELPA eigensolver.
  Starting ELPA eigensolver
  Finished transformation to standard eigenproblem
  | Time :     0.001 s
  Finished solving standard eigenproblem
  | Time :     0.001 s
  Finished back-transformation of eigenvectors
  | Time :     0.000 s

  Obtaining occupation numbers and electronic chemical potential using ELSI.
  | Note that, for insulating systems, the printed 'chemical potential' value is not uniquely defined.
  | It can be anywhere in the energy gap, as long as it correctly separates occupied and unoccupied states.
  | In systems with a gap, the physically relevant chemical potential is the VBM or HOMO.

  | Chemical potential (Fermi level):    -3.84086174 eV
  Highest occupied state (VBM) at     -7.66754152 eV
  | Occupation number:      2.00000000

  Lowest unoccupied state (CBM) at    -0.01418197 eV
  | Occupation number:      0.00000000

  Overall HOMO-LUMO gap:      7.65335955 eV.

  Total energy components:
  | Sum of eigenvalues            :        -214.27362913 Ha       -5830.68211036 eV
  | XC energy correction          :         -29.59863980 Ha        -805.41996832 eV
  | XC potential correction       :          40.25207582 Ha        1095.31471213 eV
  | Free-atom electrostatic energy:        -164.45235354 Ha       -4474.97622406 eV
  | Hartree energy correction     :          -3.00743883 Ha         -81.83657429 eV
  | Entropy correction            :          -0.00000000 Ha          -0.00000000 eV
  | ---------------------------
  | Total energy                  :        -371.07998547 Ha      -10097.60016490 eV
  | Total energy, T -> 0          :        -371.07998547 Ha      -10097.60016490 eV  <-- do not rely on this value for anything but (periodic) metals
  | Electronic free energy        :        -371.07998547 Ha      -10097.60016490 eV

  Derived energy quantities:
  | Kinetic energy                :         372.13716072 Ha       10126.36736709 eV
  | Electrostatic energy          :        -713.61850639 Ha      -19418.54756367 eV
  | Energy correction for multipole
  | error in Hartree potential    :          -0.00848579 Ha          -0.23091013 eV
  | Sum of eigenvalues per atom                           :        -728.83526379 eV
  | Total energy (T->0) per atom                          :       -1262.20002061 eV  <-- do not rely on this value for anything but (periodic) metals
  | Electronic free energy per atom                       :       -1262.20002061 eV
  Evaluating new KS density.
  Integration grid: deviation in total charge (<rho> - N_e) =   1.776357E-14

  Self-consistency convergence accuracy:
  | Change of charge density      :  0.3025E-01
  | Change of unmixed KS density  :  0.3634E-01
  | Change of sum of eigenvalues  :  0.5411E+01 eV
  | Change of total energy        :  0.1183E-02 eV


------------------------------------------------------------
  End self-consistency iteration #     5       :  max(cpu_time)    wall_clock(cpu1)
  | Time for this iteration                     :        0.293 s           0.166 s
  | Charge density update                       :        0.005 s           0.005 s
  | Density mixing                              :        0.264 s           0.137 s
  | Hartree multipole update                    :        0.002 s           0.002 s
  | Hartree multipole summation                 :        0.009 s           0.009 s
  | Integration                                 :        0.011 s           0.010 s
  | Solution of K.-S. eqns.                     :        0.002 s           0.002 s
  | Total energy evaluation                     :        0.000 s           0.001 s

  Partial memory accounting:
  | Current value for overall tracked memory usage:
  |   Minimum:        1.371 MB (on task 52)
  |   Maximum:        1.503 MB (on task 10)
  |   Average:        1.410 MB
  | Peak value for overall tracked memory usage:
  |   Minimum:        2.528 MB (on task 52 after allocating wave)
  |   Maximum:        2.660 MB (on task 10 after allocating wave)
  |   Average:        2.567 MB
  | Largest tracked array allocation so far:
  |   Minimum:        0.368 MB (previous_rho_gradient_diff on task  0)
  |   Maximum:        0.384 MB (previous_rho_gradient_diff on task 10)
  |   Average:        0.370 MB
  Note:  These values currently only include a subset of arrays which are explicitly tracked.
  The "true" memory usage will be greater.
------------------------------------------------------------

------------------------------------------------------------
          Begin self-consistency iteration #    6

  Date     :  20260729, Time     :  181238.295
------------------------------------------------------------
  Pulay mixing of updated and previous charge densities.
  Available memory per node after mixing [GB]:   1034.03
  Renormalizing the density to the exact electron count on the 3D integration grid.
  | Formal number of electrons (from input files) :      26.0000000000
  | Integrated number of electrons on 3D grid     :      26.0000000000
  | Charge integration error                      :       0.0000000000
  | Normalization factor for density and gradient :       1.0000000000

  Evaluating partitioned Hartree potential by multipole expansion.
  | Original multipole sum: apparent total charge =   0.344368E-15
  | Sum of charges compensated after spline to logarithmic grids =  -0.119977E-05
  | Analytical far-field extrapolation by fixed multipoles:
  | Hartree multipole sum: apparent total charge =   0.455058E-15
  Summing up the Hartree potential.
  Time summed over all CPUs for potential: real work        0.007 s, elapsed        0.008 s
  | RMS charge density error from multipole expansion :   0.740601E-02

  Integrating Hamiltonian matrix: batch-based integration.
  Time summed over all CPUs for integration: real work        0.556 s, elapsed        0.666 s

  Updating Kohn-Sham eigenvalues and eigenvectors using ELSI and the ELPA eigensolver.
  Starting ELPA eigensolver
  Finished transformation to standard eigenproblem
  | Time :     0.001 s
  Finished solving standard eigenproblem
  | Time :     0.036 s
  Finished back-transformation of eigenvectors
  | Time :     0.001 s

  Obtaining occupation numbers and electronic chemical potential using ELSI.
  | Note that, for insulating systems, the printed 'chemical potential' value is not uniquely defined.
  | It can be anywhere in the energy gap, as long as it correctly separates occupied and unoccupied states.
  | In systems with a gap, the physically relevant chemical potential is the VBM or HOMO.

  | Chemical potential (Fermi level):    -3.83225546 eV
  Highest occupied state (VBM) at     -7.66510391 eV
  | Occupation number:      2.00000000

  Lowest unoccupied state (CBM) at     0.00059298 eV
  | Occupation number:      0.00000000

  Overall HOMO-LUMO gap:      7.66569689 eV.

  Total energy components:
  | Sum of eigenvalues            :        -214.30931697 Ha       -5831.65322605 eV
  | XC energy correction          :         -29.59670279 Ha        -805.36725966 eV
  | XC potential correction       :          40.24787156 Ha        1095.20030844 eV
  | Free-atom electrostatic energy:        -164.45235354 Ha       -4474.97622406 eV
  | Hartree energy correction     :          -2.96945601 Ha         -80.80300923 eV
  | Entropy correction            :          -0.00000000 Ha          -0.00000000 eV
  | ---------------------------
  | Total energy                  :        -371.07995775 Ha      -10097.59941056 eV
  | Total energy, T -> 0          :        -371.07995775 Ha      -10097.59941056 eV  <-- do not rely on this value for anything but (periodic) metals
  | Electronic free energy        :        -371.07995775 Ha      -10097.59941056 eV

  Derived energy quantities:
  | Kinetic energy                :         372.08541660 Ha       10124.95933793 eV
  | Electrostatic energy          :        -713.56867155 Ha      -19417.19148883 eV
  | Energy correction for multipole
  | error in Hartree potential    :          -0.00849646 Ha          -0.23120041 eV
  | Sum of eigenvalues per atom                           :        -728.95665326 eV
  | Total energy (T->0) per atom                          :       -1262.19992632 eV  <-- do not rely on this value for anything but (periodic) metals
  | Electronic free energy per atom                       :       -1262.19992632 eV
  Evaluating new KS density.
  Integration grid: deviation in total charge (<rho> - N_e) =   1.421085E-14

  Self-consistency convergence accuracy:
  | Change of charge density      :  0.1051E-01
  | Change of unmixed KS density  :  0.4397E-02
  | Change of sum of eigenvalues  : -0.9711E+00 eV
  | Change of total energy        :  0.7543E-03 eV


------------------------------------------------------------
  End self-consistency iteration #     6       :  max(cpu_time)    wall_clock(cpu1)
  | Time for this iteration                     :        0.327 s           0.326 s
  | Charge density update                       :        0.005 s           0.005 s
  | Density mixing                              :        0.262 s           0.262 s
  | Hartree multipole update                    :        0.002 s           0.002 s
  | Hartree multipole summation                 :        0.008 s           0.009 s
  | Integration                                 :        0.011 s           0.010 s
  | Solution of K.-S. eqns.                     :        0.037 s           0.038 s
  | Total energy evaluation                     :        0.000 s           0.000 s

  Partial memory accounting:
  | Current value for overall tracked memory usage:
  |   Minimum:        1.371 MB (on task 52)
  |   Maximum:        1.503 MB (on task 10)
  |   Average:        1.410 MB
  | Peak value for overall tracked memory usage:
  |   Minimum:        2.528 MB (on task 52 after allocating wave)
  |   Maximum:        2.660 MB (on task 10 after allocating wave)
  |   Average:        2.567 MB
  | Largest tracked array allocation so far:
  |   Minimum:        0.368 MB (previous_rho_gradient_diff on task  0)
  |   Maximum:        0.384 MB (previous_rho_gradient_diff on task 10)
  |   Average:        0.370 MB
  Note:  These values currently only include a subset of arrays which are explicitly tracked.
  The "true" memory usage will be greater.
------------------------------------------------------------

------------------------------------------------------------
          Begin self-consistency iteration #    7

  Date     :  20260729, Time     :  181238.761
------------------------------------------------------------
  Pulay mixing of updated and previous charge densities.
  Available memory per node after mixing [GB]:   1034.03
  Renormalizing the density to the exact electron count on the 3D integration grid.
  | Formal number of electrons (from input files) :      26.0000000000
  | Integrated number of electrons on 3D grid     :      26.0000000000
  | Charge integration error                      :       0.0000000000
  | Normalization factor for density and gradient :       1.0000000000

  Evaluating partitioned Hartree potential by multipole expansion.
  | Original multipole sum: apparent total charge =  -0.249667E-14
  | Sum of charges compensated after spline to logarithmic grids =  -0.118061E-05
  | Analytical far-field extrapolation by fixed multipoles:
  | Hartree multipole sum: apparent total charge =  -0.306857E-14
  Summing up the Hartree potential.
  Time summed over all CPUs for potential: real work        0.008 s, elapsed        0.011 s
  | RMS charge density error from multipole expansion :   0.737928E-02

  Integrating Hamiltonian matrix: batch-based integration.
  Time summed over all CPUs for integration: real work        0.609 s, elapsed        0.776 s

  Updating Kohn-Sham eigenvalues and eigenvectors using ELSI and the ELPA eigensolver.
  Starting ELPA eigensolver
  Finished transformation to standard eigenproblem
  | Time :     0.000 s
  Finished solving standard eigenproblem
  | Time :     0.002 s
  Finished back-transformation of eigenvectors
  | Time :     0.000 s

  Obtaining occupation numbers and electronic chemical potential using ELSI.
  | Note that, for insulating systems, the printed 'chemical potential' value is not uniquely defined.
  | It can be anywhere in the energy gap, as long as it correctly separates occupied and unoccupied states.
  | In systems with a gap, the physically relevant chemical potential is the VBM or HOMO.

  | Chemical potential (Fermi level):    -3.83682499 eV
  Highest occupied state (VBM) at     -7.66472147 eV
  | Occupation number:      2.00000000

  Lowest unoccupied state (CBM) at    -0.00892852 eV
  | Occupation number:      0.00000000

  Overall HOMO-LUMO gap:      7.65579294 eV.

  Total energy components:
  | Sum of eigenvalues            :        -214.31414286 Ha       -5831.78454525 eV
  | XC energy correction          :         -29.59533644 Ha        -805.33007935 eV
  | XC potential correction       :          40.24619856 Ha        1095.15478372 eV
  | Free-atom electrostatic energy:        -164.45235354 Ha       -4474.97622406 eV
  | Hartree energy correction     :          -2.96431859 Ha         -80.66321287 eV
  | Entropy correction            :          -0.00000000 Ha          -0.00000000 eV
  | ---------------------------
  | Total energy                  :        -371.07995287 Ha      -10097.59927781 eV
  | Total energy, T -> 0          :        -371.07995287 Ha      -10097.59927781 eV  <-- do not rely on this value for anything but (periodic) metals
  | Electronic free energy        :        -371.07995287 Ha      -10097.59927781 eV

  Derived energy quantities:
  | Kinetic energy                :         372.08367940 Ha       10124.91206645 eV
  | Electrostatic energy          :        -713.56829583 Ha      -19417.18126491 eV
  | Energy correction for multipole
  | error in Hartree potential    :          -0.00847507 Ha          -0.23061839 eV
  | Sum of eigenvalues per atom                           :        -728.97306816 eV
  | Total energy (T->0) per atom                          :       -1262.19990973 eV  <-- do not rely on this value for anything but (periodic) metals
  | Electronic free energy per atom                       :       -1262.19990973 eV
  Evaluating new KS density.
  Integration grid: deviation in total charge (<rho> - N_e) =   1.065814E-14

  Self-consistency convergence accuracy:
  | Change of charge density      :  0.2807E-02
  | Change of unmixed KS density  :  0.3025E-02
  | Change of sum of eigenvalues  : -0.1313E+00 eV
  | Change of total energy        :  0.1327E-03 eV


------------------------------------------------------------
  End self-consistency iteration #     7       :  max(cpu_time)    wall_clock(cpu1)
  | Time for this iteration                     :        0.299 s           0.171 s
  | Charge density update                       :        0.006 s           0.006 s
  | Density mixing                              :        0.264 s           0.137 s
  | Hartree multipole update                    :        0.002 s           0.002 s
  | Hartree multipole summation                 :        0.011 s           0.011 s
  | Integration                                 :        0.012 s           0.013 s
  | Solution of K.-S. eqns.                     :        0.002 s           0.002 s
  | Total energy evaluation                     :        0.000 s           0.000 s

  Partial memory accounting:
  | Current value for overall tracked memory usage:
  |   Minimum:        1.371 MB (on task 52)
  |   Maximum:        1.503 MB (on task 10)
  |   Average:        1.410 MB
  | Peak value for overall tracked memory usage:
  |   Minimum:        2.528 MB (on task 52 after allocating wave)
  |   Maximum:        2.660 MB (on task 10 after allocating wave)
  |   Average:        2.567 MB
  | Largest tracked array allocation so far:
  |   Minimum:        0.368 MB (previous_rho_gradient_diff on task  0)
  |   Maximum:        0.384 MB (previous_rho_gradient_diff on task 10)
  |   Average:        0.370 MB
  Note:  These values currently only include a subset of arrays which are explicitly tracked.
  The "true" memory usage will be greater.
------------------------------------------------------------

------------------------------------------------------------
          Begin self-consistency iteration #    8

  Date     :  20260729, Time     :  181239.158
------------------------------------------------------------
  Pulay mixing of updated and previous charge densities.
  Available memory per node after mixing [GB]:   1034.03
  Renormalizing the density to the exact electron count on the 3D integration grid.
  | Formal number of electrons (from input files) :      26.0000000000
  | Integrated number of electrons on 3D grid     :      26.0000000000
  | Charge integration error                      :       0.0000000000
  | Normalization factor for density and gradient :       1.0000000000

  Evaluating partitioned Hartree potential by multipole expansion.
  | Original multipole sum: apparent total charge =  -0.654915E-14
  | Sum of charges compensated after spline to logarithmic grids =  -0.115055E-05
  | Analytical far-field extrapolation by fixed multipoles:
  | Hartree multipole sum: apparent total charge =  -0.666599E-14
  Summing up the Hartree potential.
  Time summed over all CPUs for potential: real work        0.007 s, elapsed        0.009 s
  | RMS charge density error from multipole expansion :   0.742777E-02

  Integrating Hamiltonian matrix: batch-based integration.
  Time summed over all CPUs for integration: real work        0.592 s, elapsed        0.661 s

  Updating Kohn-Sham eigenvalues and eigenvectors using ELSI and the ELPA eigensolver.
  Starting ELPA eigensolver
  Finished transformation to standard eigenproblem
  | Time :     0.001 s
  Finished solving standard eigenproblem
  | Time :     0.001 s
  Finished back-transformation of eigenvectors
  | Time :     0.000 s

  Obtaining occupation numbers and electronic chemical potential using ELSI.
  | Note that, for insulating systems, the printed 'chemical potential' value is not uniquely defined.
  | It can be anywhere in the energy gap, as long as it correctly separates occupied and unoccupied states.
  | In systems with a gap, the physically relevant chemical potential is the VBM or HOMO.

  | Chemical potential (Fermi level):    -3.83887121 eV
  Highest occupied state (VBM) at     -7.66986317 eV
  | Occupation number:      2.00000000

  Lowest unoccupied state (CBM) at    -0.00787926 eV
  | Occupation number:      0.00000000

  Overall HOMO-LUMO gap:      7.66198391 eV.

  Total energy components:
  | Sum of eigenvalues            :        -214.31690980 Ha       -5831.85983733 eV
  | XC energy correction          :         -29.59547384 Ha        -805.33381809 eV
  | XC potential correction       :          40.24611108 Ha        1095.15240312 eV
  | Free-atom electrostatic energy:        -164.45235354 Ha       -4474.97622406 eV
  | Hartree energy correction     :          -2.96132940 Ha         -80.58187289 eV
  | Entropy correction            :          -0.00000000 Ha          -0.00000000 eV
  | ---------------------------
  | Total energy                  :        -371.07995550 Ha      -10097.59934925 eV
  | Total energy, T -> 0          :        -371.07995550 Ha      -10097.59934925 eV  <-- do not rely on this value for anything but (periodic) metals
  | Electronic free energy        :        -371.07995550 Ha      -10097.59934925 eV

  Derived energy quantities:
  | Kinetic energy                :         372.08016463 Ha       10124.81642469 eV
  | Electrostatic energy          :        -713.56464629 Ha      -19417.08195585 eV
  | Energy correction for multipole
  | error in Hartree potential    :          -0.00848787 Ha          -0.23096659 eV
  | Sum of eigenvalues per atom                           :        -728.98247967 eV
  | Total energy (T->0) per atom                          :       -1262.19991866 eV  <-- do not rely on this value for anything but (periodic) metals
  | Electronic free energy per atom                       :       -1262.19991866 eV
  Evaluating new KS density.
  Integration grid: deviation in total charge (<rho> - N_e) =   3.552714E-15

  Self-consistency convergence accuracy:
  | Change of charge density      :  0.1969E-02
  | Change of unmixed KS density  :  0.5842E-03
  | Change of sum of eigenvalues  : -0.7529E-01 eV
  | Change of total energy        : -0.7144E-04 eV


------------------------------------------------------------
  End self-consistency iteration #     8       :  max(cpu_time)    wall_clock(cpu1)
  | Time for this iteration                     :        0.299 s           0.084 s
  | Charge density update                       :        0.005 s           0.006 s
  | Density mixing                              :        0.270 s           0.054 s
  | Hartree multipole update                    :        0.002 s           0.003 s
  | Hartree multipole summation                 :        0.009 s           0.009 s
  | Integration                                 :        0.011 s           0.010 s
  | Solution of K.-S. eqns.                     :        0.002 s           0.002 s
  | Total energy evaluation                     :        0.000 s           0.000 s

  Partial memory accounting:
  | Current value for overall tracked memory usage:
  |   Minimum:        1.371 MB (on task 52)
  |   Maximum:        1.503 MB (on task 10)
  |   Average:        1.410 MB
  | Peak value for overall tracked memory usage:
  |   Minimum:        2.528 MB (on task 52 after allocating wave)
  |   Maximum:        2.660 MB (on task 10 after allocating wave)
  |   Average:        2.567 MB
  | Largest tracked array allocation so far:
  |   Minimum:        0.368 MB (previous_rho_gradient_diff on task  0)
  |   Maximum:        0.384 MB (previous_rho_gradient_diff on task 10)
  |   Average:        0.370 MB
  Note:  These values currently only include a subset of arrays which are explicitly tracked.
  The "true" memory usage will be greater.
------------------------------------------------------------

------------------------------------------------------------
          Begin self-consistency iteration #    9

  Date     :  20260729, Time     :  181239.275
------------------------------------------------------------
  Pulay mixing of updated and previous charge densities.
  Available memory per node after mixing [GB]:   1034.03
  Renormalizing the density to the exact electron count on the 3D integration grid.
  | Formal number of electrons (from input files) :      26.0000000000
  | Integrated number of electrons on 3D grid     :      26.0000000000
  | Charge integration error                      :       0.0000000000
  | Normalization factor for density and gradient :       1.0000000000

  Evaluating partitioned Hartree potential by multipole expansion.
  | Original multipole sum: apparent total charge =  -0.779748E-14
  | Sum of charges compensated after spline to logarithmic grids =  -0.114719E-05
  | Analytical far-field extrapolation by fixed multipoles:
  | Hartree multipole sum: apparent total charge =  -0.811725E-14
  Summing up the Hartree potential.
  Time summed over all CPUs for potential: real work        0.008 s, elapsed        0.011 s
  | RMS charge density error from multipole expansion :   0.743702E-02

  Integrating Hamiltonian matrix: batch-based integration.
  Time summed over all CPUs for integration: real work        0.587 s, elapsed        0.683 s

  Updating Kohn-Sham eigenvalues and eigenvectors using ELSI and the ELPA eigensolver.
  Starting ELPA eigensolver
  Finished transformation to standard eigenproblem
  | Time :     0.001 s
  Finished solving standard eigenproblem
  | Time :     0.001 s
  Finished back-transformation of eigenvectors
  | Time :     0.000 s

  Obtaining occupation numbers and electronic chemical potential using ELSI.
  | Note that, for insulating systems, the printed 'chemical potential' value is not uniquely defined.
  | It can be anywhere in the energy gap, as long as it correctly separates occupied and unoccupied states.
  | In systems with a gap, the physically relevant chemical potential is the VBM or HOMO.

  | Chemical potential (Fermi level):    -3.83513055 eV
  Highest occupied state (VBM) at     -7.66642300 eV
  | Occupation number:      2.00000000

  Lowest unoccupied state (CBM) at    -0.00383809 eV
  | Occupation number:      0.00000000

  Overall HOMO-LUMO gap:      7.66258491 eV.

  Total energy components:
  | Sum of eigenvalues            :        -214.31100289 Ha       -5831.69910222 eV
  | XC energy correction          :         -29.59607055 Ha        -805.35005552 eV
  | XC potential correction       :          40.24688101 Ha        1095.17335395 eV
  | Free-atom electrostatic energy:        -164.45235354 Ha       -4474.97622406 eV
  | Hartree energy correction     :          -2.96740977 Ha         -80.74732814 eV
  | Entropy correction            :          -0.00000000 Ha          -0.00000000 eV
  | ---------------------------
  | Total energy                  :        -371.07995574 Ha      -10097.59935599 eV
  | Total energy, T -> 0          :        -371.07995574 Ha      -10097.59935599 eV  <-- do not rely on this value for anything but (periodic) metals
  | Electronic free energy        :        -371.07995574 Ha      -10097.59935599 eV

  Derived energy quantities:
  | Kinetic energy                :         372.08259953 Ha       10124.88268144 eV
  | Electrostatic energy          :        -713.56648472 Ha      -19417.13198191 eV
  | Energy correction for multipole
  | error in Hartree potential    :          -0.00849843 Ha          -0.23125395 eV
  | Sum of eigenvalues per atom                           :        -728.96238778 eV
  | Total energy (T->0) per atom                          :       -1262.19991950 eV  <-- do not rely on this value for anything but (periodic) metals
  | Electronic free energy per atom                       :       -1262.19991950 eV
  Evaluating new KS density.
  Integration grid: deviation in total charge (<rho> - N_e) =   1.421085E-14

  Self-consistency convergence accuracy:
  | Change of charge density      :  0.4368E-03
  | Change of unmixed KS density  :  0.4737E-03
  | Change of sum of eigenvalues  :  0.1607E+00 eV
  | Change of total energy        : -0.6735E-05 eV


------------------------------------------------------------
  End self-consistency iteration #     9       :  max(cpu_time)    wall_clock(cpu1)
  | Time for this iteration                     :        0.291 s           0.271 s
  | Charge density update                       :        0.005 s           0.006 s
  | Density mixing                              :        0.260 s           0.239 s
  | Hartree multipole update                    :        0.002 s           0.002 s
  | Hartree multipole summation                 :        0.011 s           0.011 s
  | Integration                                 :        0.011 s           0.011 s
  | Solution of K.-S. eqns.                     :        0.002 s           0.002 s
  | Total energy evaluation                     :        0.000 s           0.000 s

  Partial memory accounting:
  | Current value for overall tracked memory usage:
  |   Minimum:        1.371 MB (on task 52)
  |   Maximum:        1.503 MB (on task 10)
  |   Average:        1.410 MB
  | Peak value for overall tracked memory usage:
  |   Minimum:        2.528 MB (on task 52 after allocating wave)
  |   Maximum:        2.660 MB (on task 10 after allocating wave)
  |   Average:        2.567 MB
  | Largest tracked array allocation so far:
  |   Minimum:        0.368 MB (previous_rho_gradient_diff on task  0)
  |   Maximum:        0.384 MB (previous_rho_gradient_diff on task 10)
  |   Average:        0.370 MB
  Note:  These values currently only include a subset of arrays which are explicitly tracked.
  The "true" memory usage will be greater.
------------------------------------------------------------

------------------------------------------------------------
          Begin self-consistency iteration #   10

  Date     :  20260729, Time     :  181239.578
------------------------------------------------------------
  Pulay mixing of updated and previous charge densities.
  Available memory per node after mixing [GB]:   1034.03
  Renormalizing the density to the exact electron count on the 3D integration grid.
  | Formal number of electrons (from input files) :      26.0000000000
  | Integrated number of electrons on 3D grid     :      26.0000000000
  | Charge integration error                      :       0.0000000000
  | Normalization factor for density and gradient :       1.0000000000

  Evaluating partitioned Hartree potential by multipole expansion.
  | Original multipole sum: apparent total charge =  -0.889208E-14
  | Sum of charges compensated after spline to logarithmic grids =  -0.114543E-05
  | Analytical far-field extrapolation by fixed multipoles:
  | Hartree multipole sum: apparent total charge =  -0.881829E-14
  Summing up the Hartree potential.
  Time summed over all CPUs for potential: real work        0.007 s, elapsed        0.009 s
  | RMS charge density error from multipole expansion :   0.743812E-02

  Integrating Hamiltonian matrix: batch-based integration.
  Time summed over all CPUs for integration: real work        0.590 s, elapsed        0.691 s

  Updating Kohn-Sham eigenvalues and eigenvectors using ELSI and the ELPA eigensolver.
  Starting ELPA eigensolver
  Finished transformation to standard eigenproblem
  | Time :     0.001 s
  Finished solving standard eigenproblem
  | Time :     0.008 s
  Finished back-transformation of eigenvectors
  | Time :     0.000 s

  Obtaining occupation numbers and electronic chemical potential using ELSI.
  | Note that, for insulating systems, the printed 'chemical potential' value is not uniquely defined.
  | It can be anywhere in the energy gap, as long as it correctly separates occupied and unoccupied states.
  | In systems with a gap, the physically relevant chemical potential is the VBM or HOMO.

  | Chemical potential (Fermi level):    -3.83536961 eV
  Highest occupied state (VBM) at     -7.66707378 eV
  | Occupation number:      2.00000000

  Lowest unoccupied state (CBM) at    -0.00366544 eV
  | Occupation number:      0.00000000

  Overall HOMO-LUMO gap:      7.66340834 eV.

  Total energy components:
  | Sum of eigenvalues            :        -214.31096412 Ha       -5831.69804711 eV
  | XC energy correction          :         -29.59601126 Ha        -805.34844194 eV
  | XC potential correction       :          40.24679623 Ha        1095.17104718 eV
  | Free-atom electrostatic energy:        -164.45235354 Ha       -4474.97622406 eV
  | Hartree energy correction     :          -2.96742313 Ha         -80.74769185 eV
  | Entropy correction            :          -0.00000000 Ha          -0.00000000 eV
  | ---------------------------
  | Total energy                  :        -371.07995581 Ha      -10097.59935778 eV
  | Total energy, T -> 0          :        -371.07995581 Ha      -10097.59935778 eV  <-- do not rely on this value for anything but (periodic) metals
  | Electronic free energy        :        -371.07995581 Ha      -10097.59935778 eV

  Derived energy quantities:
  | Kinetic energy                :         372.08240336 Ha       10124.87734350 eV
  | Electrostatic energy          :        -713.56634791 Ha      -19417.12825934 eV
  | Energy correction for multipole
  | error in Hartree potential    :          -0.00849818 Ha          -0.23124731 eV
  | Sum of eigenvalues per atom                           :        -728.96225589 eV
  | Total energy (T->0) per atom                          :       -1262.19991972 eV  <-- do not rely on this value for anything but (periodic) metals
  | Electronic free energy per atom                       :       -1262.19991972 eV
  Evaluating new KS density.
  Integration grid: deviation in total charge (<rho> - N_e) =   2.131628E-14

  Self-consistency convergence accuracy:
  | Change of charge density      :  0.1314E-03
  | Change of unmixed KS density  :  0.1414E-03
  | Change of sum of eigenvalues  :  0.1055E-02 eV
  | Change of total energy        : -0.1792E-05 eV


------------------------------------------------------------
  End self-consistency iteration #    10       :  max(cpu_time)    wall_clock(cpu1)
  | Time for this iteration                     :        0.287 s           0.267 s
  | Charge density update                       :        0.005 s           0.005 s
  | Density mixing                              :        0.251 s           0.231 s
  | Hartree multipole update                    :        0.002 s           0.002 s
  | Hartree multipole summation                 :        0.009 s           0.009 s
  | Integration                                 :        0.011 s           0.011 s
  | Solution of K.-S. eqns.                     :        0.009 s           0.009 s
  | Total energy evaluation                     :        0.000 s           0.000 s

  Partial memory accounting:
  | Current value for overall tracked memory usage:
  |   Minimum:        1.371 MB (on task 52)
  |   Maximum:        1.503 MB (on task 10)
  |   Average:        1.410 MB
  | Peak value for overall tracked memory usage:
  |   Minimum:        2.528 MB (on task 52 after allocating wave)
  |   Maximum:        2.660 MB (on task 10 after allocating wave)
  |   Average:        2.567 MB
  | Largest tracked array allocation so far:
  |   Minimum:        0.368 MB (previous_rho_gradient_diff on task  0)
  |   Maximum:        0.384 MB (previous_rho_gradient_diff on task 10)
  |   Average:        0.370 MB
  Note:  These values currently only include a subset of arrays which are explicitly tracked.
  The "true" memory usage will be greater.
------------------------------------------------------------

------------------------------------------------------------
          Begin self-consistency iteration #   11

  Date     :  20260729, Time     :  181239.926
------------------------------------------------------------
  Pulay mixing of updated and previous charge densities.
  Available memory per node after mixing [GB]:   1034.03
  Renormalizing the density to the exact electron count on the 3D integration grid.
  | Formal number of electrons (from input files) :      26.0000000000
  | Integrated number of electrons on 3D grid     :      26.0000000000
  | Charge integration error                      :       0.0000000000
  | Normalization factor for density and gradient :       1.0000000000

  Evaluating partitioned Hartree potential by multipole expansion.
  | Original multipole sum: apparent total charge =   0.260121E-14
  | Sum of charges compensated after spline to logarithmic grids =  -0.114499E-05
  | Analytical far-field extrapolation by fixed multipoles:
  | Hartree multipole sum: apparent total charge =   0.237368E-14
  Summing up the Hartree potential.
  Time summed over all CPUs for potential: real work        0.007 s, elapsed        0.009 s
  | RMS charge density error from multipole expansion :   0.744010E-02

  Integrating Hamiltonian matrix: batch-based integration.
  Time summed over all CPUs for integration: real work        0.586 s, elapsed        0.673 s

  Updating Kohn-Sham eigenvalues and eigenvectors using ELSI and the ELPA eigensolver.
  Starting ELPA eigensolver
  Finished transformation to standard eigenproblem
  | Time :     0.001 s
  Finished solving standard eigenproblem
  | Time :     0.001 s
  Finished back-transformation of eigenvectors
  | Time :     0.000 s

  Obtaining occupation numbers and electronic chemical potential using ELSI.
  | Note that, for insulating systems, the printed 'chemical potential' value is not uniquely defined.
  | It can be anywhere in the energy gap, as long as it correctly separates occupied and unoccupied states.
  | In systems with a gap, the physically relevant chemical potential is the VBM or HOMO.

  | Chemical potential (Fermi level):    -3.83534021 eV
  Highest occupied state (VBM) at     -7.66688561 eV
  | Occupation number:      2.00000000

  Lowest unoccupied state (CBM) at    -0.00379481 eV
  | Occupation number:      0.00000000

  Overall HOMO-LUMO gap:      7.66309080 eV.

  Total energy components:
  | Sum of eigenvalues            :        -214.31147556 Ha       -5831.71196435 eV
  | XC energy correction          :         -29.59602185 Ha        -805.34873034 eV
  | XC potential correction       :          40.24680231 Ha        1095.17121257 eV
  | Free-atom electrostatic energy:        -164.45235354 Ha       -4474.97622406 eV
  | Hartree energy correction     :          -2.96690724 Ha         -80.73365370 eV
  | Entropy correction            :          -0.00000000 Ha          -0.00000000 eV
  | ---------------------------
  | Total energy                  :        -371.07995589 Ha      -10097.59935989 eV
  | Total energy, T -> 0          :        -371.07995589 Ha      -10097.59935989 eV  <-- do not rely on this value for anything but (periodic) metals
  | Electronic free energy        :        -371.07995589 Ha      -10097.59935989 eV

  Derived energy quantities:
  | Kinetic energy                :         372.08214654 Ha       10124.87035517 eV
  | Electrostatic energy          :        -713.56608058 Ha      -19417.12098471 eV
  | Energy correction for multipole
  | error in Hartree potential    :          -0.00849969 Ha          -0.23128823 eV
  | Sum of eigenvalues per atom                           :        -728.96399554 eV
  | Total energy (T->0) per atom                          :       -1262.19991999 eV  <-- do not rely on this value for anything but (periodic) metals
  | Electronic free energy per atom                       :       -1262.19991999 eV
  Evaluating new KS density.
  Integration grid: deviation in total charge (<rho> - N_e) =   1.065814E-14

  Self-consistency convergence accuracy:
  | Change of charge density      :  0.8648E-04
  | Change of unmixed KS density  :  0.3613E-04
  | Change of sum of eigenvalues  : -0.1392E-01 eV
  | Change of total energy        : -0.2106E-05 eV


------------------------------------------------------------
  End self-consistency iteration #    11       :  max(cpu_time)    wall_clock(cpu1)
  | Time for this iteration                     :        0.286 s           0.219 s
  | Charge density update                       :        0.005 s           0.005 s
  | Density mixing                              :        0.255 s           0.188 s
  | Hartree multipole update                    :        0.003 s           0.003 s
  | Hartree multipole summation                 :        0.009 s           0.009 s
  | Integration                                 :        0.011 s           0.011 s
  | Solution of K.-S. eqns.                     :        0.002 s           0.003 s
  | Total energy evaluation                     :        0.000 s           0.000 s

  Partial memory accounting:
  | Current value for overall tracked memory usage:
  |   Minimum:        1.371 MB (on task 52)
  |   Maximum:        1.503 MB (on task 10)
  |   Average:        1.410 MB
  | Peak value for overall tracked memory usage:
  |   Minimum:        2.528 MB (on task 52 after allocating wave)
  |   Maximum:        2.660 MB (on task 10 after allocating wave)
  |   Average:        2.567 MB
  | Largest tracked array allocation so far:
  |   Minimum:        0.368 MB (previous_rho_gradient_diff on task  0)
  |   Maximum:        0.384 MB (previous_rho_gradient_diff on task 10)
  |   Average:        0.370 MB
  Note:  These values currently only include a subset of arrays which are explicitly tracked.
  The "true" memory usage will be greater.
------------------------------------------------------------

------------------------------------------------------------
          Begin self-consistency iteration #   12

  Date     :  20260729, Time     :  181240.213
------------------------------------------------------------
  Pulay mixing of updated and previous charge densities.
  Available memory per node after mixing [GB]:   1034.03
  Renormalizing the density to the exact electron count on the 3D integration grid.
  | Formal number of electrons (from input files) :      26.0000000000
  | Integrated number of electrons on 3D grid     :      26.0000000000
  | Charge integration error                      :       0.0000000000
  | Normalization factor for density and gradient :       1.0000000000

  Evaluating partitioned Hartree potential by multipole expansion.
  | Original multipole sum: apparent total charge =   0.214615E-14
  | Sum of charges compensated after spline to logarithmic grids =  -0.114498E-05
  | Analytical far-field extrapolation by fixed multipoles:
  | Hartree multipole sum: apparent total charge =   0.210926E-14
  Summing up the Hartree potential.
  Time summed over all CPUs for potential: real work        0.007 s, elapsed        0.009 s
  | RMS charge density error from multipole expansion :   0.744016E-02

  Integrating Hamiltonian matrix: batch-based integration.
  Time summed over all CPUs for integration: real work        0.569 s, elapsed        0.648 s

  Updating Kohn-Sham eigenvalues and eigenvectors using ELSI and the ELPA eigensolver.
  Starting ELPA eigensolver
  Finished transformation to standard eigenproblem
  | Time :     0.001 s
  Finished solving standard eigenproblem
  | Time :     0.001 s
  Finished back-transformation of eigenvectors
  | Time :     0.000 s

  Obtaining occupation numbers and electronic chemical potential using ELSI.
  | Note that, for insulating systems, the printed 'chemical potential' value is not uniquely defined.
  | It can be anywhere in the energy gap, as long as it correctly separates occupied and unoccupied states.
  | In systems with a gap, the physically relevant chemical potential is the VBM or HOMO.

  | Chemical potential (Fermi level):    -3.83533854 eV
  Highest occupied state (VBM) at     -7.66689806 eV
  | Occupation number:      2.00000000

  Lowest unoccupied state (CBM) at    -0.00377903 eV
  | Occupation number:      0.00000000

  Overall HOMO-LUMO gap:      7.66311903 eV.

  Total energy components:
  | Sum of eigenvalues            :        -214.31146760 Ha       -5831.71174757 eV
  | XC energy correction          :         -29.59602285 Ha        -805.34875740 eV
  | XC potential correction       :          40.24680335 Ha        1095.17124096 eV
  | Free-atom electrostatic energy:        -164.45235354 Ha       -4474.97622406 eV
  | Hartree energy correction     :          -2.96691526 Ha         -80.73387187 eV
  | Entropy correction            :          -0.00000000 Ha          -0.00000000 eV
  | ---------------------------
  | Total energy                  :        -371.07995589 Ha      -10097.59935995 eV
  | Total energy, T -> 0          :        -371.07995589 Ha      -10097.59935995 eV  <-- do not rely on this value for anything but (periodic) metals
  | Electronic free energy        :        -371.07995589 Ha      -10097.59935995 eV

  Derived energy quantities:
  | Kinetic energy                :         372.08214664 Ha       10124.87035767 eV
  | Electrostatic energy          :        -713.56607968 Ha      -19417.12096022 eV
  | Energy correction for multipole
  | error in Hartree potential    :          -0.00849972 Ha          -0.23128908 eV
  | Sum of eigenvalues per atom                           :        -728.96396845 eV
  | Total energy (T->0) per atom                          :       -1262.19991999 eV  <-- do not rely on this value for anything but (periodic) metals
  | Electronic free energy per atom                       :       -1262.19991999 eV
  Evaluating new KS density.
  Integration grid: deviation in total charge (<rho> - N_e) =   1.421085E-14

  Self-consistency convergence accuracy:
  | Change of charge density      :  0.1000E-04
  | Change of unmixed KS density  :  0.2407E-04
  | Change of sum of eigenvalues  :  0.2168E-03 eV
  | Change of total energy        : -0.5977E-07 eV


------------------------------------------------------------
  End self-consistency iteration #    12       :  max(cpu_time)    wall_clock(cpu1)
  | Time for this iteration                     :        0.286 s           0.232 s
  | Charge density update                       :        0.005 s           0.005 s
  | Density mixing                              :        0.256 s           0.202 s
  | Hartree multipole update                    :        0.003 s           0.003 s
  | Hartree multipole summation                 :        0.009 s           0.009 s
  | Integration                                 :        0.010 s           0.010 s
  | Solution of K.-S. eqns.                     :        0.002 s           0.002 s
  | Total energy evaluation                     :        0.000 s           0.001 s

  Partial memory accounting:
  | Current value for overall tracked memory usage:
  |   Minimum:        1.371 MB (on task 52)
  |   Maximum:        1.503 MB (on task 10)
  |   Average:        1.410 MB
  | Peak value for overall tracked memory usage:
  |   Minimum:        2.528 MB (on task 52 after allocating wave)
  |   Maximum:        2.660 MB (on task 10 after allocating wave)
  |   Average:        2.567 MB
  | Largest tracked array allocation so far:
  |   Minimum:        0.368 MB (previous_rho_gradient_diff on task  0)
  |   Maximum:        0.384 MB (previous_rho_gradient_diff on task 10)
  |   Average:        0.370 MB
  Note:  These values currently only include a subset of arrays which are explicitly tracked.
  The "true" memory usage will be greater.
------------------------------------------------------------

------------------------------------------------------------
          Begin self-consistency iteration #   13

  Date     :  20260729, Time     :  181240.473
------------------------------------------------------------
  Pulay mixing of updated and previous charge densities.
  Available memory per node after mixing [GB]:   1034.03
  Renormalizing the density to the exact electron count on the 3D integration grid.
  | Formal number of electrons (from input files) :      26.0000000000
  | Integrated number of electrons on 3D grid     :      26.0000000000
  | Charge integration error                      :       0.0000000000
  | Normalization factor for density and gradient :       1.0000000000

  Evaluating partitioned Hartree potential by multipole expansion.
  | Original multipole sum: apparent total charge =   0.178949E-14
  | Sum of charges compensated after spline to logarithmic grids =  -0.114493E-05
  | Analytical far-field extrapolation by fixed multipoles:
  | Hartree multipole sum: apparent total charge =   0.203546E-14
  Summing up the Hartree potential.
  Time summed over all CPUs for potential: real work        0.007 s, elapsed        0.009 s
  | RMS charge density error from multipole expansion :   0.744018E-02

  Integrating Hamiltonian matrix: batch-based integration.
  Time summed over all CPUs for integration: real work        0.567 s, elapsed        0.651 s

  Updating Kohn-Sham eigenvalues and eigenvectors using ELSI and the ELPA eigensolver.
  Starting ELPA eigensolver
  Finished transformation to standard eigenproblem
  | Time :     0.000 s
  Finished solving standard eigenproblem
  | Time :     0.002 s
  Finished back-transformation of eigenvectors
  | Time :     0.000 s

  Obtaining occupation numbers and electronic chemical potential using ELSI.
  | Note that, for insulating systems, the printed 'chemical potential' value is not uniquely defined.
  | It can be anywhere in the energy gap, as long as it correctly separates occupied and unoccupied states.
  | In systems with a gap, the physically relevant chemical potential is the VBM or HOMO.

  | Chemical potential (Fermi level):    -3.83533104 eV
  Highest occupied state (VBM) at     -7.66694399 eV
  | Occupation number:      2.00000000

  Lowest unoccupied state (CBM) at    -0.00371810 eV
  | Occupation number:      0.00000000

  Overall HOMO-LUMO gap:      7.66322589 eV.

  Total energy components:
  | Sum of eigenvalues            :        -214.31140180 Ha       -5831.70995715 eV
  | XC energy correction          :         -29.59602822 Ha        -805.34890368 eV
  | XC potential correction       :          40.24681173 Ha        1095.17146894 eV
  | Free-atom electrostatic energy:        -164.45235354 Ha       -4474.97622406 eV
  | Hartree energy correction     :          -2.96698406 Ha         -80.73574402 eV
  | Entropy correction            :          -0.00000000 Ha          -0.00000000 eV
  | ---------------------------
  | Total energy                  :        -371.07995589 Ha      -10097.59935997 eV
  | Total energy, T -> 0          :        -371.07995589 Ha      -10097.59935997 eV  <-- do not rely on this value for anything but (periodic) metals
  | Electronic free energy        :        -371.07995589 Ha      -10097.59935997 eV

  Derived energy quantities:
  | Kinetic energy                :         372.08219440 Ha       10124.87165745 eV
  | Electrostatic energy          :        -713.56612207 Ha      -19417.12211374 eV
  | Energy correction for multipole
  | error in Hartree potential    :          -0.00849991 Ha          -0.23129433 eV
  | Sum of eigenvalues per atom                           :        -728.96374464 eV
  | Total energy (T->0) per atom                          :       -1262.19992000 eV  <-- do not rely on this value for anything but (periodic) metals
  | Electronic free energy per atom                       :       -1262.19992000 eV
  Evaluating new KS density.
  Integration grid: deviation in total charge (<rho> - N_e) =   7.105427E-15

  Self-consistency convergence accuracy:
  | Change of charge density      :  0.9256E-05
  | Change of unmixed KS density  :  0.9248E-06
  | Change of sum of eigenvalues  :  0.1790E-02 eV
  | Change of total energy        : -0.2002E-07 eV


------------------------------------------------------------
  End self-consistency iteration #    13       :  max(cpu_time)    wall_clock(cpu1)
  | Time for this iteration                     :        0.288 s           0.272 s
  | Charge density update                       :        0.005 s           0.005 s
  | Density mixing                              :        0.258 s           0.242 s
  | Hartree multipole update                    :        0.002 s           0.002 s
  | Hartree multipole summation                 :        0.010 s           0.010 s
  | Integration                                 :        0.010 s           0.011 s
  | Solution of K.-S. eqns.                     :        0.002 s           0.002 s
  | Total energy evaluation                     :        0.000 s           0.000 s

  Partial memory accounting:
  | Current value for overall tracked memory usage:
  |   Minimum:        1.371 MB (on task 52)
  |   Maximum:        1.503 MB (on task 10)
  |   Average:        1.410 MB
  | Peak value for overall tracked memory usage:
  |   Minimum:        2.528 MB (on task 52 after allocating wave)
  |   Maximum:        2.660 MB (on task 10 after allocating wave)
  |   Average:        2.567 MB
  | Largest tracked array allocation so far:
  |   Minimum:        0.368 MB (previous_rho_gradient_diff on task  0)
  |   Maximum:        0.384 MB (previous_rho_gradient_diff on task 10)
  |   Average:        0.370 MB
  Note:  These values currently only include a subset of arrays which are explicitly tracked.
  The "true" memory usage will be greater.
------------------------------------------------------------

------------------------------------------------------------
          Begin self-consistency iteration #   14

  Date     :  20260729, Time     :  181241.011
------------------------------------------------------------
  Pulay mixing of updated and previous charge densities.
  Available memory per node after mixing [GB]:   1034.03
  Renormalizing the density to the exact electron count on the 3D integration grid.
  | Formal number of electrons (from input files) :      26.0000000000
  | Integrated number of electrons on 3D grid     :      26.0000000000
  | Charge integration error                      :       0.0000000000
  | Normalization factor for density and gradient :       1.0000000000

  Evaluating partitioned Hartree potential by multipole expansion.
  | Original multipole sum: apparent total charge =  -0.913806E-14
  | Sum of charges compensated after spline to logarithmic grids =  -0.114493E-05
  | Analytical far-field extrapolation by fixed multipoles:
  | Hartree multipole sum: apparent total charge =  -0.974070E-14
  Summing up the Hartree potential.
  Time summed over all CPUs for potential: real work        0.007 s, elapsed        0.008 s
  | RMS charge density error from multipole expansion :   0.744021E-02

  Integrating Hamiltonian matrix: batch-based integration.
  Time summed over all CPUs for integration: real work        0.573 s, elapsed        0.676 s

  Updating Kohn-Sham eigenvalues and eigenvectors using ELSI and the ELPA eigensolver.
  Starting ELPA eigensolver
  Finished transformation to standard eigenproblem
  | Time :     0.001 s
  Finished solving standard eigenproblem
  | Time :     0.001 s
  Finished back-transformation of eigenvectors
  | Time :     0.000 s

  Obtaining occupation numbers and electronic chemical potential using ELSI.
  | Note that, for insulating systems, the printed 'chemical potential' value is not uniquely defined.
  | It can be anywhere in the energy gap, as long as it correctly separates occupied and unoccupied states.
  | In systems with a gap, the physically relevant chemical potential is the VBM or HOMO.

  | Chemical potential (Fermi level):    -3.83532441 eV
  Highest occupied state (VBM) at     -7.66693858 eV
  | Occupation number:      2.00000000

  Lowest unoccupied state (CBM) at    -0.00371023 eV
  | Occupation number:      0.00000000

  Overall HOMO-LUMO gap:      7.66322835 eV.

  Total energy components:
  | Sum of eigenvalues            :        -214.31139361 Ha       -5831.70973425 eV
  | XC energy correction          :         -29.59602989 Ha        -805.34894909 eV
  | XC potential correction       :          40.24681389 Ha        1095.17152776 eV
  | Free-atom electrostatic energy:        -164.45235354 Ha       -4474.97622406 eV
  | Hartree energy correction     :          -2.96699274 Ha         -80.73598034 eV
  | Entropy correction            :          -0.00000000 Ha          -0.00000000 eV
  | ---------------------------
  | Total energy                  :        -371.07995589 Ha      -10097.59935999 eV
  | Total energy, T -> 0          :        -371.07995589 Ha      -10097.59935999 eV  <-- do not rely on this value for anything but (periodic) metals
  | Electronic free energy        :        -371.07995589 Ha      -10097.59935999 eV

  Derived energy quantities:
  | Kinetic energy                :         372.08219937 Ha       10124.87179255 eV
  | Electrostatic energy          :        -713.56612536 Ha      -19417.12220344 eV
  | Energy correction for multipole
  | error in Hartree potential    :          -0.00849996 Ha          -0.23129556 eV
  | Sum of eigenvalues per atom                           :        -728.96371678 eV
  | Total energy (T->0) per atom                          :       -1262.19992000 eV  <-- do not rely on this value for anything but (periodic) metals
  | Electronic free energy per atom                       :       -1262.19992000 eV
  Evaluating new KS density.
  Integration grid: deviation in total charge (<rho> - N_e) =   1.421085E-14

  Self-consistency convergence accuracy:
  | Change of charge density      :  0.1945E-05
  | Change of unmixed KS density  :  0.2759E-05
  | Change of sum of eigenvalues  :  0.2229E-03 eV
  | Change of total energy        : -0.2343E-07 eV


------------------------------------------------------------
  End self-consistency iteration #    14       :  max(cpu_time)    wall_clock(cpu1)
  | Time for this iteration                     :        0.287 s           0.033 s
  | Charge density update                       :        0.005 s           0.005 s
  | Density mixing                              :        0.258 s           0.004 s
  | Hartree multipole update                    :        0.002 s           0.002 s
  | Hartree multipole summation                 :        0.009 s           0.009 s
  | Integration                                 :        0.011 s           0.011 s
  | Solution of K.-S. eqns.                     :        0.002 s           0.002 s
  | Total energy evaluation                     :        0.000 s           0.000 s

  Partial memory accounting:
  | Current value for overall tracked memory usage:
  |   Minimum:        1.371 MB (on task 52)
  |   Maximum:        1.503 MB (on task 10)
  |   Average:        1.410 MB
  | Peak value for overall tracked memory usage:
  |   Minimum:        2.528 MB (on task 52 after allocating wave)
  |   Maximum:        2.660 MB (on task 10 after allocating wave)
  |   Average:        2.567 MB
  | Largest tracked array allocation so far:
  |   Minimum:        0.368 MB (previous_rho_gradient_diff on task  0)
  |   Maximum:        0.384 MB (previous_rho_gradient_diff on task 10)
  |   Average:        0.370 MB
  Note:  These values currently only include a subset of arrays which are explicitly tracked.
  The "true" memory usage will be greater.
------------------------------------------------------------

------------------------------------------------------------
          Begin self-consistency iteration #   15

  Date     :  20260729, Time     :  181241.105
------------------------------------------------------------
  Pulay mixing of updated and previous charge densities.
  Available memory per node after mixing [GB]:   1034.03
  Renormalizing the density to the exact electron count on the 3D integration grid.
  | Formal number of electrons (from input files) :      26.0000000000
  | Integrated number of electrons on 3D grid     :      26.0000000000
  | Charge integration error                      :       0.0000000000
  | Normalization factor for density and gradient :       1.0000000000

  Evaluating partitioned Hartree potential by multipole expansion.
  | Original multipole sum: apparent total charge =   0.488880E-14
  | Sum of charges compensated after spline to logarithmic grids =  -0.114493E-05
  | Analytical far-field extrapolation by fixed multipoles:
  | Hartree multipole sum: apparent total charge =   0.461208E-14
  Summing up the Hartree potential.
  Time summed over all CPUs for potential: real work        0.007 s, elapsed        0.008 s
  | RMS charge density error from multipole expansion :   0.744022E-02

  Integrating Hamiltonian matrix: batch-based integration.
  Time summed over all CPUs for integration: real work        0.573 s, elapsed        0.683 s

  Updating Kohn-Sham eigenvalues and eigenvectors using ELSI and the ELPA eigensolver.
  Starting ELPA eigensolver
  Finished transformation to standard eigenproblem
  | Time :     0.000 s
  Finished solving standard eigenproblem
  | Time :     0.001 s
  Finished back-transformation of eigenvectors
  | Time :     0.000 s

  Obtaining occupation numbers and electronic chemical potential using ELSI.
  | Note that, for insulating systems, the printed 'chemical potential' value is not uniquely defined.
  | It can be anywhere in the energy gap, as long as it correctly separates occupied and unoccupied states.
  | In systems with a gap, the physically relevant chemical potential is the VBM or HOMO.

  | Chemical potential (Fermi level):    -3.83532334 eV
  Highest occupied state (VBM) at     -7.66693759 eV
  | Occupation number:      2.00000000

  Lowest unoccupied state (CBM) at    -0.00370909 eV
  | Occupation number:      0.00000000

  Overall HOMO-LUMO gap:      7.66322850 eV.

  Total energy components:
  | Sum of eigenvalues            :        -214.31139276 Ha       -5831.70971122 eV
  | XC energy correction          :         -29.59603014 Ha        -805.34895570 eV
  | XC potential correction       :          40.24681420 Ha        1095.17153622 eV
  | Free-atom electrostatic energy:        -164.45235354 Ha       -4474.97622406 eV
  | Hartree energy correction     :          -2.96699366 Ha         -80.73600523 eV
  | Entropy correction            :          -0.00000000 Ha          -0.00000000 eV
  | ---------------------------
  | Total energy                  :        -371.07995589 Ha      -10097.59935999 eV
  | Total energy, T -> 0          :        -371.07995589 Ha      -10097.59935999 eV  <-- do not rely on this value for anything but (periodic) metals
  | Electronic free energy        :        -371.07995589 Ha      -10097.59935999 eV

  Derived energy quantities:
  | Kinetic energy                :         372.08219977 Ha       10124.87180366 eV
  | Electrostatic energy          :        -713.56612553 Ha      -19417.12220795 eV
  | Energy correction for multipole
  | error in Hartree potential    :          -0.00849996 Ha          -0.23129570 eV
  | Sum of eigenvalues per atom                           :        -728.96371390 eV
  | Total energy (T->0) per atom                          :       -1262.19992000 eV  <-- do not rely on this value for anything but (periodic) metals
  | Electronic free energy per atom                       :       -1262.19992000 eV

  Self-consistency convergence accuracy:
  | Change of charge density      :  0.3344E-06
  | Change of unmixed KS density  :  0.4239E-06
  | Change of sum of eigenvalues  :  0.2303E-04 eV
  | Change of total energy        : -0.3115E-08 eV

  Writing Kohn-Sham eigenvalues.

  State    Occupation    Eigenvalue [Ha]    Eigenvalue [eV]
      1       2.00000         -77.228453        -2101.49312
      2       2.00000          -6.560906         -178.53132
      3       2.00000          -6.553267         -178.32348
      4       2.00000          -4.660738         -126.82513
      5       2.00000          -4.660734         -126.82502
      6       2.00000          -4.656693         -126.71507
      7       2.00000          -0.672442          -18.29809
      8       2.00000          -0.479582          -13.05009
      9       2.00000          -0.412688          -11.22982
     10       2.00000          -0.412686          -11.22975
     11       2.00000          -0.293997           -8.00006
     12       2.00000          -0.281756           -7.66697
     13       2.00000          -0.281755           -7.66694
     14       0.00000          -0.000136           -0.00371
     15       0.00000          -0.000129           -0.00351
     16       0.00000           0.010205            0.27769
     17       0.00000           0.039122            1.06456
     18       0.00000           0.095772            2.60610
     19       0.00000           0.095774            2.60613
     20       0.00000           0.127383            3.46626
     21       0.00000           0.138130            3.75872
     22       0.00000           0.138132            3.75876
     23       0.00000           0.174882            4.75877
     24       0.00000           0.185238            5.04058
     25       0.00000           0.185239            5.04062
     26       0.00000           0.269742            7.34004
     27       0.00000           0.269745            7.34013
     28       0.00000           0.271517            7.38835

  Highest occupied state (VBM) at     -7.66693759 eV
  | Occupation number:      2.00000000

  Lowest unoccupied state (CBM) at    -0.00370909 eV
  | Occupation number:      0.00000000

  Overall HOMO-LUMO gap:      7.66322850 eV.

  | Chemical Potential                          :    -3.83532334 eV
  | Note that, for insulating systems, the printed 'chemical potential' value is not uniquely defined.
  | It can be anywhere in the energy gap, as long as it correctly separates occupied and unoccupied states.
  | In systems with a gap, the physically relevant chemical potential is the VBM or HOMO.

  Self-consistency cycle converged.


------------------------------------------------------------
  End self-consistency iteration #    15       :  max(cpu_time)    wall_clock(cpu1)
  | Time for this iteration                     :        0.286 s           0.238 s
  | Charge density update                       :        0.000 s           0.000 s
  | Density mixing                              :        0.262 s           0.214 s
  | Hartree multipole update                    :        0.002 s           0.002 s
  | Hartree multipole summation                 :        0.008 s           0.008 s
  | Integration                                 :        0.011 s           0.011 s
  | Solution of K.-S. eqns.                     :        0.002 s           0.002 s
  | Total energy evaluation                     :        0.000 s           0.000 s

  Partial memory accounting:
  | Current value for overall tracked memory usage:
  |   Minimum:        1.371 MB (on task 52)
  |   Maximum:        1.503 MB (on task 10)
  |   Average:        1.410 MB
  | Peak value for overall tracked memory usage:
  |   Minimum:        2.528 MB (on task 52 after allocating wave)
  |   Maximum:        2.660 MB (on task 10 after allocating wave)
  |   Average:        2.567 MB
  | Largest tracked array allocation so far:
  |   Minimum:        0.368 MB (previous_rho_gradient_diff on task  0)
  |   Maximum:        0.384 MB (previous_rho_gradient_diff on task 10)
  |   Average:        0.370 MB
  Note:  These values currently only include a subset of arrays which are explicitly tracked.
  The "true" memory usage will be greater.
------------------------------------------------------------

  Energy and forces in a compact form:
  | Total energy uncorrected      :         -0.100975993599928E+05 eV
  | Total energy corrected        :         -0.100975993599928E+05 eV  <-- do not rely on this value for anything but (periodic) metals
  | Electronic free energy        :         -0.100975993599928E+05 eV

  ------------------------------------ 
  Start decomposition of the XC Energy 
  ------------------------------------ 
  X and C from original XC functional choice 
  Hartree-Fock Energy :          0.000000000 Ha              0.000000000 eV
  X Energy            :        -28.741568917 Ha           -782.097882935 eV
  C Energy            :         -0.854461219 Ha            -23.251072764 eV
  XC Energy w/o HF    :        -29.596030136 Ha           -805.348955699 eV
  Total XC Energy     :        -29.596030136 Ha           -805.348955699 eV
  ------------------------------------ 
  LDA X and C from self-consistent density 
  X Energy LDA        :        -26.251069447 Ha           -714.327944259 eV
  C Energy LDA        :         -1.765669370 Ha            -48.046308121 eV
  ------------------------------------ 
  End decomposition of the XC Energy 
  ------------------------------------ 

------------------------------------------------------------

------------------------------------------------------------------------------
  Final output of selected total energy values:

  The following output summarizes some interesting total energy values
  at the end of a run (AFTER all relaxation, molecular dynamics, etc.).

  | Total energy of the DFT / Hartree-Fock s.c.f. calculation      :         -10097.599359993 eV
  | Final zero-broadening corrected energy (caution - metals only) :         -10097.599359993 eV
  | For reference only, the value of 1 Hartree used in FHI-aims is :             27.211384500 eV

  Before relying on these values, please be sure to understand exactly which
  total energy value is referred to by a given number. Different objects may
  all carry the same name 'total energy'. Definitions:

  Total energy of the DFT / Hartree-Fock s.c.f. calculation:
  | Note that this energy does not include ANY quantities calculated after the
  | s.c.f. cycle, in particular not ANY RPA, MP2, etc. many-body perturbation terms.

  Final zero-broadening corrected energy:
  | For metallic systems only, a broadening of the occupation numbers at the Fermi
  | level can be extrapolated back to zero broadening by an electron-gas inspired
  | formula. For all systems that are not real metals, this value can be
  | meaningless and should be avoided.

------------------------------------------------------------------------------
  Methods described in the following list of references were used in this FHI-aims run.
  If you publish the results, please make sure to cite these reference if they apply.
  FHI-aims is an academic code, and for our developers (often, Ph.D. students
  and postdocs), scientific credit in the community is essential.
  Thank you for helping us!

  For any use of FHI-aims, please cite:

    Volker Blum, Ralf Gehrke, Felix Hanke, Paula Havu, Ville Havu,
    Xinguo Ren, Karsten Reuter, and Matthias Scheffler
    'Ab initio molecular simulations with numeric atom-centered orbitals'
    Computer Physics Communications 180, 2175-2196 (2009)
    http://doi.org/10.1016/j.cpc.2009.06.022


  The ELSI infrastructure was used in your run to solve the Kohn-Sham electronic structure.
  Please check out https://wordpress.elsi-interchange.org to learn more.
  If scalability is important for your project, please acknowledge ELSI by citing:

    V. W-z. Yu, F. Corsetti, A. Garcia, W. P. Huhn, M. Jacquelin, W. Jia,
    B. Lange, L. Lin, J. Lu, W. Mi, A. Seifitokaldani, A. Vazquez-Mayagoitia,
    C. Yang, H. Yang, and V. Blum
    'ELSI: A unified software interface for Kohn-Sham electronic structure solvers'
    Computer Physics Communications 222, 267-285 (2018).
    http://doi.org/10.1016/j.cpc.2017.09.007


  For the real-space grid partitioning and parallelization used in this calculation, please cite:

    Ville Havu, Volker Blum, Paula Havu, and Matthias Scheffler,
    'Efficient O(N) integration for all-electron electronic structure calculation'
    'using numerically tabulated basis functions'
    Journal of Computational Physics 228, 8367-8379 (2009).
    http://doi.org/10.1016/j.jcp.2009.08.008

  Of course, there are many other important community references, e.g., those cited in the
  above references. Our list is limited to references that describe implementations in the
  FHI-aims code. The reason is purely practical (length of this list) - please credit others as well.
------------------------------------------------------------
Warnings summary:

At least    2 warnings were raised during execution.

------------------------------------------------------------
          Leaving FHI-aims.
          Date     :  20260729, Time     :  181241.618

          Computational steps:
          | Number of self-consistency cycles          :           15
          | Number of SCF (re)initializations          :            1

          Detailed time accounting                     :  max(cpu_time)    wall_clock(cpu1)
          | Total time                                  :        4.253 s           5.818 s
          | Preparation time                            :        0.191 s           0.586 s
          | Boundary condition initalization            :        0.002 s           0.002 s
          | Grid partitioning                           :        0.034 s           0.033 s
          | Preloading free-atom quantities on grid     :        0.008 s           0.008 s
          | Free-atom superposition energy              :        0.003 s           0.003 s
          | Total time for integrations                 :        0.186 s           0.183 s
          | Total time for solution of K.-S. equations  :        0.271 s           0.303 s
          | Total time for density update               :        0.080 s           0.080 s
          | Total time for mixing                       :        3.640 s           2.525 s
          | Total time for Hartree multipole update     :        0.037 s           0.034 s
          | Total time for Hartree multipole sum        :        0.142 s           0.144 s
          | Total time for total energy evaluation      :        0.001 s           0.003 s
          | Total time for scaled ZORA corrections      :        0.000 s           0.000 s

          Partial memory accounting:
          | Residual value for overall tracked memory usage across tasks:     0.000000 MB (should be 0.000000 MB)
          | Peak values for overall tracked memory usage:
          |   Minimum:        2.528 MB (on task 52 after allocating wave)
          |   Maximum:        2.660 MB (on task 10 after allocating wave)
          |   Average:        2.567 MB
          | Largest tracked array allocation:
          |   Minimum:        0.368 MB (previous_rho_gradient_diff on task  0)
          |   Maximum:        0.384 MB (previous_rho_gradient_diff on task 10)
          |   Average:        0.370 MB
          Note:  These values currently only include a subset of arrays which are explicitly tracked.
          The "true" memory usage will be greater.

          Have a nice day.
------------------------------------------------------------
