------------------------------------------------------------
          Invoking FHI-aims ...

          When using FHI-aims, please cite the following reference:

            Volker Blum, Ralf Gehrke, Felix Hanke, Paula Havu,
            Ville Havu, Xinguo Ren, Karsten Reuter, and Matthias Scheffler,
            'Ab Initio Molecular Simulations with Numeric Atom-Centered Orbitals',
            Computer Physics Communications 180, 2175-2196 (2009)

          In addition, many other developments in FHI-aims are likely important for
          your particular application. If so, please cite them. A partial list of references
          is written at the end of this file. Thank you for giving credit to the authors
          of these developments.

          For general information about FHI-aims please find us at

            https://fhi-aims.org

          Online tutorials can be found at

            https://fhi-aims-club.gitlab.io/tutorials/tutorials-overview/

          For any questions about FHI-aims, please visit our slack channel at

            https://fhi-aims.slack.com

          and our main development and support site at

            https://aims-git.rz-berlin.mpg.de .

          The latter site, in particular, has a wiki to collect information, as well
          as an issue tracker to log discussions, suggest improvements, and report issues
          or bugs. https://aims-git.rz-berlin.mpg.de is also the main development site
          of the project and all new and updated code versions can be obtained there.
          Please send an email to aims-coordinators@ms1p.org and we will add
          you to these sites. They are for you and everyone is welcome there.

------------------------------------------------------------



  Date     :  20260724, Time     :  152910.703
  Time zero on CPU 1             :   0.340849000000000E+00  s.
  Internal wall clock time zero  :           554138950.703  s.

  FHI-aims created a unique identifier for this run for later identification
  aims_uuid : 6E38ED60-8714-48F2-A555-3F5DE78EFA08

  Build configuration of the current instance of FHI-aims
  -------------------------------------------------------
  FHI-aims version      : 260331
  Commit number         : GITDIR-NOTFOUND
  CMake host system     : Linux-4.18.0-553.97.1.el8_10.x86_64
  CMake version         : 3.31.6
  OS Distribution       : Rocky Linux 8.10 (Green Obsidian)
  Built on              : Intel(R) Xeon(R) w5-3435X
  Fortran compiler      : /mnt/sw/nix/store/pa59vldasm7gxpr7dkijhk09q5qq63q1-openmpi-4.1.8/bin/mpifort (GNU) version 13.3.0
  Fortran compiler flags: -O2 -fallow-argument-mismatch -ffree-line-length-none
  C compiler            : /mnt/sw/nix/store/pa59vldasm7gxpr7dkijhk09q5qq63q1-openmpi-4.1.8/bin/mpicc (GNU) version 13.3.0
  C compiler flags      : -O2
  C++ compiler          : /mnt/sw/nix/store/pa59vldasm7gxpr7dkijhk09q5qq63q1-openmpi-4.1.8/bin/mpicxx (GNU) version 13.3.0
  C++ compiler flags    : -O2
  HIP compiler          :
  HIP compiler flags    :
  HIP GPU arch          :
  Using MPI
  Using ScaLAPACK
  Using LibXC
  Using i-PI
  Using RLSY
  Using GREENX
  Linking against: /mnt/sw/nix/store/dwd607jzx9m5bdd100br72s3b6g05zrf-intel-oneapi-mkl-2024.2.2/mkl/2024.2/lib/libmkl_intel_lp64.so
                   /mnt/sw/nix/store/dwd607jzx9m5bdd100br72s3b6g05zrf-intel-oneapi-mkl-2024.2.2/mkl/2024.2/lib/libmkl_sequential.so
                   /mnt/sw/nix/store/dwd607jzx9m5bdd100br72s3b6g05zrf-intel-oneapi-mkl-2024.2.2/mkl/2024.2/lib/libmkl_core.so
                   /mnt/sw/nix/store/dwd607jzx9m5bdd100br72s3b6g05zrf-intel-oneapi-mkl-2024.2.2/mkl/2024.2/lib/libmkl_blacs_openmpi_lp64.so
                   /mnt/sw/nix/store/dwd607jzx9m5bdd100br72s3b6g05zrf-intel-oneapi-mkl-2024.2.2/mkl/2024.2/lib/libmkl_scalapack_lp64.so

  Using       64 parallel tasks.
  Task        0 on host worker6171 reporting.
  Task        1 on host worker6171 reporting.
  Task        2 on host worker6171 reporting.
  Task        3 on host worker6171 reporting.
  Task        4 on host worker6171 reporting.
  Task        5 on host worker6171 reporting.
  Task        6 on host worker6171 reporting.
  Task        7 on host worker6171 reporting.
  Task        8 on host worker6171 reporting.
  Task        9 on host worker6171 reporting.
  Task       10 on host worker6171 reporting.
  Task       11 on host worker6171 reporting.
  Task       12 on host worker6171 reporting.
  Task       13 on host worker6171 reporting.
  Task       14 on host worker6171 reporting.
  Task       15 on host worker6171 reporting.
  Task       16 on host worker6171 reporting.
  Task       17 on host worker6171 reporting.
  Task       18 on host worker6171 reporting.
  Task       19 on host worker6171 reporting.
  Task       20 on host worker6171 reporting.
  Task       21 on host worker6171 reporting.
  Task       22 on host worker6171 reporting.
  Task       23 on host worker6171 reporting.
  Task       24 on host worker6171 reporting.
  Task       25 on host worker6171 reporting.
  Task       26 on host worker6171 reporting.
  Task       27 on host worker6171 reporting.
  Task       28 on host worker6171 reporting.
  Task       29 on host worker6171 reporting.
  Task       30 on host worker6171 reporting.
  Task       31 on host worker6171 reporting.
  Task       32 on host worker6172 reporting.
  Task       33 on host worker6172 reporting.
  Task       34 on host worker6172 reporting.
  Task       35 on host worker6172 reporting.
  Task       36 on host worker6172 reporting.
  Task       37 on host worker6172 reporting.
  Task       38 on host worker6172 reporting.
  Task       39 on host worker6172 reporting.
  Task       40 on host worker6172 reporting.
  Task       41 on host worker6172 reporting.
  Task       42 on host worker6172 reporting.
  Task       43 on host worker6172 reporting.
  Task       44 on host worker6172 reporting.
  Task       45 on host worker6172 reporting.
  Task       46 on host worker6172 reporting.
  Task       47 on host worker6172 reporting.
  Task       48 on host worker6172 reporting.
  Task       49 on host worker6172 reporting.
  Task       50 on host worker6172 reporting.
  Task       51 on host worker6172 reporting.
  Task       52 on host worker6172 reporting.
  Task       53 on host worker6172 reporting.
  Task       54 on host worker6172 reporting.
  Task       55 on host worker6172 reporting.
  Task       56 on host worker6172 reporting.
  Task       57 on host worker6172 reporting.
  Task       58 on host worker6172 reporting.
  Task       59 on host worker6172 reporting.
  Task       60 on host worker6172 reporting.
  Task       61 on host worker6172 reporting.
  Task       62 on host worker6172 reporting.
  Task       63 on host worker6172 reporting.

  Obtaining array dimensions for all initial allocations:
  
  -----------------------------------------------------------------------
  Parsing control.in (first pass over file, find array dimensions only).
  The contents of control.in will be repeated verbatim below
  unless switched off by setting 'verbatim_writeout .false.' .
  in the first line of control.in .
  -----------------------------------------------------------------------
  
  override_warning_libxc             True
  xc                                 libxc MGGA_X_R2SCAN+MGGA_C_R2SCAN
  
  spin                               none
  charge                             0
  
  relativistic                       atomic_zora scalar
  atomic_solver_xc                   pbe
  ionic_solver_xc                    pbe
  
  occupation_type                    gaussian 0.01
  
  sc_accuracy_rho                    1e-06
  sc_accuracy_eev                    1e-03
  sc_accuracy_etot                   1e-06
  occupation_acc                     1e-09
  
  charge_mix_param                   0.1
  n_max_pulay                        8
  max_zeroin                         20000
  
  # Species defaults for B
  ################################################################################
  #
  #  FHI-aims code project
  #  Volker Blum, 2019
  #
  #  Suggested "intermediate" defaults for B atom (to be pasted into control.in file)
  #
  ################################################################################
    species        B
  #     global species definitions
      nucleus             5
      mass                10.811
  #
      l_hartree           6
  #
      cut_pot             4.0  2.0  1.0
      basis_dep_cutoff    1e-4
  #
      radial_base         32 7.0
      radial_multiplier   2
      angular_grids       specified
        division   0.3742  110
        division   0.5197  194
        division   0.5753  302
        division   0.7664  434
  #      division   0.8392  770
  #      division   1.6522  974
  #      outer_grid   974
        outer_grid  434
  ################################################################################
  #
  #  Definition of "minimal" basis
  #
  ################################################################################
  #     valence basis states
      valence      2  s   2.
      valence      2  p   1.
  #     ion occupancy
      ion_occ      2  s   1.
  ################################################################################
  #
  #  Suggested additional basis functions. For production calculations,
  #  uncomment them one after another (the most important basis functions are
  #  listed first).
  #
  #  Constructed for dimers: 1.25 A, 1.625 A, 2.5 A, 3.5 A
  #
  ################################################################################
  #  "First tier" - improvements: -710.52 meV to -92.39 meV
       hydro 2 p 1.4
       hydro 3 d 4.8
       hydro 2 s 4
  #  "Second tier" - improvements: -33.88 meV to -2.20 meV
       hydro 4 f 7.8
  #     hydro 3 p 4.2
  #     hydro 3 s 3.3
    for_aux   hydro 5 g 11.2
  #     hydro 3 d 5.4
  #  "Third tier" - improvements: -1.28 meV to -0.36 meV
  #     hydro 2 p 4.7
  #     hydro 2 s 8.4
  #     hydro 4 d 5.8
  #  "Fourth tier" - improvements: -0.25 meV to -0.12 meV
  #     hydro 3 p 2.2
  #     hydro 3 s 3
  #     hydro 4 f 9.8
  #     hydro 5 g 12.8
  #     hydro 4 d 10
  #  Further functions
  #     hydro 4 f 14
  #     hydro 3 p 12.4
  ################################################################################
  #
  # For methods that use the localized form of the "resolution of identity" for
  # the two-electron Coulomb operator (RI_method LVL), particularly Hartree-Fock and
  # hybrid density functional calculations, the highest accuracy can be obtained by
  # uncommenting the line beginning with "for_aux"  below, thus adding an extra g radial
  # function to the construction of the product basis set for the expansion.
  # See Ref. New J. Phys. 17, 093020 (2015) for more information, particularly Figs. 1 and 6.
  #
  ################################################################################
  #
  # for_aux hydro 5 g 6.0
  
  # Species defaults for P
  ################################################################################
  #
  #  FHI-aims code project
  #  Volker Blum, Maria Dragoumi, Sebastian Kokott 2020
  #
  #  Suggested "intermediate" defaults for P atom (to be pasted into control.in file)
  #
  ################################################################################
    species        P
  #     global species definitions
      nucleus             15
      mass                30.973762
  #
      l_hartree           6
  #
      cut_pot             4.0          2.0  1.0
      basis_dep_cutoff    1e-4
  #
      radial_base         43 7.0
      radial_multiplier   2
      angular_grids       specified
        division   0.2995   50
        division   0.5998  110
        division   0.9240  194
        division   1.0921  302
        division   1.2863  434
  #      division   1.3165  590
  #      division   1.4113  770
  #      division   1.5128  974
  #      division   2.4980 1202
        outer_grid  434
  ################################################################################
  #
  #  Definition of "minimal" basis
  #
  ################################################################################
  #     valence basis states
      valence      3  s   2.
      valence      3  p   3.
  #     ion occupancy
      ion_occ      3  s   1.
      ion_occ      3  p   2.
  ################################################################################
  #
  #  Suggested additional basis functions. For production calculations,
  #  uncomment them one after another (the most important basis functions are
  #  listed first).
  #
  #  Constructed for dimers: 1.625 A, 1.875 A, 2.5 A, 3.25 A, 4.0 A
  #
  ################################################################################
  #  "First tier" - improvements: -726.20 meV to -35.91 meV
       ionic 3 d auto
       ionic 3 p auto
       hydro 4 f 6.2
    for_aux   hydro 5 g 8.6
       ionic 3 s auto
  #  "Second tier" - improvements: -16.02 meV to -1.71 meV
  #     hydro 4 d 6.2
  #     hydro 4 p 9.2
  #     hydro 5 f 9.8
  #     hydro 1 s 0.7
  #     hydro 5 g 13.2
  #  "Third tier" - improvements: -1.82 meV to -0.20 meV
  #     hydro 3 p 2.5
  #     hydro 4 d 6.4
  #     hydro 5 f 11.2
  #     hydro 2 s 1.5
  #  "Fourth tier" - improvements: -0.91 meV to -0.17 meV
  #     hydro 3 d 16.8
  #     hydro 5 g 18
  #     hydro 4 p 4.5
  #     hydro 3 s 2.1
  #  Further basis functions that fell out of the optimization - < -0.09 meV
  #     hydro 4 p 10.4
  #     hydro 4 d 17.6
  #     hydro 4 s 11.2
  ################################################################################
  #
  # For methods that use the localized form of the "resolution of identity" for
  # the two-electron Coulomb operator (RI_method LVL), particularly Hartree-Fock and
  # hybrid density functional calculations, the highest accuracy can be obtained by
  # uncommenting the line beginning with "for_aux"  below, thus adding an extra g radial
  # function to the construction of the product basis set for the expansion.
  # See Ref. New J. Phys. 17, 093020 (2015) for more information, particularly Figs. 1 and 6.
  #
  ################################################################################
  #
  # for_aux hydro 5 g 6.0
  
  -----------------------------------------------------------------------
  Completed first pass over input file control.in .
  -----------------------------------------------------------------------
  
  
  -----------------------------------------------------------------------
  Parsing geometry.in (first pass over file, find array dimensions only).
  The contents of geometry.in will be repeated verbatim below
  unless switched off by setting 'verbatim_writeout .false.' .
  in the first line of geometry.in .
  -----------------------------------------------------------------------
  
  #===============================================================================
  # Created using the Atomic Simulation Environment (ASE)
  
  # Fri Jul 24 15:07:33 2026
  
  #=======================================================
  atom 0.0000000000000000 0.0000000000000000 -1.0100000000000000 B
  atom 0.0000000000000000 0.0000000000000000 1.0100000000000000 P
  
  -----------------------------------------------------------------------
  Completed first pass over input file geometry.in .
  -----------------------------------------------------------------------
  

  Basic array size parameters:
  | Number of species                 :        2
  | Number of atoms                   :        2
  | Max. basis fn. angular momentum   :        4
  | Max. atomic/ionic basis occupied n:        3
  | Max. number of basis fn. types    :        3
  | Max. radial fns per species/type  :        5
  | Max. logarithmic grid size        :     1352
  | Max. radial integration grid size :       87
  | Max. angular integration grid size:      434
  | Max. angular grid division number :        8
  | Radial grid for Hartree potential :     1352
  | Number of spin channels           :        1

  Definition of standardized fundamental physical constants in this FHI-aims run:
  | Using the set of values used in FHI-aims up to 2024, which combines values from
  | different CODATA sets - see constants.f90.
  | Use the 'codata' keyword in control.in to change this selection.

  Memory overcommitment is allowed on your operating system.

------------------------------------------------------------
          Reading file control.in.
------------------------------------------------------------
  XC: Using LibXC. Please refer to LibXC output for further details.
  Using libxc - Initializing
  Libxc version: 6.1.0

  You have selected libxc functional MGGA_X_R2SCAN (497)
    - Description: Re-regularized SCAN exchange by Furness et al
    - Type: MGGA(Exchange)
    - Using the following   6 external libxc parameters:
               _c1 = 0.667000000000D+00  (c1 parameter)
               _c2 = 0.800000000000D+00  (c2 parameter)
                _d = 0.124000000000D+01  (d parameter)
               _k1 = 0.650000000000D-01  (k1 parameter)
              _eta = 0.100000000000D-02  (eta parameter)
              _dp2 = 0.361000000000D+00  (dp2 parameter)
    - Reference to Literature:
      [1] J. W. Furness, A. D. Kaplan, J. Ning, J. P. Perdew, and J. Sun.,  J. Phys. Chem. Lett. 11, 8208-8215 (2020)
      [2] J. W. Furness, A. D. Kaplan, J. Ning, J. P. Perdew, and J. Sun.,  J. Phys. Chem. Lett. 11, 9248-9248 (2020)

  You have selected libxc functional MGGA_C_R2SCAN (498)
    - Description: Re-regularized SCAN correlation by Furness et al
    - Type: MGGA(Correlation)
    - Using the following   1 external libxc parameters:
              _eta = 0.100000000000D-02  (Regularization parameter)
    - Reference to Literature:
      [1] J. W. Furness, A. D. Kaplan, J. Ning, J. P. Perdew, and J. Sun.,  J. Phys. Chem. Lett. 11, 8208-8215 (2020)
      [2] J. W. Furness, A. D. Kaplan, J. Ning, J. P. Perdew, and J. Sun.,  J. Phys. Chem. Lett. 11, 9248-9248 (2020)

  Switching on meta-ggas
  Spin treatment: No spin polarisation.
  Charge =   0.000000E+00: Neutral system requested explicitly.
  Scalar relativistic treatment of kinetic energy: on-site free-atom approximation to ZORA.
  Atomic Solver XC: Using user-defined functional for generating the minimal NAO basis functions.
  Note that only the following functionals are available: kli, pz-lda, pw-lda, vwn, vwn-gauss, pw91_gga, pbe, rpbe, revpbe, pbeint, pbesol, blyp.
  Ionic Solver XC: Using user-defined functional for generating the minimal NAO basis functions.
  Note that only the following functionals are available: kli, pz-lda, pw-lda, vwn, vwn-gauss, pw91_gga, pbe, rpbe, revpbe, pbeint, pbesol, blyp.
  Occupation type: Gaussian broadening, width =   0.100000E-01 eV.
  Convergence accuracy of self-consistent charge density:  0.1000E-05
  Convergence accuracy of sum of eigenvalues:  0.1000E-02
  Convergence accuracy of total energy:  0.1000E-05
  Accuracy of occupation numbers  :  0.1000E-08
  Charge density mixing - mixing parameter:     0.1000
  Pulay mixing - number of memorized iterations:    8
  Maximum # of zeroin steps  : ****

  Reading configuration options for species B                   .
  | Found nuclear charge :   5.0000
  | Found atomic mass :    10.811000000000000      amu
  | Found l_max for Hartree potential  :   6
  | Found cutoff potl. onset [A], width [A], scale factor :    4.00000    2.00000    1.00000
  | Threshold for basis-dependent cutoff potential is   0.100000E-03
  | Found data for basic radial integration grid :    32 points, outermost radius =    7.000 A
  | Found multiplier for basic radial grid :   2
  | Found angular grid specification: user-specified.
  | Specified grid contains     5 separate shells.
  | Check grid settings after all constraints further below.
  | Found free-atom valence shell :  2 s   2.000
  | Found free-atom valence shell :  2 p   1.000
  | Found free-ion valence shell :  2 s   1.000
  | Found hydrogenic basis function :  2 p   1.400
  | Found hydrogenic basis function :  3 d   4.800
  | Found hydrogenic basis function :  2 s   4.000
  | Found hydrogenic basis function :  4 f   7.800
  | Found hydrogenic extended basis function :  5 g  11.200
 | Encountered keyword species, ending the description of species B                   .
  Species B                   : Missing cutoff potential type.
  Defaulting to exp(1/x)/(1-x)^2 type cutoff potential.
  Species B : No 'logarithmic' tag. Using default grid for free atom:
  | Default logarithmic grid data [bohr] : 0.1000E-03 0.1000E+03 0.1012E+01
  Species B : On-site basis accuracy parameter (for Gram-Schmidt orthonormalisation) not specified.
  Using default value basis_acc =  0.1000000E-03.
  Species B                   : Using default innermost maximum threshold i_radial=  2 for radial functions.
  Species B                   : Default cutoff onset for free atom density etc. : 0.40000000E+01 AA.
  Species B                   : Basic radial grid will be enhanced according to radial_multiplier =   2, to contain    65 grid points.

  Reading configuration options for species P                   .
  | Found nuclear charge :  15.0000
  | Found atomic mass :    30.973762000000001      amu
  | Found l_max for Hartree potential  :   6
  | Found cutoff potl. onset [A], width [A], scale factor :    4.00000    2.00000    1.00000
  | Threshold for basis-dependent cutoff potential is   0.100000E-03
  | Found data for basic radial integration grid :    43 points, outermost radius =    7.000 A
  | Found multiplier for basic radial grid :   2
  | Found angular grid specification: user-specified.
  | Specified grid contains     6 separate shells.
  | Check grid settings after all constraints further below.
  | Found free-atom valence shell :  3 s   2.000
  | Found free-atom valence shell :  3 p   3.000
  | Found free-ion valence shell :  3 s   1.000
  | Found free-ion valence shell :  3 p   2.000
  | Found ionic basis function :  3 d , default cutoff radius.
  | Found ionic basis function :  3 p , default cutoff radius.
  | Found hydrogenic basis function :  4 f   6.200
  | Found hydrogenic extended basis function :  5 g   8.600
  | Found ionic basis function :  3 s , default cutoff radius.
  Species P                   : Missing cutoff potential type.
  Defaulting to exp(1/x)/(1-x)^2 type cutoff potential.
  Species P : No 'logarithmic' tag. Using default grid for free atom:
  | Default logarithmic grid data [bohr] : 0.1000E-03 0.1000E+03 0.1012E+01
  | Will include ionic basis functions of  2.0-fold positive P                    ion.
  Species P : On-site basis accuracy parameter (for Gram-Schmidt orthonormalisation) not specified.
  Using default value basis_acc =  0.1000000E-03.
  Species P                   : Using default innermost maximum threshold i_radial=  2 for radial functions.
  Species P                   : Default cutoff onset for free atom density etc. : 0.40000000E+01 AA.
  Species P                   : Basic radial grid will be enhanced according to radial_multiplier =   2, to contain    87 grid points.

  Finished reading input file 'control.in'.

------------------------------------------------------------


------------------------------------------------------------
          Reading geometry description geometry.in.
------------------------------------------------------------
  | The smallest distance between any two atoms is         2.02000000 AA.
  | The first atom of this pair is atom number                      1 .
  | The second atom of this pair is atom number                     2 .
  Input structure read successfully.
  The structure contains        2 atoms,  and a total of         20.000 electrons.

  Input geometry:
  | No unit cell requested.
  | Atomic structure:
  |       Atom                x [A]            y [A]            z [A]
  |    1: Species B             0.00000000        0.00000000       -1.01000000
  |    2: Species P             0.00000000        0.00000000        1.01000000

  Slab Identifier: This is not a periodic structure.

  Finished reading input file 'geometry.in'.



  Consistency checks for stacksize environment parameter are next.

  | Maximum stacksize for task 0: unlimited
  | Maximum stacksize for task 1: unlimited
  | Maximum stacksize for task 2: unlimited
  | Maximum stacksize for task 3: unlimited
  | Maximum stacksize for task 4: unlimited
  | Maximum stacksize for task 5: unlimited
  | Maximum stacksize for task 6: unlimited
  | Maximum stacksize for task 7: unlimited
  | Maximum stacksize for task 8: unlimited
  | Maximum stacksize for task 9: unlimited
  | Maximum stacksize for task 10: unlimited
  | Maximum stacksize for task 11: unlimited
  | Maximum stacksize for task 12: unlimited
  | Maximum stacksize for task 13: unlimited
  | Maximum stacksize for task 14: unlimited
  | Maximum stacksize for task 15: unlimited
  | Maximum stacksize for task 16: unlimited
  | Maximum stacksize for task 17: unlimited
  | Maximum stacksize for task 18: unlimited
  | Maximum stacksize for task 19: unlimited
  | Maximum stacksize for task 20: unlimited
  | Maximum stacksize for task 21: unlimited
  | Maximum stacksize for task 22: unlimited
  | Maximum stacksize for task 23: unlimited
  | Maximum stacksize for task 24: unlimited
  | Maximum stacksize for task 25: unlimited
  | Maximum stacksize for task 26: unlimited
  | Maximum stacksize for task 27: unlimited
  | Maximum stacksize for task 28: unlimited
  | Maximum stacksize for task 29: unlimited
  | Maximum stacksize for task 30: unlimited
  | Maximum stacksize for task 31: unlimited
  | Maximum stacksize for task 32: unlimited
  | Maximum stacksize for task 33: unlimited
  | Maximum stacksize for task 34: unlimited
  | Maximum stacksize for task 35: unlimited
  | Maximum stacksize for task 36: unlimited
  | Maximum stacksize for task 37: unlimited
  | Maximum stacksize for task 38: unlimited
  | Maximum stacksize for task 39: unlimited
  | Maximum stacksize for task 40: unlimited
  | Maximum stacksize for task 41: unlimited
  | Maximum stacksize for task 42: unlimited
  | Maximum stacksize for task 43: unlimited
  | Maximum stacksize for task 44: unlimited
  | Maximum stacksize for task 45: unlimited
  | Maximum stacksize for task 46: unlimited
  | Maximum stacksize for task 47: unlimited
  | Maximum stacksize for task 48: unlimited
  | Maximum stacksize for task 49: unlimited
  | Maximum stacksize for task 50: unlimited
  | Maximum stacksize for task 51: unlimited
  | Maximum stacksize for task 52: unlimited
  | Maximum stacksize for task 53: unlimited
  | Maximum stacksize for task 54: unlimited
  | Maximum stacksize for task 55: unlimited
  | Maximum stacksize for task 56: unlimited
  | Maximum stacksize for task 57: unlimited
  | Maximum stacksize for task 58: unlimited
  | Maximum stacksize for task 59: unlimited
  | Maximum stacksize for task 60: unlimited
  | Maximum stacksize for task 61: unlimited
  | Maximum stacksize for task 62: unlimited
  | Maximum stacksize for task 63: unlimited
  | Current stacksize for task 0: unlimited
  | Current stacksize for task 1: unlimited
  | Current stacksize for task 2: unlimited
  | Current stacksize for task 3: unlimited
  | Current stacksize for task 4: unlimited
  | Current stacksize for task 5: unlimited
  | Current stacksize for task 6: unlimited
  | Current stacksize for task 7: unlimited
  | Current stacksize for task 8: unlimited
  | Current stacksize for task 9: unlimited
  | Current stacksize for task 10: unlimited
  | Current stacksize for task 11: unlimited
  | Current stacksize for task 12: unlimited
  | Current stacksize for task 13: unlimited
  | Current stacksize for task 14: unlimited
  | Current stacksize for task 15: unlimited
  | Current stacksize for task 16: unlimited
  | Current stacksize for task 17: unlimited
  | Current stacksize for task 18: unlimited
  | Current stacksize for task 19: unlimited
  | Current stacksize for task 20: unlimited
  | Current stacksize for task 21: unlimited
  | Current stacksize for task 22: unlimited
  | Current stacksize for task 23: unlimited
  | Current stacksize for task 24: unlimited
  | Current stacksize for task 25: unlimited
  | Current stacksize for task 26: unlimited
  | Current stacksize for task 27: unlimited
  | Current stacksize for task 28: unlimited
  | Current stacksize for task 29: unlimited
  | Current stacksize for task 30: unlimited
  | Current stacksize for task 31: unlimited
  | Current stacksize for task 32: unlimited
  | Current stacksize for task 33: unlimited
  | Current stacksize for task 34: unlimited
  | Current stacksize for task 35: unlimited
  | Current stacksize for task 36: unlimited
  | Current stacksize for task 37: unlimited
  | Current stacksize for task 38: unlimited
  | Current stacksize for task 39: unlimited
  | Current stacksize for task 40: unlimited
  | Current stacksize for task 41: unlimited
  | Current stacksize for task 42: unlimited
  | Current stacksize for task 43: unlimited
  | Current stacksize for task 44: unlimited
  | Current stacksize for task 45: unlimited
  | Current stacksize for task 46: unlimited
  | Current stacksize for task 47: unlimited
  | Current stacksize for task 48: unlimited
  | Current stacksize for task 49: unlimited
  | Current stacksize for task 50: unlimited
  | Current stacksize for task 51: unlimited
  | Current stacksize for task 52: unlimited
  | Current stacksize for task 53: unlimited
  | Current stacksize for task 54: unlimited
  | Current stacksize for task 55: unlimited
  | Current stacksize for task 56: unlimited
  | Current stacksize for task 57: unlimited
  | Current stacksize for task 58: unlimited
  | Current stacksize for task 59: unlimited
  | Current stacksize for task 60: unlimited
  | Current stacksize for task 61: unlimited
  | Current stacksize for task 62: unlimited
  | Current stacksize for task 63: unlimited

  Consistency checks for the contents of control.in are next.

  MPI_IN_PLACE appears to work with this MPI implementation.
  | Keeping use_mpi_in_place .true. (see manual).
  Target number of points in a grid batch is not set. Defaulting to  100
  Method for grid partitioning is not set. Defaulting to parallel hash+maxmin partitioning.
  Batch size limit is not set. Defaulting to    200
  By default, will store active basis functions for each batch.
  If in need of memory, prune_basis_once .false. can be used to disable this option.
  communication_type for Hartree potential was not specified.
  Defaulting to calc_hartree .
  Defaulting to Pulay charge density mixer.
  Pulay mixer: Number of initial linear mixing iterations not set.
  Defaulting to    0 iterations.
  Work space size for distributed Hartree potential not set.
  Defaulting to   0.200000E+03 MB.
  Algorithm-dependent basis array size parameters:
  | n_max_pulay                         :        8
  Maximum number of self-consistency iterations not provided.
  Presetting  1000 iterations.
  Presetting      1001 iterations before the initial mixing cycle
  is restarted anyway using the sc_init_iter criterion / keyword.
  Presetting a factor      1.000 between actual scf density residual
  and density convergence criterion sc_accuracy_rho below which sc_init_iter
  takes no effect.
  Calculation of forces was not defined in control.in. No forces will be calculated.
  Geometry relaxation not requested: no relaxation will be performed.
  No accuracy limit for integral partition fn. given. Defaulting to  0.1000E-14.
  No threshold value for u(r) in integrations given. Defaulting to  0.1000E-05.
  No threshold value for occupation numbers given. Defaulting to  0.0000E+00.
  No accuracy for fermi level given. Defaulting to  0.1000E-19.
  Preferred method for the eigenvalue solver ('KS_method') not specified in 'control.in'.
  Calling BLACS routine to test compilation state
  Since ScaLAPACK support is enabled, defaulting to ELPA (via ELSI).
  Threshold for basis singularities not set.
  Default threshold for basis singularities:  0.1000E-04
  partition_type (choice of integration weights) for integrals was not specified.
  | Using a version of the partition function of Stratmann and coworkers ('stratmann_sparse').
  | At each grid point, the set of atoms used to build the partition table is smoothly restricted to
  | only those atoms whose free-atom density would be non-zero at that grid point.
  Partitioning for Hartree potential was not defined. Using partition_type for integrals.
  | Adjusted default value of keyword multip_moments_threshold to:       0.10000000E-11
  | This value may affect high angular momentum components of the Hartree potential in periodic systems.
  No q(lm)/r^(l+1) cutoff set for long-range Hartree potential.
  | Using default value of  0.100000E-09 .
  | Verify using the multipole_threshold keyword.
  Defaulting to new monopole extrapolation.
  Density update method: automatic selection selected.
  Charge integration errors on the 3D integration grid will be compensated
  by explicit normalization and distribution of residual charges.
  Use the "compensate_multipole_errors" flag to change this behaviour.
  Set 'collect_eigenvectors' to be '.true.' for use_density_matrix .false.
  Found potential conflicts with setting 'use_local_index' for this calculation. Will not set it.
** WARNING:

  You have specified the use of LibXC.

  ** PLEASE ** be careful using LibXC. Whilst most of the LDA, GGA and MGGA
  functionals, and hybrid variations therein, should be stable (though we
  always recommend testing!), there are several fancy functionals with e.g.
  range-separation, like HSE03/HSE06/LC-PBEh, and also MGGA functionals
  that depend on the laplacian of the density, like BR89, that are not
  fully implemented due to the infrastructure for these functionals being
  incomplete or non-generic.
  If you want to use these functionals please contact the development team
  and we will work on them with you!

** END OF WARNING

  Consistency checks for the contents of geometry.in are next.

  Number of empty states per atom not set in control.in - providing a guess from actual geometry.
  | Total number of empty states used during s.c.f. cycle:        6
  If you use a very high smearing, use empty_states (per atom!) in control.in to increase this value.

  Structure-dependent array size parameters: 
  | Maximum number of distinct radial functions  :       18
  | Maximum number of basis functions            :       64
  | Number of Kohn-Sham states (occupied + empty):       16
------------------------------------------------------------
  After read_input_data [GB]:   1035.21

  Performing system and environment tests:
  | Environment variable OMP_NUM_THREADS correctly set to 1.
  | Checking for ScaLAPACK...
  | Testing pdtran()...
  *** WARNING: CPU mismatch detected for Node worker6172 : Intel(R) Xeon(R) Platinum 8362 CPU @ 2.80GHz                                                 
  | All pdtran() tests passed.
  | Testing CPU compatibility for run-time vs. build-time.
  | Reading /proc/cpuinfo for CPU information ...
  | Built for  : Intel(R) Xeon(R) w5-3435X
  *** WARNING: CPU mismatch detected for Node worker6171 : Intel(R) Xeon(R) Platinum 8362 CPU @ 2.80GHz                                                 
** WARNING:
  | WARNING: This FHI-aims executable was built on a different
  CPU type than the CPUs used in this run.

  | Running on different hardware than that on which a code was compiled
  | can produce incorrect results (wrong numbers) due to architecture-specific
  | optimizations made by the compiler. Those wrong numbers may occur only spuriously.
  | They are therefore very difficult to rule out even by tests ahead of time.

** END OF WARNING
  | Running on : Intel(R) Xeon(R) Platinum 8362 CPU @ 2.80GHz
  | Runtime CPU compatibility verified.
  
  After prepare_system [GB]:   1035.19

------------------------------------------------------------
          Preparing all fixed parts of the calculation.
------------------------------------------------------------
  Determining machine precision:
     2.2250738585072014E-308
  Setting up grids for atomic and cluster calculations.

  Creating wave function, potential, and density for free atoms.
  Runtime choices for atomic solver:
  | atomic solver xc        : PBE
  | compute density gradient: 1
  | compute kinetic density : T

  Species: B

  List of occupied orbitals and eigenvalues:
    n    l              occ      energy [Ha]    energy [eV]
    1    0           2.0000        -6.635780      -180.5688
    2    0           2.0000        -0.345517        -9.4020
    2    1           1.0000        -0.130792        -3.5590


  Species: P

  List of occupied orbitals and eigenvalues:
    n    l              occ      energy [Ha]    energy [eV]
    1    0           2.0000       -76.790257     -2089.5692
    2    0           2.0000        -6.393895      -173.9867
    3    0           2.0000        -0.512112       -13.9353
    2    1           6.0000        -4.574086      -124.4672
    3    1           3.0000        -0.201148        -5.4735


  Adding cutoff potential to free-atom effective potential.
  Creating fixed part of basis set: Ionic, confined, hydrogenic.

  B                    hydrogenic:

  List of hydrogenic basis orbitals: 
    n    l      effective z      eigenvalue [eV]  inner max. [A]     outer max. [A]     outer radius [A]   
    2    1         1.400000        -6.6027           1.494848           1.494848           5.462314
    3    2         4.800000       -34.8303           0.986467           0.986467           4.893206
    2    0         4.000000       -54.4226           0.101523           0.692014           3.878983
    4    3         7.800000       -51.7355           1.087819           1.087819           4.716999

  List of extra hydrogenic orbitals for auxiliary basis: 
    n    l      effective z      eigenvalue [eV]  inner max. [A]     outer max. [A]     outer radius [A]   
    5    4        11.200000       -68.2678           1.185008           1.185008           4.659684


  P                    ion:
  Runtime choices for ionic solver:
  | ionic solver xc        : PBE

  List of free ionic orbitals and eigenvalues:
    n    l      energy [Ha]    energy [eV]
    1    0       -77.734373     -2115.2599
    2    0        -7.310959      -198.9413
    3    0        -1.271460       -34.5982
    2    1        -5.492730      -149.4648
    3    1        -0.913468       -24.8567


  List of ionic basis orbitals and eigenvalues:
    n    l      energy [Ha]    energy [eV]    outer radius [A]
    3    2        -0.457450       -12.4478       5.404780
    3    1        -0.913460       -24.8565       4.724723
    3    0        -1.271453       -34.5980       4.232463


  P                    hydrogenic:

  List of hydrogenic basis orbitals: 
    n    l      effective z      eigenvalue [eV]  inner max. [A]     outer max. [A]     outer radius [A]   
    4    3         6.200000       -32.6870           1.357793           1.357793           5.339109

  List of extra hydrogenic orbitals for auxiliary basis: 
    n    l      effective z      eigenvalue [eV]  inner max. [A]     outer max. [A]     outer radius [A]   
    5    4         8.600000       -40.2502           1.534356           1.534356           5.404780

  Creating atomic-like basis functions for current effective potential.

  Species B                   :

  List of atomic basis orbitals and eigenvalues:
    n    l      energy [Ha]    energy [eV]    outer radius [A]
    1    0        -6.635780      -180.5688       2.349843
    2    0        -0.345517        -9.4020       5.330380
    2    1        -0.130792        -3.5590       5.395944


  Species P                   :

  List of atomic basis orbitals and eigenvalues:
    n    l      energy [Ha]    energy [eV]    outer radius [A]
    1    0       -76.790257     -2089.5692       0.727884
    2    0        -6.393895      -173.9867       2.532824
    3    0        -0.512112       -13.9353       5.274236
    2    1        -4.574086      -124.4672       2.862183
    3    1        -0.201148        -5.4735       5.404780

  Assembling full basis from fixed parts.
  | Species B :   atomic orbital   1 s accepted.
  | Species B :    hydro orbital   2 s accepted.
  | Species B :   atomic orbital   2 s accepted.
  | Species B :   atomic orbital   2 p accepted.
  | Species B :    hydro orbital   2 p accepted.
  | Species B :    hydro orbital   3 d accepted.
  | Species B :    hydro orbital   4 f accepted.
  | Species P :   atomic orbital   1 s accepted.
  | Species P :   atomic orbital   2 s accepted.
  | Species P :    ionic orbital   3 s accepted.
  | Species P :   atomic orbital   3 s accepted.
  | Species P :   atomic orbital   2 p accepted.
  | Species P :    ionic orbital   3 p accepted.
  | Species P :   atomic orbital   3 p accepted.
  | Species P :    ionic orbital   3 d accepted.
  | Species P :    hydro orbital   4 f accepted.

  Basis size parameters after reduction:
  | Total number of radial functions:       16
  | Total number of basis functions :       46

  Assembling extended basis for auxiliary basis.
  | Species B :   atomic orbital   1 s accepted.
  | Species B :    hydro orbital   2 s accepted.
  | Species B :   atomic orbital   2 s accepted.
  | Species B :   atomic orbital   2 p accepted.
  | Species B :    hydro orbital   2 p accepted.
  | Species B :    hydro orbital   3 d accepted.
  | Species B :    hydro orbital   4 f accepted.
  | Species B :    hydro orbital   5 g accepted.
  | Species P :   atomic orbital   1 s accepted.
  | Species P :   atomic orbital   2 s accepted.
  | Species P :    ionic orbital   3 s accepted.
  | Species P :   atomic orbital   3 s accepted.
  | Species P :   atomic orbital   2 p accepted.
  | Species P :    ionic orbital   3 p accepted.
  | Species P :   atomic orbital   3 p accepted.
  | Species P :    ionic orbital   3 d accepted.
  | Species P :    hydro orbital   4 f accepted.
  | Species P :    hydro orbital   5 g accepted.
  Per-task memory consumption for arrays in subroutine allocate_ext:
  |           6.232600MB.

  Extended basis size parameters after reduction:
  | Total number of radial functions:       18
  | Total number of basis functions :       64

  Testing on-site integration grid accuracy.
  |  Species  Function  <phi|h_atom|phi> (log., in eV)  <phi|h_atom|phi> (rad., in eV)
           1        1               -180.5687569307               -180.5687561212
           1        2                 -7.1438314513                 -7.1438317353
           1        3                 12.0187568333                 12.0189574632
           1        4                 -3.5612258789                 -3.5609079337
           1        5                  5.9635381578                  5.9675020528
           1        6                 17.1402149446                 17.1402132576
           1        7                 37.0814692226                 37.0814713082
           2        8              -2089.5691986335              -2089.5691596863
           2        9               -173.9867283695               -173.9867277557
           2       10                -13.6361081844                -13.6361080848
           2       11                  6.3196202277                  6.3196248730
           2       12               -124.4672117337               -124.4672115736
           2       13                 -4.8326310060                 -4.8326301332
           2       14                  5.8128667531                  5.8123810283
           2       15                  5.1351171633                  5.1350933795
           2       16                 19.3185135835                 19.3185098349

  Preparing densities etc. for the partition functions (integrals / Hartree potential).

  Preparations completed.
  max(cpu_time)          :      0.167 s.
  Wall clock time (cpu1) :      0.605 s.
------------------------------------------------------------
  After prepare_scf [GB]:   1034.48

  Initializing index lists of integration centers etc. from given atomic structure:
  | Number of centers in hartree potential                       :         2
  | Number of centers in hartree multipole                       :         2
  | Number of centers in electron density summation              :         2
  | Number of centers in basis integrals                         :         2
  | Number of centers in integrals                               :         2
  | Number of centers in hamiltonian                             :         2
  | Number of centers in partition table from touching 0-cell    :         2
  | Number of centers in partition table total                   :         2
  After initialize_bc_dependent_lists [GB]:   1034.48

------------------------------------------------------------
          Begin self-consistency loop: Initialization.

          Date     :  20260724, Time     :  152911.677
------------------------------------------------------------
  Available memory per node after initialize_hartree_non_periodic_ewald [GB]:   1034.48
  Available memory per node after initialize_recip_hartree_potential [GB]:   1034.48
  * Using 64 tasks for Scalapack Eigenvalue solver.
  Detailed listing of tasks and assigned k-points:
  (for non-periodic systems, the "k-point" denotes an internal label only)
   Task     0 k-point     1 on worker6171
   Task     1 k-point     1 on worker6171
   Task     2 k-point     1 on worker6171
   Task     3 k-point     1 on worker6171
   Task     4 k-point     1 on worker6171
   Task     5 k-point     1 on worker6171
   Task     6 k-point     1 on worker6171
   Task     7 k-point     1 on worker6171
   Task     8 k-point     1 on worker6171
   Task     9 k-point     1 on worker6171
   Task    10 k-point     1 on worker6171
   Task    11 k-point     1 on worker6171
   Task    12 k-point     1 on worker6171
   Task    13 k-point     1 on worker6171
   Task    14 k-point     1 on worker6171
   Task    15 k-point     1 on worker6171
   Task    16 k-point     1 on worker6171
   Task    17 k-point     1 on worker6171
   Task    18 k-point     1 on worker6171
   Task    19 k-point     1 on worker6171
   Task    20 k-point     1 on worker6171
   Task    21 k-point     1 on worker6171
   Task    22 k-point     1 on worker6171
   Task    23 k-point     1 on worker6171
   Task    24 k-point     1 on worker6171
   Task    25 k-point     1 on worker6171
   Task    26 k-point     1 on worker6171
   Task    27 k-point     1 on worker6171
   Task    28 k-point     1 on worker6171
   Task    29 k-point     1 on worker6171
   Task    30 k-point     1 on worker6171
   Task    31 k-point     1 on worker6171
   Task    32 k-point     1 on worker6172
   Task    33 k-point     1 on worker6172
   Task    34 k-point     1 on worker6172
   Task    35 k-point     1 on worker6172
   Task    36 k-point     1 on worker6172
   Task    37 k-point     1 on worker6172
   Task    38 k-point     1 on worker6172
   Task    39 k-point     1 on worker6172
   Task    40 k-point     1 on worker6172
   Task    41 k-point     1 on worker6172
   Task    42 k-point     1 on worker6172
   Task    43 k-point     1 on worker6172
   Task    44 k-point     1 on worker6172
   Task    45 k-point     1 on worker6172
   Task    46 k-point     1 on worker6172
   Task    47 k-point     1 on worker6172
   Task    48 k-point     1 on worker6172
   Task    49 k-point     1 on worker6172
   Task    50 k-point     1 on worker6172
   Task    51 k-point     1 on worker6172
   Task    52 k-point     1 on worker6172
   Task    53 k-point     1 on worker6172
   Task    54 k-point     1 on worker6172
   Task    55 k-point     1 on worker6172
   Task    56 k-point     1 on worker6172
   Task    57 k-point     1 on worker6172
   Task    58 k-point     1 on worker6172
   Task    59 k-point     1 on worker6172
   Task    60 k-point     1 on worker6172
   Task    61 k-point     1 on worker6172
   Task    62 k-point     1 on worker6172
   Task    63 k-point     1 on worker6172
  Tasks:    64 split into      8 X      8 BLACS grid
  Calculating block size based on n_basis =           46  max_nprow =            8  max_npcol =            8
  ScaLAPACK block size set to:            4
  Allocating        0.000 MB for ovlp
  Allocating        0.000 MB for ham
  Allocating        0.000 MB for eigenvec
  Required Scalapack workspace - INTEGER:            1  REAL:             1
  Available memory per node after initialize_scalapack [GB]:   1034.48
  Available memory per node after aims_elsi_init_scf [GB]:   1034.48
  Available memory per node after initialize_fixed_grids [GB]:   1034.48
  Partitioning the integration grid into batches with parallel hashing+maxmin method.
  | Number of batches:      576
  | Maximal batch size:     156
  | Minimal batch size:       1
  | Average batch size:      67.611
  | Standard deviation of batch sizes:      16.506

  Integration load balanced across    64 MPI tasks.
  Work distribution over tasks is as follows:
  Task     0 has        581 integration points.
  Task     1 has        587 integration points.
  Task     2 has        578 integration points.
  Task     3 has        613 integration points.
  Task     4 has        579 integration points.
  Task     5 has        608 integration points.
  Task     6 has        585 integration points.
  Task     7 has        579 integration points.
  Task     8 has        574 integration points.
  Task     9 has        573 integration points.
  Task    10 has        622 integration points.
  Task    11 has        583 integration points.
  Task    12 has        621 integration points.
  Task    13 has        575 integration points.
  Task    14 has        573 integration points.
  Task    15 has        624 integration points.
  Task    16 has        574 integration points.
  Task    17 has        693 integration points.
  Task    18 has        671 integration points.
  Task    19 has        576 integration points.
  Task    20 has        582 integration points.
  Task    21 has        576 integration points.
  Task    22 has        588 integration points.
  Task    23 has        575 integration points.
  Task    24 has        586 integration points.
  Task    25 has        624 integration points.
  Task    26 has        681 integration points.
  Task    27 has        590 integration points.
  Task    28 has        615 integration points.
  Task    29 has        619 integration points.
  Task    30 has        621 integration points.
  Task    31 has        587 integration points.
  Task    32 has        626 integration points.
  Task    33 has        622 integration points.
  Task    34 has        623 integration points.
  Task    35 has        617 integration points.
  Task    36 has        578 integration points.
  Task    37 has        616 integration points.
  Task    38 has        625 integration points.
  Task    39 has        585 integration points.
  Task    40 has        617 integration points.
  Task    41 has        621 integration points.
  Task    42 has        624 integration points.
  Task    43 has        637 integration points.
  Task    44 has        683 integration points.
  Task    45 has        585 integration points.
  Task    46 has        586 integration points.
  Task    47 has        608 integration points.
  Task    48 has        578 integration points.
  Task    49 has        619 integration points.
  Task    50 has        623 integration points.
  Task    51 has        610 integration points.
  Task    52 has        614 integration points.
  Task    53 has        582 integration points.
  Task    54 has        627 integration points.
  Task    55 has        639 integration points.
  Task    56 has        724 integration points.
  Task    57 has        691 integration points.
  Task    58 has        572 integration points.
  Task    59 has        618 integration points.
  Task    60 has        616 integration points.
  Task    61 has        595 integration points.
  Task    62 has        586 integration points.
  Task    63 has        584 integration points.
  Available memory per node after partition_grid [GB]:   1034.13
  Initializing partition tables, free-atom densities, potentials, etc. across the integration grid (initialize_grid_storage).
  | initialize_grid_storage: Actual outermost partition radius vs. multipole_radius_free
  | (-- VB: in principle, multipole_radius_free should be larger, hence this output)
  | Species        1: Confinement radius =              6.000000000000000 AA, multipole_radius_free =              6.023523403561800 AA.
  | Species        1: outer_partition_radius set to              6.023523403561800 AA .
  | Species        2: Confinement radius =              6.000000000000000 AA, multipole_radius_free =              6.033387558927091 AA.
  | Species        2: outer_partition_radius set to              6.033387558927091 AA .
  | The sparse table of interatomic distances needs          0.04 kbyte instead of         0.03 kbyte of memory.
  | Using the partition_type stratmann_smoother will reduce your memory usage.
  | Net number of integration points:    38944
  | of which are non-zero points    :    37589
  Available memory per node after initialize_grid_storage_p1 [GB]:   1034.13
  Renormalizing the initial density to the exact electron count on the 3D integration grid.
  | Initial density: Formal number of electrons (from input files) :      20.0000000000
  | Integrated number of electrons on 3D grid     :      20.0000007438
  | Charge integration error                      :       0.0000007438
  | Normalization factor for density and gradient :       0.9999999628
  Renormalizing the free-atom superposition density to the exact electron count on the 3D integration grid.
  | Formal number of electrons (from input files) :      20.0000000000
  | Integrated number of electrons on 3D grid     :      20.0000007438
  | Charge integration error                      :       0.0000007438
  | Normalization factor for density and gradient :       0.9999999628
  Obtaining max. number of non-zero basis functions in each batch (get_n_compute_maxes).
  | Maximal number of non-zero basis functions:       45 in task     0
  | Maximal number of non-zero basis functions:       46 in task     1
  | Maximal number of non-zero basis functions:       46 in task     2
  | Maximal number of non-zero basis functions:       45 in task     3
  | Maximal number of non-zero basis functions:       46 in task     4
  | Maximal number of non-zero basis functions:       45 in task     5
  | Maximal number of non-zero basis functions:       46 in task     6
  | Maximal number of non-zero basis functions:       46 in task     7
  | Maximal number of non-zero basis functions:       46 in task     8
  | Maximal number of non-zero basis functions:       46 in task     9
  | Maximal number of non-zero basis functions:       45 in task    10
  | Maximal number of non-zero basis functions:       46 in task    11
  | Maximal number of non-zero basis functions:       46 in task    12
  | Maximal number of non-zero basis functions:       46 in task    13
  | Maximal number of non-zero basis functions:       46 in task    14
  | Maximal number of non-zero basis functions:       46 in task    15
  | Maximal number of non-zero basis functions:       46 in task    16
  | Maximal number of non-zero basis functions:       46 in task    17
  | Maximal number of non-zero basis functions:       46 in task    18
  | Maximal number of non-zero basis functions:       46 in task    19
  | Maximal number of non-zero basis functions:       45 in task    20
  | Maximal number of non-zero basis functions:       46 in task    21
  | Maximal number of non-zero basis functions:       46 in task    22
  | Maximal number of non-zero basis functions:       46 in task    23
  | Maximal number of non-zero basis functions:       45 in task    24
  | Maximal number of non-zero basis functions:       46 in task    25
  | Maximal number of non-zero basis functions:       45 in task    26
  | Maximal number of non-zero basis functions:       46 in task    27
  | Maximal number of non-zero basis functions:       45 in task    28
  | Maximal number of non-zero basis functions:       45 in task    29
  | Maximal number of non-zero basis functions:       45 in task    30
  | Maximal number of non-zero basis functions:       46 in task    31
  | Maximal number of non-zero basis functions:       46 in task    32
  | Maximal number of non-zero basis functions:       46 in task    33
  | Maximal number of non-zero basis functions:       46 in task    34
  | Maximal number of non-zero basis functions:       45 in task    35
  | Maximal number of non-zero basis functions:       46 in task    36
  | Maximal number of non-zero basis functions:       45 in task    37
  | Maximal number of non-zero basis functions:       46 in task    38
  | Maximal number of non-zero basis functions:       46 in task    39
  | Maximal number of non-zero basis functions:       45 in task    40
  | Maximal number of non-zero basis functions:       45 in task    41
  | Maximal number of non-zero basis functions:       45 in task    42
  | Maximal number of non-zero basis functions:       46 in task    43
  | Maximal number of non-zero basis functions:       46 in task    44
  | Maximal number of non-zero basis functions:       45 in task    45
  | Maximal number of non-zero basis functions:       46 in task    46
  | Maximal number of non-zero basis functions:       45 in task    47
  | Maximal number of non-zero basis functions:       45 in task    48
  | Maximal number of non-zero basis functions:       45 in task    49
  | Maximal number of non-zero basis functions:       45 in task    50
  | Maximal number of non-zero basis functions:       46 in task    51
  | Maximal number of non-zero basis functions:       45 in task    52
  | Maximal number of non-zero basis functions:       45 in task    53
  | Maximal number of non-zero basis functions:       46 in task    54
  | Maximal number of non-zero basis functions:       46 in task    55
  | Maximal number of non-zero basis functions:       46 in task    56
  | Maximal number of non-zero basis functions:       46 in task    57
  | Maximal number of non-zero basis functions:       46 in task    58
  | Maximal number of non-zero basis functions:       46 in task    59
  | Maximal number of non-zero basis functions:       45 in task    60
  | Maximal number of non-zero basis functions:       45 in task    61
  | Maximal number of non-zero basis functions:       45 in task    62
  | Maximal number of non-zero basis functions:       46 in task    63
  Selecting the method for density update.
  Loop over occupied states selected for charge density update.
  Available memory per node after get_n_compute_maxes_p1 [GB]:   1034.13
  Allocating        0.006 MB for KS_eigenvector
  Available memory per node after allocate_matrices [GB]:   1034.13
  Available memory per node after init_comm_sparse_local_matrix_scalapack [GB]:   1034.13
  Integrating Hamiltonian matrix: batch-based integration.
  Time summed over all CPUs for integration: real work        0.111 s, elapsed        0.336 s => Consider using load balancing!
  Available memory per node after integrate hamiltonian matrix [GB]:   1034.13
  Integrating overlap matrix.
  Time summed over all CPUs for integration: real work        0.031 s, elapsed        0.156 s
  Available memory per node after integrate ovlp matrix [GB]:   1034.13
  Deallocating overlap matrix.
  Available memory per node after save_overlap_scalapack [GB]:   1034.13

  Updating Kohn-Sham eigenvalues and eigenvectors using ELSI and the ELPA eigensolver.
  Overlap matrix is not singular
  | Lowest and highest eigenvalues :  0.1707E-01,  0.1983E+01
  Finished singularity check of overlap matrix
  | Time :     0.164 s
  Starting ELPA eigensolver
  Finished Cholesky decomposition
  | Time :     0.003 s
  Finished transformation to standard eigenproblem
  | Time :     0.000 s
  Finished solving standard eigenproblem
  | Time :     0.036 s
  Finished back-transformation of eigenvectors
  | Time :     0.000 s

  Obtaining occupation numbers and electronic chemical potential using ELSI.
  | Note that, for insulating systems, the printed 'chemical potential' value is not uniquely defined.
  | It can be anywhere in the energy gap, as long as it correctly separates occupied and unoccupied states.
  | In systems with a gap, the physically relevant chemical potential is the VBM or HOMO.

  | Chemical potential (Fermi level):    -6.48485354 eV
  Available memory per node after advance_KS_solution [GB]:   1034.13
  Writing Kohn-Sham eigenvalues.

  State    Occupation    Eigenvalue [Ha]    Eigenvalue [eV]
      1       2.00000         -76.461749        -2080.63004
      2       2.00000          -6.557405         -178.43608
      3       2.00000          -6.363960         -173.17217
      4       2.00000          -4.576438         -124.53121
      5       2.00000          -4.574715         -124.48433
      6       2.00000          -4.574715         -124.48433
      7       2.00000          -0.578101          -15.73092
      8       2.00000          -0.370503          -10.08189
      9       2.00000          -0.244318           -6.64824
     10       2.00000          -0.244318           -6.64824
     11       0.00000          -0.232310           -6.32146
     12       0.00000          -0.120672           -3.28364
     13       0.00000          -0.120672           -3.28364
     14       0.00000           0.002179            0.05930
     15       0.00000           0.127556            3.47097
     16       0.00000           0.167059            4.54590

  Highest occupied state (VBM) at     -6.64824311 eV
  | Occupation number:      2.00000000

  Lowest unoccupied state (CBM) at    -6.32146397 eV
  | Occupation number:      0.00000000

  Overall HOMO-LUMO gap:      0.32677913 eV.
  Calculating total energy contributions from superposition of free atom densities.

  Total energy components:
  | Sum of eigenvalues            :        -209.09244365 Ha       -5689.69488033 eV
  | XC energy correction          :         -25.54293111 Ha        -695.05851980 eV
  | XC potential correction       :          33.73670077 Ha         918.02233654 eV
  | Free-atom electrostatic energy:        -164.89547461 Ha       -4487.03416180 eV
  | Hartree energy correction     :          -0.00000000 Ha          -0.00000000 eV
  | Entropy correction            :          -0.00000000 Ha          -0.00000000 eV
  | ---------------------------
  | Total energy                  :        -365.79414860 Ha       -9953.76522538 eV
  | Total energy, T -> 0          :        -365.79414860 Ha       -9953.76522538 eV  <-- do not rely on this value for anything but (periodic) metals
  | Electronic free energy        :        -365.79414860 Ha       -9953.76522538 eV

  Derived energy quantities:
  | Kinetic energy                :         367.97029808 Ha       10012.98126552 eV
  | Electrostatic energy          :        -708.22151556 Ha      -19271.68797110 eV
  | Energy correction for multipole
  | error in Hartree potential    :           0.00000000 Ha           0.00000000 eV
  | Sum of eigenvalues per atom                           :       -2844.84744016 eV
  | Total energy (T->0) per atom                          :       -4976.88261269 eV  <-- do not rely on this value for anything but (periodic) metals
  | Electronic free energy per atom                       :       -4976.88261269 eV
  Initialize hartree_potential_storage
  Max. number of atoms included in rho_multipole:            2

  End scf initialization - timings             :  max(cpu_time)    wall_clock(cpu1)
  | Time for scf. initialization                :        0.211 s           0.242 s
  | Boundary condition initialization           :        0.002 s           0.001 s
  | Integration                                 :        0.011 s           0.012 s
  | Solution of K.-S. eqns.                     :        0.178 s           0.208 s
  | Grid partitioning                           :        0.014 s           0.014 s
  | Preloading free-atom quantities on grid     :        0.005 s           0.004 s
  | Free-atom superposition energy              :        0.001 s           0.001 s
  | Total energy evaluation                     :        0.000 s           0.001 s

  Partial memory accounting:
  | Current value for overall tracked memory usage:
  |   Minimum:        0.015 MB (on task 36)
  |   Maximum:        0.016 MB (on task  0)
  |   Average:        0.015 MB
  | Peak value for overall tracked memory usage:
  |   Minimum:        0.521 MB (on task 37 after allocating wave)
  |   Maximum:        0.534 MB (on task  1 after allocating wave)
  |   Average:        0.529 MB
  | Largest tracked array allocation so far:
  |   Minimum:        0.161 MB (gradient_basis_wave_store on task  0)
  |   Maximum:        0.164 MB (gradient_basis_wave_store on task  1)
  |   Average:        0.163 MB
  Note:  These values currently only include a subset of arrays which are explicitly tracked.
  The "true" memory usage will be greater.
------------------------------------------------------------
  Available memory after initialize_scf [GB]:   1034.11
  Available memory after allocating mixing [GB]:   1034.11
  Evaluating new KS density.
  Integration grid: deviation in total charge (<rho> - N_e) =   3.552714E-15

  Time for density update prior                :  max(cpu_time)    wall_clock(cpu1)
  | self-consistency iterative process          :        0.001 s           0.001 s
  Available memory before start of SCF loop [GB]:   1034.11

------------------------------------------------------------
          Begin self-consistency iteration #    1

  Date     :  20260724, Time     :  152911.920
------------------------------------------------------------
  Pulay mixing of updated and previous charge densities.
  Available memory per node after mixing [GB]:   1034.11
  Renormalizing the density to the exact electron count on the 3D integration grid.
  | Formal number of electrons (from input files) :      20.0000000000
  | Integrated number of electrons on 3D grid     :      20.0000000000
  | Charge integration error                      :       0.0000000000
  | Normalization factor for density and gradient :       1.0000000000

  Evaluating partitioned Hartree potential by multipole expansion.
  | Original multipole sum: apparent total charge =   0.653070E-14
  | Sum of charges compensated after spline to logarithmic grids =   0.459848E-07
  | Analytical far-field extrapolation by fixed multipoles:
  | Hartree multipole sum: apparent total charge =   0.648150E-14
  Summing up the Hartree potential.
  Time summed over all CPUs for potential: real work        0.002 s, elapsed        0.002 s
  | RMS charge density error from multipole expansion :   0.131400E-03

  Integrating Hamiltonian matrix: batch-based integration.
  Time summed over all CPUs for integration: real work        0.110 s, elapsed        0.126 s

  Updating Kohn-Sham eigenvalues and eigenvectors using ELSI and the ELPA eigensolver.
  Starting ELPA eigensolver
  Finished transformation to standard eigenproblem
  | Time :     0.001 s
  Finished solving standard eigenproblem
  | Time :     0.001 s
  Finished back-transformation of eigenvectors
  | Time :     0.000 s

  Obtaining occupation numbers and electronic chemical potential using ELSI.
  | Note that, for insulating systems, the printed 'chemical potential' value is not uniquely defined.
  | It can be anywhere in the energy gap, as long as it correctly separates occupied and unoccupied states.
  | In systems with a gap, the physically relevant chemical potential is the VBM or HOMO.

  | Chemical potential (Fermi level):    -6.42764815 eV
  Writing Kohn-Sham eigenvalues.

  State    Occupation    Eigenvalue [Ha]    Eigenvalue [eV]
      1       2.00000         -77.238911        -2101.77770
      2       2.00000          -6.782344         -184.55696
      3       2.00000          -6.547399         -178.16378
      4       2.00000          -4.656467         -126.70891
      5       2.00000          -4.654062         -126.64347
      6       2.00000          -4.654062         -126.64347
      7       2.00000          -0.585125          -15.92205
      8       2.00000          -0.380714          -10.35976
      9       1.77436          -0.236527           -6.43622
     10       1.77436          -0.236527           -6.43622
     11       0.45128          -0.236016           -6.42232
     12       0.00000          -0.110179           -2.99812
     13       0.00000          -0.110179           -2.99812
     14       0.00000           0.028776            0.78304
     15       0.00000           0.165797            4.51155
     16       0.00000           0.205112            5.58138

  Highest occupied state (VBM) at     -6.43621592 eV
  | Occupation number:      1.77435954

  Lowest unoccupied state (CBM) at    -6.42232165 eV
  | Occupation number:      0.45128092

  This system has fractional occupation numbers. Thus, it is a degenerate system
  within the approximate finite broadening function (occupation_type)
  applied to determine the occupation numbers.
  This may not be harmful. However, for some systems (free atoms), a different, non-degenerate
  ground state might exist by using a smaller broadening (see keyword occupation_type).
  Overall HOMO-LUMO gap:      0.00000000 eV.

  Total energy components:
  | Sum of eigenvalues            :        -211.94404245 Ha       -5767.29083153 eV
  | XC energy correction          :         -27.03757198 Ha        -735.72976718 eV
  | XC potential correction       :          36.82423822 Ha        1002.03850504 eV
  | Free-atom electrostatic energy:        -164.89547461 Ha       -4487.03416180 eV
  | Hartree energy correction     :          -0.21861659 Ha          -5.94886010 eV
  | Entropy correction            :          -0.00017757 Ha          -0.00483196 eV
  | ---------------------------
  | Total energy                  :        -367.27146741 Ha       -9993.96511556 eV
  | Total energy, T -> 0          :        -367.27164498 Ha       -9993.96994753 eV  <-- do not rely on this value for anything but (periodic) metals
  | Electronic free energy        :        -367.27182255 Ha       -9993.97477949 eV

  Derived energy quantities:
  | Kinetic energy                :         367.97475741 Ha       10013.10261027 eV
  | Electrostatic energy          :        -708.20865284 Ha      -19271.33795866 eV
  | Energy correction for multipole
  | error in Hartree potential    :          -0.00012579 Ha          -0.00342296 eV
  | Sum of eigenvalues per atom                           :       -2883.64541577 eV
  | Total energy (T->0) per atom                          :       -4996.98497376 eV  <-- do not rely on this value for anything but (periodic) metals
  | Electronic free energy per atom                       :       -4996.98738975 eV
  Evaluating new KS density.
  Integration grid: deviation in total charge (<rho> - N_e) =  -4.413536E-11

  Self-consistency convergence accuracy:
  | Change of charge density      :  0.1540E+00
  | Change of unmixed KS density  :  0.2624E+02
  | Change of sum of eigenvalues  : -0.7760E+02 eV
  | Change of total energy        : -0.4020E+02 eV


------------------------------------------------------------
  End self-consistency iteration #     1       :  max(cpu_time)    wall_clock(cpu1)
  | Time for this iteration                     :        0.009 s           0.010 s
  | Charge density update                       :        0.001 s           0.001 s
  | Density mixing                              :        0.000 s           0.000 s
  | Hartree multipole update                    :        0.001 s           0.001 s
  | Hartree multipole summation                 :        0.002 s           0.002 s
  | Integration                                 :        0.002 s           0.002 s
  | Solution of K.-S. eqns.                     :        0.002 s           0.002 s
  | Total energy evaluation                     :        0.000 s           0.000 s

  Partial memory accounting:
  | Current value for overall tracked memory usage:
  |   Minimum:        0.412 MB (on task 58)
  |   Maximum:        0.518 MB (on task 56)
  |   Average:        0.438 MB
  | Peak value for overall tracked memory usage:
  |   Minimum:        0.915 MB (on task 48 after allocating wave)
  |   Maximum:        1.028 MB (on task 56 after allocating wave)
  |   Average:        0.943 MB
  | Largest tracked array allocation so far:
  |   Minimum:        0.161 MB (gradient_basis_wave_store on task  0)
  |   Maximum:        0.164 MB (gradient_basis_wave_store on task  1)
  |   Average:        0.163 MB
  Note:  These values currently only include a subset of arrays which are explicitly tracked.
  The "true" memory usage will be greater.
------------------------------------------------------------

------------------------------------------------------------
          Begin self-consistency iteration #    2

  Date     :  20260724, Time     :  152912.036
------------------------------------------------------------
  Pulay mixing of updated and previous charge densities.
  Available memory per node after mixing [GB]:   1034.06
  Renormalizing the density to the exact electron count on the 3D integration grid.
  | Formal number of electrons (from input files) :      20.0000000000
  | Integrated number of electrons on 3D grid     :      20.0000000000
  | Charge integration error                      :      -0.0000000000
  | Normalization factor for density and gradient :       1.0000000000

  Evaluating partitioned Hartree potential by multipole expansion.
  | Original multipole sum: apparent total charge =  -0.172799E-14
  | Sum of charges compensated after spline to logarithmic grids =   0.611459E-08
  | Analytical far-field extrapolation by fixed multipoles:
  | Hartree multipole sum: apparent total charge =  -0.159270E-14
  Summing up the Hartree potential.
  Time summed over all CPUs for potential: real work        0.001 s, elapsed        0.002 s
  | RMS charge density error from multipole expansion :   0.283433E-03

  Integrating Hamiltonian matrix: batch-based integration.
  Time summed over all CPUs for integration: real work        0.099 s, elapsed        0.116 s

  Updating Kohn-Sham eigenvalues and eigenvectors using ELSI and the ELPA eigensolver.
  Starting ELPA eigensolver
  Finished transformation to standard eigenproblem
  | Time :     0.001 s
  Finished solving standard eigenproblem
  | Time :     0.001 s
  Finished back-transformation of eigenvectors
  | Time :     0.000 s

  Obtaining occupation numbers and electronic chemical potential using ELSI.
  | Note that, for insulating systems, the printed 'chemical potential' value is not uniquely defined.
  | It can be anywhere in the energy gap, as long as it correctly separates occupied and unoccupied states.
  | In systems with a gap, the physically relevant chemical potential is the VBM or HOMO.

  | Chemical potential (Fermi level):    -6.33388001 eV
  Highest occupied state (VBM) at     -6.33388001 eV
  | Occupation number:      1.00000000

  Lowest unoccupied state (CBM) at    -6.33388001 eV
  | Occupation number:      1.00000000

  This system has fractional occupation numbers. Thus, it is a degenerate system
  within the approximate finite broadening function (occupation_type)
  applied to determine the occupation numbers.
  This may not be harmful. However, for some systems (free atoms), a different, non-degenerate
  ground state might exist by using a smaller broadening (see keyword occupation_type).
  Overall HOMO-LUMO gap:      0.00000000 eV.

  Checking to see if s.c.f. parameters should be adjusted.

  Total energy components:
  | Sum of eigenvalues            :        -211.88185488 Ha       -5765.59862170 eV
  | XC energy correction          :         -27.03902403 Ha        -735.76927946 eV
  | XC potential correction       :          36.82608182 Ha        1002.08867199 eV
  | Free-atom electrostatic energy:        -164.89547461 Ha       -4487.03416180 eV
  | Hartree energy correction     :          -0.28315240 Ha          -7.70496871 eV
  | Entropy correction            :          -0.00020734 Ha          -0.00564190 eV
  | ---------------------------
  | Total energy                  :        -367.27342409 Ha       -9994.01835966 eV
  | Total energy, T -> 0          :        -367.27363143 Ha       -9994.02400156 eV  <-- do not rely on this value for anything but (periodic) metals
  | Electronic free energy        :        -367.27383877 Ha       -9994.02964345 eV

  Derived energy quantities:
  | Kinetic energy                :         367.95906647 Ha       10012.67563784 eV
  | Electrostatic energy          :        -708.19346653 Ha      -19270.92471805 eV
  | Energy correction for multipole
  | error in Hartree potential    :          -0.00019776 Ha          -0.00538132 eV
  | Sum of eigenvalues per atom                           :       -2882.79931085 eV
  | Total energy (T->0) per atom                          :       -4997.01200078 eV  <-- do not rely on this value for anything but (periodic) metals
  | Electronic free energy per atom                       :       -4997.01482173 eV
  Evaluating new KS density.
  Integration grid: deviation in total charge (<rho> - N_e) =   2.523848E-11

  Self-consistency convergence accuracy:
  | Change of charge density      :  0.6502E-01
  | Change of unmixed KS density  :  0.8998E-01
  | Change of sum of eigenvalues  :  0.1692E+01 eV
  | Change of total energy        : -0.5324E-01 eV


------------------------------------------------------------
  End self-consistency iteration #     2       :  max(cpu_time)    wall_clock(cpu1)
  | Time for this iteration                     :        0.268 s           0.176 s
  | Charge density update                       :        0.001 s           0.001 s
  | Density mixing                              :        0.258 s           0.166 s
  | Hartree multipole update                    :        0.001 s           0.001 s
  | Hartree multipole summation                 :        0.003 s           0.003 s
  | Integration                                 :        0.002 s           0.002 s
  | Solution of K.-S. eqns.                     :        0.002 s           0.002 s
  | Total energy evaluation                     :        0.000 s           0.001 s

  Partial memory accounting:
  | Current value for overall tracked memory usage:
  |   Minimum:        0.413 MB (on task 58)
  |   Maximum:        0.518 MB (on task 56)
  |   Average:        0.438 MB
  | Peak value for overall tracked memory usage:
  |   Minimum:        0.915 MB (on task 48 after allocating wave)
  |   Maximum:        1.028 MB (on task 56 after allocating wave)
  |   Average:        0.944 MB
  | Largest tracked array allocation so far:
  |   Minimum:        0.161 MB (gradient_basis_wave_store on task  0)
  |   Maximum:        0.164 MB (gradient_basis_wave_store on task  1)
  |   Average:        0.163 MB
  Note:  These values currently only include a subset of arrays which are explicitly tracked.
  The "true" memory usage will be greater.
------------------------------------------------------------

------------------------------------------------------------
          Begin self-consistency iteration #    3

  Date     :  20260724, Time     :  152912.370
------------------------------------------------------------
  Pulay mixing of updated and previous charge densities.
  Available memory per node after mixing [GB]:   1034.05
  Renormalizing the density to the exact electron count on the 3D integration grid.
  | Formal number of electrons (from input files) :      20.0000000000
  | Integrated number of electrons on 3D grid     :      20.0000000000
  | Charge integration error                      :       0.0000000000
  | Normalization factor for density and gradient :       1.0000000000

  Evaluating partitioned Hartree potential by multipole expansion.
  | Original multipole sum: apparent total charge =   0.121144E-14
  | Sum of charges compensated after spline to logarithmic grids =   0.537623E-08
  | Analytical far-field extrapolation by fixed multipoles:
  | Hartree multipole sum: apparent total charge =   0.126063E-14
  Summing up the Hartree potential.
  Time summed over all CPUs for potential: real work        0.001 s, elapsed        0.001 s
  | RMS charge density error from multipole expansion :   0.280524E-03

  Integrating Hamiltonian matrix: batch-based integration.
  Time summed over all CPUs for integration: real work        0.101 s, elapsed        0.117 s

  Updating Kohn-Sham eigenvalues and eigenvectors using ELSI and the ELPA eigensolver.
  Starting ELPA eigensolver
  Finished transformation to standard eigenproblem
  | Time :     0.000 s
  Finished solving standard eigenproblem
  | Time :     0.040 s
  Finished back-transformation of eigenvectors
  | Time :     0.001 s

  Obtaining occupation numbers and electronic chemical potential using ELSI.
  | Note that, for insulating systems, the printed 'chemical potential' value is not uniquely defined.
  | It can be anywhere in the energy gap, as long as it correctly separates occupied and unoccupied states.
  | In systems with a gap, the physically relevant chemical potential is the VBM or HOMO.

  | Chemical potential (Fermi level):    -6.33970159 eV
  Highest occupied state (VBM) at     -6.40270175 eV
  | Occupation number:      2.00000000

  Lowest unoccupied state (CBM) at    -6.33970159 eV
  | Occupation number:      1.00000000

  This system has fractional occupation numbers. Thus, it is a degenerate system
  within the approximate finite broadening function (occupation_type)
  applied to determine the occupation numbers.
  This may not be harmful. However, for some systems (free atoms), a different, non-degenerate
  ground state might exist by using a smaller broadening (see keyword occupation_type).
  Overall HOMO-LUMO gap:      0.00000000 eV.

  Total energy components:
  | Sum of eigenvalues            :        -211.88692697 Ha       -5765.73664030 eV
  | XC energy correction          :         -27.03901516 Ha        -735.76903807 eV
  | XC potential correction       :          36.82607267 Ha        1002.08842310 eV
  | Free-atom electrostatic energy:        -164.89547461 Ha       -4487.03416180 eV
  | Hartree energy correction     :          -0.27749867 Ha          -7.55112307 eV
  | Entropy correction            :          -0.00020734 Ha          -0.00564190 eV
  | ---------------------------
  | Total energy                  :        -367.27284274 Ha       -9994.00254014 eV
  | Total energy, T -> 0          :        -367.27305007 Ha       -9994.00818204 eV  <-- do not rely on this value for anything but (periodic) metals
  | Electronic free energy        :        -367.27325741 Ha       -9994.01382393 eV

  Derived energy quantities:
  | Kinetic energy                :         367.95987931 Ha       10012.69775661 eV
  | Electrostatic energy          :        -708.19370689 Ha      -19270.93125868 eV
  | Energy correction for multipole
  | error in Hartree potential    :          -0.00019163 Ha          -0.00521459 eV
  | Sum of eigenvalues per atom                           :       -2882.86832015 eV
  | Total energy (T->0) per atom                          :       -4997.00409102 eV  <-- do not rely on this value for anything but (periodic) metals
  | Electronic free energy per atom                       :       -4997.00691197 eV
  Evaluating new KS density.
  Integration grid: deviation in total charge (<rho> - N_e) =  -6.659207E-10

  Self-consistency convergence accuracy:
  | Change of charge density      :  0.1658E+00
  | Change of unmixed KS density  :  0.1888E+00
  | Change of sum of eigenvalues  : -0.1380E+00 eV
  | Change of total energy        :  0.1582E-01 eV


------------------------------------------------------------
  End self-consistency iteration #     3       :  max(cpu_time)    wall_clock(cpu1)
  | Time for this iteration                     :        0.308 s           0.162 s
  | Charge density update                       :        0.001 s           0.001 s
  | Density mixing                              :        0.261 s           0.114 s
  | Hartree multipole update                    :        0.002 s           0.002 s
  | Hartree multipole summation                 :        0.002 s           0.002 s
  | Integration                                 :        0.002 s           0.002 s
  | Solution of K.-S. eqns.                     :        0.041 s           0.041 s
  | Total energy evaluation                     :        0.000 s           0.000 s

  Partial memory accounting:
  | Current value for overall tracked memory usage:
  |   Minimum:        0.413 MB (on task 58)
  |   Maximum:        0.518 MB (on task 56)
  |   Average:        0.438 MB
  | Peak value for overall tracked memory usage:
  |   Minimum:        0.916 MB (on task 48 after allocating wave)
  |   Maximum:        1.028 MB (on task 56 after allocating wave)
  |   Average:        0.944 MB
  | Largest tracked array allocation so far:
  |   Minimum:        0.161 MB (gradient_basis_wave_store on task  0)
  |   Maximum:        0.164 MB (gradient_basis_wave_store on task  1)
  |   Average:        0.163 MB
  Note:  These values currently only include a subset of arrays which are explicitly tracked.
  The "true" memory usage will be greater.
------------------------------------------------------------

------------------------------------------------------------
          Begin self-consistency iteration #    4

  Date     :  20260724, Time     :  152912.619
------------------------------------------------------------
  Pulay mixing of updated and previous charge densities.
  Available memory per node after mixing [GB]:   1034.05
  Renormalizing the density to the exact electron count on the 3D integration grid.
  | Formal number of electrons (from input files) :      20.0000000000
  | Integrated number of electrons on 3D grid     :      19.9999999973
  | Charge integration error                      :      -0.0000000027
  | Normalization factor for density and gradient :       1.0000000001

  Evaluating partitioned Hartree potential by multipole expansion.
  | Original multipole sum: apparent total charge =  -0.832480E-15
  | Sum of charges compensated after spline to logarithmic grids =   0.509930E-09
  | Analytical far-field extrapolation by fixed multipoles:
  | Hartree multipole sum: apparent total charge =  -0.840935E-15
  Summing up the Hartree potential.
  Time summed over all CPUs for potential: real work        0.001 s, elapsed        0.001 s
  | RMS charge density error from multipole expansion :   0.234171E-03

  Integrating Hamiltonian matrix: batch-based integration.
  Time summed over all CPUs for integration: real work        0.095 s, elapsed        0.106 s

  Updating Kohn-Sham eigenvalues and eigenvectors using ELSI and the ELPA eigensolver.
  Starting ELPA eigensolver
  Finished transformation to standard eigenproblem
  | Time :     0.001 s
  Finished solving standard eigenproblem
  | Time :     0.000 s
  Finished back-transformation of eigenvectors
  | Time :     0.001 s

  Obtaining occupation numbers and electronic chemical potential using ELSI.
  | Note that, for insulating systems, the printed 'chemical potential' value is not uniquely defined.
  | It can be anywhere in the energy gap, as long as it correctly separates occupied and unoccupied states.
  | In systems with a gap, the physically relevant chemical potential is the VBM or HOMO.

  | Chemical potential (Fermi level):    -6.34543811 eV
  Highest occupied state (VBM) at     -6.49215668 eV
  | Occupation number:      2.00000000

  Lowest unoccupied state (CBM) at    -6.19871953 eV
  | Occupation number:      0.00000000

  Overall HOMO-LUMO gap:      0.29343715 eV.

  Total energy components:
  | Sum of eigenvalues            :        -212.00560265 Ha       -5768.96596982 eV
  | XC energy correction          :         -27.04258072 Ha        -735.86606180 eV
  | XC potential correction       :          36.83083523 Ha        1002.21801881 eV
  | Free-atom electrostatic energy:        -164.89547461 Ha       -4487.03416180 eV
  | Hartree energy correction     :          -0.16859850 Ha          -4.58779850 eV
  | Entropy correction            :          -0.00000000 Ha          -0.00000000 eV
  | ---------------------------
  | Total energy                  :        -367.28142124 Ha       -9994.23597310 eV
  | Total energy, T -> 0          :        -367.28142124 Ha       -9994.23597310 eV  <-- do not rely on this value for anything but (periodic) metals
  | Electronic free energy        :        -367.28142124 Ha       -9994.23597310 eV

  Derived energy quantities:
  | Kinetic energy                :         367.97909273 Ha       10013.22058017 eV
  | Electrostatic energy          :        -708.21793325 Ha      -19271.59049148 eV
  | Energy correction for multipole
  | error in Hartree potential    :          -0.00002061 Ha          -0.00056076 eV
  | Sum of eigenvalues per atom                           :       -2884.48298491 eV
  | Total energy (T->0) per atom                          :       -4997.11798655 eV  <-- do not rely on this value for anything but (periodic) metals
  | Electronic free energy per atom                       :       -4997.11798655 eV
  Evaluating new KS density.
  Integration grid: deviation in total charge (<rho> - N_e) =   7.105427E-15

  Self-consistency convergence accuracy:
  | Change of charge density      :  0.1645E+00
  | Change of unmixed KS density  :  0.1062E-02
  | Change of sum of eigenvalues  : -0.3229E+01 eV
  | Change of total energy        : -0.2334E+00 eV


------------------------------------------------------------
  End self-consistency iteration #     4       :  max(cpu_time)    wall_clock(cpu1)
  | Time for this iteration                     :        0.265 s           0.191 s
  | Charge density update                       :        0.001 s           0.001 s
  | Density mixing                              :        0.258 s           0.183 s
  | Hartree multipole update                    :        0.001 s           0.002 s
  | Hartree multipole summation                 :        0.002 s           0.002 s
  | Integration                                 :        0.002 s           0.001 s
  | Solution of K.-S. eqns.                     :        0.001 s           0.002 s
  | Total energy evaluation                     :        0.000 s           0.000 s

  Partial memory accounting:
  | Current value for overall tracked memory usage:
  |   Minimum:        0.413 MB (on task 58)
  |   Maximum:        0.518 MB (on task 56)
  |   Average:        0.438 MB
  | Peak value for overall tracked memory usage:
  |   Minimum:        0.916 MB (on task 48 after allocating wave)
  |   Maximum:        1.028 MB (on task 56 after allocating wave)
  |   Average:        0.944 MB
  | Largest tracked array allocation so far:
  |   Minimum:        0.161 MB (gradient_basis_wave_store on task  0)
  |   Maximum:        0.164 MB (gradient_basis_wave_store on task  1)
  |   Average:        0.163 MB
  Note:  These values currently only include a subset of arrays which are explicitly tracked.
  The "true" memory usage will be greater.
------------------------------------------------------------

------------------------------------------------------------
          Begin self-consistency iteration #    5

  Date     :  20260724, Time     :  152913.051
------------------------------------------------------------
  Pulay mixing of updated and previous charge densities.
  Available memory per node after mixing [GB]:   1034.05
  Renormalizing the density to the exact electron count on the 3D integration grid.
  | Formal number of electrons (from input files) :      20.0000000000
  | Integrated number of electrons on 3D grid     :      19.9999999996
  | Charge integration error                      :      -0.0000000004
  | Normalization factor for density and gradient :       1.0000000000

  Evaluating partitioned Hartree potential by multipole expansion.
  | Original multipole sum: apparent total charge =  -0.313621E-15
  | Sum of charges compensated after spline to logarithmic grids =   0.561351E-08
  | Analytical far-field extrapolation by fixed multipoles:
  | Hartree multipole sum: apparent total charge =  -0.245977E-15
  Summing up the Hartree potential.
  Time summed over all CPUs for potential: real work        0.001 s, elapsed        0.001 s
  | RMS charge density error from multipole expansion :   0.489682E-03

  Integrating Hamiltonian matrix: batch-based integration.
  Time summed over all CPUs for integration: real work        0.096 s, elapsed        0.157 s => Consider using load balancing!

  Updating Kohn-Sham eigenvalues and eigenvectors using ELSI and the ELPA eigensolver.
  Starting ELPA eigensolver
  Finished transformation to standard eigenproblem
  | Time :     0.000 s
  Finished solving standard eigenproblem
  | Time :     0.001 s
  Finished back-transformation of eigenvectors
  | Time :     0.000 s

  Obtaining occupation numbers and electronic chemical potential using ELSI.
  | Note that, for insulating systems, the printed 'chemical potential' value is not uniquely defined.
  | It can be anywhere in the energy gap, as long as it correctly separates occupied and unoccupied states.
  | In systems with a gap, the physically relevant chemical potential is the VBM or HOMO.

  | Chemical potential (Fermi level):    -6.25759927 eV
  Highest occupied state (VBM) at     -6.25899420 eV
  | Occupation number:      1.15638650

  Lowest unoccupied state (CBM) at    -2.83300338 eV
  | Occupation number:      0.00000000

  This system has fractional occupation numbers. Thus, it is a degenerate system
  within the approximate finite broadening function (occupation_type)
  applied to determine the occupation numbers.
  This may not be harmful. However, for some systems (free atoms), a different, non-degenerate
  ground state might exist by using a smaller broadening (see keyword occupation_type).
  Overall HOMO-LUMO gap:      0.00000000 eV.

  Total energy components:
  | Sum of eigenvalues            :        -211.79229186 Ha       -5763.16148804 eV
  | XC energy correction          :         -27.04762524 Ha        -736.00333015 eV
  | XC potential correction       :          36.83747950 Ha        1002.39881863 eV
  | Free-atom electrostatic energy:        -164.89547461 Ha       -4487.03416180 eV
  | Hartree energy correction     :          -0.37174568 Ha         -10.11571477 eV
  | Entropy correction            :          -0.00026563 Ha          -0.00722805 eV
  | ---------------------------
  | Total energy                  :        -367.26965789 Ha       -9993.91587613 eV
  | Total energy, T -> 0          :        -367.26992352 Ha       -9993.92310417 eV  <-- do not rely on this value for anything but (periodic) metals
  | Electronic free energy        :        -367.27018915 Ha       -9993.93033222 eV

  Derived energy quantities:
  | Kinetic energy                :         367.99325773 Ha       10013.60602956 eV
  | Electrostatic energy          :        -708.21529039 Ha      -19271.51857553 eV
  | Energy correction for multipole
  | error in Hartree potential    :          -0.00017220 Ha          -0.00468581 eV
  | Sum of eigenvalues per atom                           :       -2881.58074402 eV
  | Total energy (T->0) per atom                          :       -4996.96155209 eV  <-- do not rely on this value for anything but (periodic) metals
  | Electronic free energy per atom                       :       -4996.96516611 eV
  Evaluating new KS density.
  Integration grid: deviation in total charge (<rho> - N_e) =   5.772556E-10

  Self-consistency convergence accuracy:
  | Change of charge density      :  0.1399E+00
  | Change of unmixed KS density  :  0.2639E+00
  | Change of sum of eigenvalues  :  0.5804E+01 eV
  | Change of total energy        :  0.3201E+00 eV


------------------------------------------------------------
  End self-consistency iteration #     5       :  max(cpu_time)    wall_clock(cpu1)
  | Time for this iteration                     :        0.300 s           0.070 s
  | Charge density update                       :        0.001 s           0.001 s
  | Density mixing                              :        0.292 s           0.062 s
  | Hartree multipole update                    :        0.001 s           0.001 s
  | Hartree multipole summation                 :        0.002 s           0.002 s
  | Integration                                 :        0.003 s           0.003 s
  | Solution of K.-S. eqns.                     :        0.001 s           0.001 s
  | Total energy evaluation                     :        0.000 s           0.000 s

  Partial memory accounting:
  | Current value for overall tracked memory usage:
  |   Minimum:        0.413 MB (on task 58)
  |   Maximum:        0.518 MB (on task 56)
  |   Average:        0.438 MB
  | Peak value for overall tracked memory usage:
  |   Minimum:        0.916 MB (on task 48 after allocating wave)
  |   Maximum:        1.028 MB (on task 56 after allocating wave)
  |   Average:        0.944 MB
  | Largest tracked array allocation so far:
  |   Minimum:        0.161 MB (gradient_basis_wave_store on task  0)
  |   Maximum:        0.164 MB (gradient_basis_wave_store on task  1)
  |   Average:        0.163 MB
  Note:  These values currently only include a subset of arrays which are explicitly tracked.
  The "true" memory usage will be greater.
------------------------------------------------------------

------------------------------------------------------------
          Begin self-consistency iteration #    6

  Date     :  20260724, Time     :  152913.244
------------------------------------------------------------
  Pulay mixing of updated and previous charge densities.
  Available memory per node after mixing [GB]:   1034.04
  Renormalizing the density to the exact electron count on the 3D integration grid.
  | Formal number of electrons (from input files) :      20.0000000000
  | Integrated number of electrons on 3D grid     :      19.9999999939
  | Charge integration error                      :      -0.0000000061
  | Normalization factor for density and gradient :       1.0000000003

  Evaluating partitioned Hartree potential by multipole expansion.
  | Original multipole sum: apparent total charge =   0.572666E-14
  | Sum of charges compensated after spline to logarithmic grids =  -0.288505E-07
  | Analytical far-field extrapolation by fixed multipoles:
  | Hartree multipole sum: apparent total charge =   0.574972E-14
  Summing up the Hartree potential.
  Time summed over all CPUs for potential: real work        0.001 s, elapsed        0.001 s
  | RMS charge density error from multipole expansion :   0.839408E-03

  Integrating Hamiltonian matrix: batch-based integration.
  Time summed over all CPUs for integration: real work        0.095 s, elapsed        0.106 s

  Updating Kohn-Sham eigenvalues and eigenvectors using ELSI and the ELPA eigensolver.
  Starting ELPA eigensolver
  Finished transformation to standard eigenproblem
  | Time :     0.001 s
  Finished solving standard eigenproblem
  | Time :     0.000 s
  Finished back-transformation of eigenvectors
  | Time :     0.000 s

  Obtaining occupation numbers and electronic chemical potential using ELSI.
  | Note that, for insulating systems, the printed 'chemical potential' value is not uniquely defined.
  | It can be anywhere in the energy gap, as long as it correctly separates occupied and unoccupied states.
  | In systems with a gap, the physically relevant chemical potential is the VBM or HOMO.

  | Chemical potential (Fermi level):    -6.08789658 eV
  Highest occupied state (VBM) at     -6.26998939 eV
  | Occupation number:      2.00000000

  Lowest unoccupied state (CBM) at    -5.90580377 eV
  | Occupation number:      0.00000000

  Overall HOMO-LUMO gap:      0.36418562 eV.

  Total energy components:
  | Sum of eigenvalues            :        -211.77352522 Ha       -5762.65082179 eV
  | XC energy correction          :         -27.06440136 Ha        -736.45983161 eV
  | XC potential correction       :          36.85903340 Ha        1002.98533002 eV
  | Free-atom electrostatic energy:        -164.89547461 Ha       -4487.03416180 eV
  | Hartree energy correction     :          -0.40977347 Ha         -11.15050336 eV
  | Entropy correction            :          -0.00000000 Ha          -0.00000000 eV
  | ---------------------------
  | Total energy                  :        -367.28414126 Ha       -9994.30998854 eV
  | Total energy, T -> 0          :        -367.28414126 Ha       -9994.30998854 eV  <-- do not rely on this value for anything but (periodic) metals
  | Electronic free energy        :        -367.28414126 Ha       -9994.30998854 eV

  Derived energy quantities:
  | Kinetic energy                :         368.02239442 Ha       10014.39887923 eV
  | Electrostatic energy          :        -708.24213432 Ha      -19272.24903616 eV
  | Energy correction for multipole
  | error in Hartree potential    :          -0.00003160 Ha          -0.00085981 eV
  | Sum of eigenvalues per atom                           :       -2881.32541090 eV
  | Total energy (T->0) per atom                          :       -4997.15499427 eV  <-- do not rely on this value for anything but (periodic) metals
  | Electronic free energy per atom                       :       -4997.15499427 eV
  Evaluating new KS density.
  Integration grid: deviation in total charge (<rho> - N_e) =   7.105427E-15

  Self-consistency convergence accuracy:
  | Change of charge density      :  0.1101E+00
  | Change of unmixed KS density  :  0.2236E+00
  | Change of sum of eigenvalues  :  0.5107E+00 eV
  | Change of total energy        : -0.3941E+00 eV


------------------------------------------------------------
  End self-consistency iteration #     6       :  max(cpu_time)    wall_clock(cpu1)
  | Time for this iteration                     :        0.257 s           0.146 s
  | Charge density update                       :        0.001 s           0.001 s
  | Density mixing                              :        0.250 s           0.138 s
  | Hartree multipole update                    :        0.001 s           0.002 s
  | Hartree multipole summation                 :        0.002 s           0.001 s
  | Integration                                 :        0.002 s           0.002 s
  | Solution of K.-S. eqns.                     :        0.001 s           0.001 s
  | Total energy evaluation                     :        0.000 s           0.000 s

  Partial memory accounting:
  | Current value for overall tracked memory usage:
  |   Minimum:        0.413 MB (on task 58)
  |   Maximum:        0.518 MB (on task 56)
  |   Average:        0.438 MB
  | Peak value for overall tracked memory usage:
  |   Minimum:        0.916 MB (on task 48 after allocating wave)
  |   Maximum:        1.028 MB (on task 56 after allocating wave)
  |   Average:        0.944 MB
  | Largest tracked array allocation so far:
  |   Minimum:        0.161 MB (gradient_basis_wave_store on task  0)
  |   Maximum:        0.164 MB (gradient_basis_wave_store on task  1)
  |   Average:        0.163 MB
  Note:  These values currently only include a subset of arrays which are explicitly tracked.
  The "true" memory usage will be greater.
------------------------------------------------------------

------------------------------------------------------------
          Begin self-consistency iteration #    7

  Date     :  20260724, Time     :  152913.550
------------------------------------------------------------
  Pulay mixing of updated and previous charge densities.
  Available memory per node after mixing [GB]:   1034.04
  Renormalizing the density to the exact electron count on the 3D integration grid.
  | Formal number of electrons (from input files) :      20.0000000000
  | Integrated number of electrons on 3D grid     :      20.0000000001
  | Charge integration error                      :       0.0000000001
  | Normalization factor for density and gradient :       1.0000000000

  Evaluating partitioned Hartree potential by multipole expansion.
  | Original multipole sum: apparent total charge =   0.147817E-14
  | Sum of charges compensated after spline to logarithmic grids =  -0.411031E-07
  | Analytical far-field extrapolation by fixed multipoles:
  | Hartree multipole sum: apparent total charge =   0.143743E-14
  Summing up the Hartree potential.
  Time summed over all CPUs for potential: real work        0.001 s, elapsed        0.002 s
  | RMS charge density error from multipole expansion :   0.838645E-03

  Integrating Hamiltonian matrix: batch-based integration.
  Time summed over all CPUs for integration: real work        0.099 s, elapsed        0.111 s

  Updating Kohn-Sham eigenvalues and eigenvectors using ELSI and the ELPA eigensolver.
  Starting ELPA eigensolver
  Finished transformation to standard eigenproblem
  | Time :     0.000 s
  Finished solving standard eigenproblem
  | Time :     0.001 s
  Finished back-transformation of eigenvectors
  | Time :     0.000 s

  Obtaining occupation numbers and electronic chemical potential using ELSI.
  | Note that, for insulating systems, the printed 'chemical potential' value is not uniquely defined.
  | It can be anywhere in the energy gap, as long as it correctly separates occupied and unoccupied states.
  | In systems with a gap, the physically relevant chemical potential is the VBM or HOMO.

  | Chemical potential (Fermi level):    -6.12589206 eV
  Highest occupied state (VBM) at     -6.31272772 eV
  | Occupation number:      2.00000000

  Lowest unoccupied state (CBM) at    -5.93905640 eV
  | Occupation number:      0.00000000

  Overall HOMO-LUMO gap:      0.37367132 eV.

  Total energy components:
  | Sum of eigenvalues            :        -211.81870085 Ha       -5763.88011315 eV
  | XC energy correction          :         -27.06168249 Ha        -736.38584749 eV
  | XC potential correction       :          36.85525140 Ha        1002.88241665 eV
  | Free-atom electrostatic energy:        -164.89547461 Ha       -4487.03416180 eV
  | Hartree energy correction     :          -0.36387437 Ha          -9.90152535 eV
  | Entropy correction            :          -0.00000000 Ha          -0.00000000 eV
  | ---------------------------
  | Total energy                  :        -367.28448092 Ha       -9994.31923113 eV
  | Total energy, T -> 0          :        -367.28448092 Ha       -9994.31923113 eV  <-- do not rely on this value for anything but (periodic) metals
  | Electronic free energy        :        -367.28448092 Ha       -9994.31923113 eV

  Derived energy quantities:
  | Kinetic energy                :         368.00568415 Ha       10013.94416947 eV
  | Electrostatic energy          :        -708.22848257 Ha      -19271.87755311 eV
  | Energy correction for multipole
  | error in Hartree potential    :          -0.00002123 Ha          -0.00057763 eV
  | Sum of eigenvalues per atom                           :       -2881.94005657 eV
  | Total energy (T->0) per atom                          :       -4997.15961557 eV  <-- do not rely on this value for anything but (periodic) metals
  | Electronic free energy per atom                       :       -4997.15961557 eV
  Evaluating new KS density.
  Integration grid: deviation in total charge (<rho> - N_e) =   7.105427E-15

  Self-consistency convergence accuracy:
  | Change of charge density      :  0.1553E+00
  | Change of unmixed KS density  :  0.2283E+00
  | Change of sum of eigenvalues  : -0.1229E+01 eV
  | Change of total energy        : -0.9243E-02 eV


------------------------------------------------------------
  End self-consistency iteration #     7       :  max(cpu_time)    wall_clock(cpu1)
  | Time for this iteration                     :        0.256 s           0.107 s
  | Charge density update                       :        0.001 s           0.001 s
  | Density mixing                              :        0.248 s           0.100 s
  | Hartree multipole update                    :        0.001 s           0.001 s
  | Hartree multipole summation                 :        0.002 s           0.002 s
  | Integration                                 :        0.002 s           0.002 s
  | Solution of K.-S. eqns.                     :        0.001 s           0.001 s
  | Total energy evaluation                     :        0.000 s           0.000 s

  Partial memory accounting:
  | Current value for overall tracked memory usage:
  |   Minimum:        0.413 MB (on task 58)
  |   Maximum:        0.518 MB (on task 56)
  |   Average:        0.438 MB
  | Peak value for overall tracked memory usage:
  |   Minimum:        0.916 MB (on task 48 after allocating wave)
  |   Maximum:        1.028 MB (on task 56 after allocating wave)
  |   Average:        0.944 MB
  | Largest tracked array allocation so far:
  |   Minimum:        0.161 MB (gradient_basis_wave_store on task  0)
  |   Maximum:        0.164 MB (gradient_basis_wave_store on task  1)
  |   Average:        0.163 MB
  Note:  These values currently only include a subset of arrays which are explicitly tracked.
  The "true" memory usage will be greater.
------------------------------------------------------------

------------------------------------------------------------
          Begin self-consistency iteration #    8

  Date     :  20260724, Time     :  152913.713
------------------------------------------------------------
  Pulay mixing of updated and previous charge densities.
  Available memory per node after mixing [GB]:   1034.04
  Renormalizing the density to the exact electron count on the 3D integration grid.
  | Formal number of electrons (from input files) :      20.0000000000
  | Integrated number of electrons on 3D grid     :      19.9999999988
  | Charge integration error                      :      -0.0000000012
  | Normalization factor for density and gradient :       1.0000000001

  Evaluating partitioned Hartree potential by multipole expansion.
  | Original multipole sum: apparent total charge =   0.509788E-14
  | Sum of charges compensated after spline to logarithmic grids =  -0.661119E-07
  | Analytical far-field extrapolation by fixed multipoles:
  | Hartree multipole sum: apparent total charge =   0.507943E-14
  Summing up the Hartree potential.
  Time summed over all CPUs for potential: real work        0.001 s, elapsed        0.001 s
  | RMS charge density error from multipole expansion :   0.109373E-02

  Integrating Hamiltonian matrix: batch-based integration.
  Time summed over all CPUs for integration: real work        0.094 s, elapsed        0.107 s

  Updating Kohn-Sham eigenvalues and eigenvectors using ELSI and the ELPA eigensolver.
  Starting ELPA eigensolver
  Finished transformation to standard eigenproblem
  | Time :     0.000 s
  Finished solving standard eigenproblem
  | Time :     0.001 s
  Finished back-transformation of eigenvectors
  | Time :     0.000 s

  Obtaining occupation numbers and electronic chemical potential using ELSI.
  | Note that, for insulating systems, the printed 'chemical potential' value is not uniquely defined.
  | It can be anywhere in the energy gap, as long as it correctly separates occupied and unoccupied states.
  | In systems with a gap, the physically relevant chemical potential is the VBM or HOMO.

  | Chemical potential (Fermi level):    -6.13990069 eV
  Highest occupied state (VBM) at     -6.27186476 eV
  | Occupation number:      2.00000000

  Lowest unoccupied state (CBM) at    -6.00793663 eV
  | Occupation number:      0.00000000

  Overall HOMO-LUMO gap:      0.26392813 eV.

  Total energy components:
  | Sum of eigenvalues            :        -211.80096272 Ha       -5763.39743397 eV
  | XC energy correction          :         -27.06132205 Ha        -736.37603934 eV
  | XC potential correction       :          36.85382637 Ha        1002.84363958 eV
  | Free-atom electrostatic energy:        -164.89547461 Ha       -4487.03416180 eV
  | Hartree energy correction     :          -0.37556037 Ha         -10.21951754 eV
  | Entropy correction            :          -0.00000000 Ha          -0.00000000 eV
  | ---------------------------
  | Total energy                  :        -367.27949337 Ha       -9994.18351307 eV
  | Total energy, T -> 0          :        -367.27949337 Ha       -9994.18351307 eV  <-- do not rely on this value for anything but (periodic) metals
  | Electronic free energy        :        -367.27949337 Ha       -9994.18351307 eV

  Derived energy quantities:
  | Kinetic energy                :         367.96965400 Ha       10012.96373932 eV
  | Electrostatic energy          :        -708.18782532 Ha      -19270.77121305 eV
  | Energy correction for multipole
  | error in Hartree potential    :          -0.00007155 Ha          -0.00194708 eV
  | Sum of eigenvalues per atom                           :       -2881.69871699 eV
  | Total energy (T->0) per atom                          :       -4997.09175653 eV  <-- do not rely on this value for anything but (periodic) metals
  | Electronic free energy per atom                       :       -4997.09175653 eV
  Evaluating new KS density.
  Integration grid: deviation in total charge (<rho> - N_e) =  -7.105427E-15

  Self-consistency convergence accuracy:
  | Change of charge density      :  0.1556E+00
  | Change of unmixed KS density  :  0.3554E-02
  | Change of sum of eigenvalues  :  0.4827E+00 eV
  | Change of total energy        :  0.1357E+00 eV


------------------------------------------------------------
  End self-consistency iteration #     8       :  max(cpu_time)    wall_clock(cpu1)
  | Time for this iteration                     :        0.261 s           0.216 s
  | Charge density update                       :        0.001 s           0.001 s
  | Density mixing                              :        0.253 s           0.209 s
  | Hartree multipole update                    :        0.001 s           0.001 s
  | Hartree multipole summation                 :        0.002 s           0.002 s
  | Integration                                 :        0.002 s           0.002 s
  | Solution of K.-S. eqns.                     :        0.001 s           0.001 s
  | Total energy evaluation                     :        0.000 s           0.000 s

  Partial memory accounting:
  | Current value for overall tracked memory usage:
  |   Minimum:        0.413 MB (on task 58)
  |   Maximum:        0.519 MB (on task 56)
  |   Average:        0.438 MB
  | Peak value for overall tracked memory usage:
  |   Minimum:        0.916 MB (on task 48 after allocating wave)
  |   Maximum:        1.028 MB (on task 56 after allocating wave)
  |   Average:        0.944 MB
  | Largest tracked array allocation so far:
  |   Minimum:        0.161 MB (gradient_basis_wave_store on task  0)
  |   Maximum:        0.164 MB (gradient_basis_wave_store on task  1)
  |   Average:        0.163 MB
  Note:  These values currently only include a subset of arrays which are explicitly tracked.
  The "true" memory usage will be greater.
------------------------------------------------------------

------------------------------------------------------------
          Begin self-consistency iteration #    9

  Date     :  20260724, Time     :  152913.985
------------------------------------------------------------
  Pulay mixing of updated and previous charge densities.
  Available memory per node after mixing [GB]:   1034.04
  Renormalizing the density to the exact electron count on the 3D integration grid.
  | Formal number of electrons (from input files) :      20.0000000000
  | Integrated number of electrons on 3D grid     :      20.0000000010
  | Charge integration error                      :       0.0000000010
  | Normalization factor for density and gradient :       0.9999999999

  Evaluating partitioned Hartree potential by multipole expansion.
  | Original multipole sum: apparent total charge =   0.235216E-14
  | Sum of charges compensated after spline to logarithmic grids =  -0.774437E-07
  | Analytical far-field extrapolation by fixed multipoles:
  | Hartree multipole sum: apparent total charge =   0.234293E-14
  Summing up the Hartree potential.
  Time summed over all CPUs for potential: real work        0.001 s, elapsed        0.001 s
  | RMS charge density error from multipole expansion :   0.111303E-02

  Integrating Hamiltonian matrix: batch-based integration.
  Time summed over all CPUs for integration: real work        0.094 s, elapsed        0.105 s

  Updating Kohn-Sham eigenvalues and eigenvectors using ELSI and the ELPA eigensolver.
  Starting ELPA eigensolver
  Finished transformation to standard eigenproblem
  | Time :     0.000 s
  Finished solving standard eigenproblem
  | Time :     0.001 s
  Finished back-transformation of eigenvectors
  | Time :     0.000 s

  Obtaining occupation numbers and electronic chemical potential using ELSI.
  | Note that, for insulating systems, the printed 'chemical potential' value is not uniquely defined.
  | It can be anywhere in the energy gap, as long as it correctly separates occupied and unoccupied states.
  | In systems with a gap, the physically relevant chemical potential is the VBM or HOMO.

  | Chemical potential (Fermi level):    -6.16424711 eV
  Highest occupied state (VBM) at     -6.25321377 eV
  | Occupation number:      2.00000000

  Lowest unoccupied state (CBM) at    -6.07528046 eV
  | Occupation number:      0.00000000

  Overall HOMO-LUMO gap:      0.17793331 eV.

  Total energy components:
  | Sum of eigenvalues            :        -211.80833117 Ha       -5763.59793972 eV
  | XC energy correction          :         -27.05714758 Ha        -736.26244635 eV
  | XC potential correction       :          36.84823772 Ha        1002.69156483 eV
  | Free-atom electrostatic energy:        -164.89547461 Ha       -4487.03416180 eV
  | Hartree energy correction     :          -0.36319375 Ha          -9.88300480 eV
  | Entropy correction            :          -0.00000000 Ha          -0.00000000 eV
  | ---------------------------
  | Total energy                  :        -367.27590938 Ha       -9994.08598783 eV
  | Total energy, T -> 0          :        -367.27590938 Ha       -9994.08598783 eV  <-- do not rely on this value for anything but (periodic) metals
  | Electronic free energy        :        -367.27590938 Ha       -9994.08598783 eV

  Derived energy quantities:
  | Kinetic energy                :         367.94751967 Ha       10012.36143343 eV
  | Electrostatic energy          :        -708.16628147 Ha      -19270.18497491 eV
  | Energy correction for multipole
  | error in Hartree potential    :          -0.00011961 Ha          -0.00325466 eV
  | Sum of eigenvalues per atom                           :       -2881.79896986 eV
  | Total energy (T->0) per atom                          :       -4997.04299392 eV  <-- do not rely on this value for anything but (periodic) metals
  | Electronic free energy per atom                       :       -4997.04299392 eV
  Evaluating new KS density.
  Integration grid: deviation in total charge (<rho> - N_e) =  -7.105427E-15

  Self-consistency convergence accuracy:
  | Change of charge density      :  0.1473E+00
  | Change of unmixed KS density  :  0.1736E-01
  | Change of sum of eigenvalues  : -0.2005E+00 eV
  | Change of total energy        :  0.9753E-01 eV


------------------------------------------------------------
  End self-consistency iteration #     9       :  max(cpu_time)    wall_clock(cpu1)
  | Time for this iteration                     :        0.277 s           0.237 s
  | Charge density update                       :        0.001 s           0.001 s
  | Density mixing                              :        0.271 s           0.230 s
  | Hartree multipole update                    :        0.001 s           0.001 s
  | Hartree multipole summation                 :        0.002 s           0.002 s
  | Integration                                 :        0.002 s           0.002 s
  | Solution of K.-S. eqns.                     :        0.001 s           0.001 s
  | Total energy evaluation                     :        0.000 s           0.000 s

  Partial memory accounting:
  | Current value for overall tracked memory usage:
  |   Minimum:        0.413 MB (on task 58)
  |   Maximum:        0.519 MB (on task 56)
  |   Average:        0.438 MB
  | Peak value for overall tracked memory usage:
  |   Minimum:        0.916 MB (on task 48 after allocating wave)
  |   Maximum:        1.028 MB (on task 56 after allocating wave)
  |   Average:        0.944 MB
  | Largest tracked array allocation so far:
  |   Minimum:        0.161 MB (gradient_basis_wave_store on task  0)
  |   Maximum:        0.164 MB (gradient_basis_wave_store on task  1)
  |   Average:        0.163 MB
  Note:  These values currently only include a subset of arrays which are explicitly tracked.
  The "true" memory usage will be greater.
------------------------------------------------------------

------------------------------------------------------------
          Begin self-consistency iteration #   10

  Date     :  20260724, Time     :  152914.386
------------------------------------------------------------
  Pulay mixing of updated and previous charge densities.
  Available memory per node after mixing [GB]:   1034.04
  Renormalizing the density to the exact electron count on the 3D integration grid.
  | Formal number of electrons (from input files) :      20.0000000000
  | Integrated number of electrons on 3D grid     :      20.0000000001
  | Charge integration error                      :       0.0000000001
  | Normalization factor for density and gradient :       1.0000000000

  Evaluating partitioned Hartree potential by multipole expansion.
  | Original multipole sum: apparent total charge =   0.401866E-14
  | Sum of charges compensated after spline to logarithmic grids =  -0.808505E-07
  | Analytical far-field extrapolation by fixed multipoles:
  | Hartree multipole sum: apparent total charge =   0.402480E-14
  Summing up the Hartree potential.
  Time summed over all CPUs for potential: real work        0.001 s, elapsed        0.001 s
  | RMS charge density error from multipole expansion :   0.110502E-02

  Integrating Hamiltonian matrix: batch-based integration.
  Time summed over all CPUs for integration: real work        0.094 s, elapsed        0.106 s

  Updating Kohn-Sham eigenvalues and eigenvectors using ELSI and the ELPA eigensolver.
  Starting ELPA eigensolver
  Finished transformation to standard eigenproblem
  | Time :     0.000 s
  Finished solving standard eigenproblem
  | Time :     0.001 s
  Finished back-transformation of eigenvectors
  | Time :     0.000 s

  Obtaining occupation numbers and electronic chemical potential using ELSI.
  | Note that, for insulating systems, the printed 'chemical potential' value is not uniquely defined.
  | It can be anywhere in the energy gap, as long as it correctly separates occupied and unoccupied states.
  | In systems with a gap, the physically relevant chemical potential is the VBM or HOMO.

  | Chemical potential (Fermi level):    -6.15873820 eV
  Highest occupied state (VBM) at     -6.25995458 eV
  | Occupation number:      2.00000000

  Lowest unoccupied state (CBM) at    -6.05752183 eV
  | Occupation number:      0.00000000

  Overall HOMO-LUMO gap:      0.20243275 eV.

  Total energy components:
  | Sum of eigenvalues            :        -211.81798315 Ha       -5763.86058362 eV
  | XC energy correction          :         -27.05715904 Ha        -736.26275817 eV
  | XC potential correction       :          36.84828744 Ha        1002.69291775 eV
  | Free-atom electrostatic energy:        -164.89547461 Ha       -4487.03416180 eV
  | Hartree energy correction     :          -0.35453982 Ha          -9.64751927 eV
  | Entropy correction            :          -0.00000000 Ha          -0.00000000 eV
  | ---------------------------
  | Total energy                  :        -367.27686918 Ha       -9994.11210510 eV
  | Total energy, T -> 0          :        -367.27686918 Ha       -9994.11210510 eV  <-- do not rely on this value for anything but (periodic) metals
  | Electronic free energy        :        -367.27686918 Ha       -9994.11210510 eV

  Derived energy quantities:
  | Kinetic energy                :         367.94816015 Ha       10012.37886196 eV
  | Electrostatic energy          :        -708.16787029 Ha      -19270.22820889 eV
  | Energy correction for multipole
  | error in Hartree potential    :          -0.00011414 Ha          -0.00310593 eV
  | Sum of eigenvalues per atom                           :       -2881.93029181 eV
  | Total energy (T->0) per atom                          :       -4997.05605255 eV  <-- do not rely on this value for anything but (periodic) metals
  | Electronic free energy per atom                       :       -4997.05605255 eV
  Evaluating new KS density.
  Integration grid: deviation in total charge (<rho> - N_e) =   7.105427E-15

  Self-consistency convergence accuracy:
  | Change of charge density      :  0.1363E+00
  | Change of unmixed KS density  :  0.8364E-02
  | Change of sum of eigenvalues  : -0.2626E+00 eV
  | Change of total energy        : -0.2612E-01 eV


------------------------------------------------------------
  End self-consistency iteration #    10       :  max(cpu_time)    wall_clock(cpu1)
  | Time for this iteration                     :        0.261 s           0.108 s
  | Charge density update                       :        0.001 s           0.001 s
  | Density mixing                              :        0.254 s           0.101 s
  | Hartree multipole update                    :        0.001 s           0.001 s
  | Hartree multipole summation                 :        0.002 s           0.002 s
  | Integration                                 :        0.002 s           0.002 s
  | Solution of K.-S. eqns.                     :        0.001 s           0.001 s
  | Total energy evaluation                     :        0.000 s           0.000 s

  Partial memory accounting:
  | Current value for overall tracked memory usage:
  |   Minimum:        0.413 MB (on task 58)
  |   Maximum:        0.519 MB (on task 56)
  |   Average:        0.438 MB
  | Peak value for overall tracked memory usage:
  |   Minimum:        0.916 MB (on task 48 after allocating wave)
  |   Maximum:        1.028 MB (on task 56 after allocating wave)
  |   Average:        0.944 MB
  | Largest tracked array allocation so far:
  |   Minimum:        0.161 MB (gradient_basis_wave_store on task  0)
  |   Maximum:        0.164 MB (gradient_basis_wave_store on task  1)
  |   Average:        0.163 MB
  Note:  These values currently only include a subset of arrays which are explicitly tracked.
  The "true" memory usage will be greater.
------------------------------------------------------------

------------------------------------------------------------
          Begin self-consistency iteration #   11

  Date     :  20260724, Time     :  152914.623
------------------------------------------------------------
  Pulay mixing of updated and previous charge densities.
  Available memory per node after mixing [GB]:   1034.04
  Renormalizing the density to the exact electron count on the 3D integration grid.
  | Formal number of electrons (from input files) :      20.0000000000
  | Integrated number of electrons on 3D grid     :      20.0000000018
  | Charge integration error                      :       0.0000000018
  | Normalization factor for density and gradient :       0.9999999999

  Evaluating partitioned Hartree potential by multipole expansion.
  | Original multipole sum: apparent total charge =  -0.168495E-14
  | Sum of charges compensated after spline to logarithmic grids =  -0.981681E-07
  | Analytical far-field extrapolation by fixed multipoles:
  | Hartree multipole sum: apparent total charge =  -0.175259E-14
  Summing up the Hartree potential.
  Time summed over all CPUs for potential: real work        0.001 s, elapsed        0.001 s
  | RMS charge density error from multipole expansion :   0.113759E-02

  Integrating Hamiltonian matrix: batch-based integration.
  Time summed over all CPUs for integration: real work        0.094 s, elapsed        0.105 s

  Updating Kohn-Sham eigenvalues and eigenvectors using ELSI and the ELPA eigensolver.
  Starting ELPA eigensolver
  Finished transformation to standard eigenproblem
  | Time :     0.001 s
  Finished solving standard eigenproblem
  | Time :     0.000 s
  Finished back-transformation of eigenvectors
  | Time :     0.001 s

  Obtaining occupation numbers and electronic chemical potential using ELSI.
  | Note that, for insulating systems, the printed 'chemical potential' value is not uniquely defined.
  | It can be anywhere in the energy gap, as long as it correctly separates occupied and unoccupied states.
  | In systems with a gap, the physically relevant chemical potential is the VBM or HOMO.

  | Chemical potential (Fermi level):    -6.19035727 eV
  Highest occupied state (VBM) at     -6.22718142 eV
  | Occupation number:      1.99999981

  Lowest unoccupied state (CBM) at    -6.15445404 eV
  | Occupation number:      0.00000038

  Overall HOMO-LUMO gap:      0.07272738 eV.

  Total energy components:
  | Sum of eigenvalues            :        -211.82091220 Ha       -5763.94028703 eV
  | XC energy correction          :         -27.05183333 Ha        -736.11783822 eV
  | XC potential correction       :          36.84112611 Ha        1002.49804806 eV
  | Free-atom electrostatic energy:        -164.89547461 Ha       -4487.03416180 eV
  | Hartree energy correction     :          -0.34479090 Ha          -9.38223786 eV
  | Entropy correction            :          -0.00000000 Ha          -0.00000001 eV
  | ---------------------------
  | Total energy                  :        -367.27188493 Ha       -9993.97647685 eV
  | Total energy, T -> 0          :        -367.27188493 Ha       -9993.97647686 eV  <-- do not rely on this value for anything but (periodic) metals
  | Electronic free energy        :        -367.27188493 Ha       -9993.97647688 eV

  Derived energy quantities:
  | Kinetic energy                :         367.92356566 Ha       10011.70961177 eV
  | Electrostatic energy          :        -708.14361726 Ha      -19269.56825039 eV
  | Energy correction for multipole
  | error in Hartree potential    :          -0.00018951 Ha          -0.00515680 eV
  | Sum of eigenvalues per atom                           :       -2881.97014351 eV
  | Total energy (T->0) per atom                          :       -4996.98823843 eV  <-- do not rely on this value for anything but (periodic) metals
  | Electronic free energy per atom                       :       -4996.98823844 eV
  Evaluating new KS density.
  Integration grid: deviation in total charge (<rho> - N_e) =   1.212825E-10

  Self-consistency convergence accuracy:
  | Change of charge density      :  0.1384E+00
  | Change of unmixed KS density  :  0.5000E-02
  | Change of sum of eigenvalues  : -0.7970E-01 eV
  | Change of total energy        :  0.1356E+00 eV


------------------------------------------------------------
  End self-consistency iteration #    11       :  max(cpu_time)    wall_clock(cpu1)
  | Time for this iteration                     :        0.267 s           0.148 s
  | Charge density update                       :        0.001 s           0.001 s
  | Density mixing                              :        0.260 s           0.141 s
  | Hartree multipole update                    :        0.001 s           0.001 s
  | Hartree multipole summation                 :        0.002 s           0.002 s
  | Integration                                 :        0.002 s           0.001 s
  | Solution of K.-S. eqns.                     :        0.001 s           0.002 s
  | Total energy evaluation                     :        0.000 s           0.000 s

  Partial memory accounting:
  | Current value for overall tracked memory usage:
  |   Minimum:        0.413 MB (on task 58)
  |   Maximum:        0.519 MB (on task 56)
  |   Average:        0.438 MB
  | Peak value for overall tracked memory usage:
  |   Minimum:        0.916 MB (on task 48 after allocating wave)
  |   Maximum:        1.028 MB (on task 56 after allocating wave)
  |   Average:        0.944 MB
  | Largest tracked array allocation so far:
  |   Minimum:        0.161 MB (gradient_basis_wave_store on task  0)
  |   Maximum:        0.164 MB (gradient_basis_wave_store on task  1)
  |   Average:        0.163 MB
  Note:  These values currently only include a subset of arrays which are explicitly tracked.
  The "true" memory usage will be greater.
------------------------------------------------------------

------------------------------------------------------------
          Begin self-consistency iteration #   12

  Date     :  20260724, Time     :  152915.013
------------------------------------------------------------
  Pulay mixing of updated and previous charge densities.
  Available memory per node after mixing [GB]:   1034.04
  Renormalizing the density to the exact electron count on the 3D integration grid.
  | Formal number of electrons (from input files) :      20.0000000000
  | Integrated number of electrons on 3D grid     :      20.0000000059
  | Charge integration error                      :       0.0000000059
  | Normalization factor for density and gradient :       0.9999999997

  Evaluating partitioned Hartree potential by multipole expansion.
  | Original multipole sum: apparent total charge =  -0.903967E-15
  | Sum of charges compensated after spline to logarithmic grids =  -0.153671E-06
  | Analytical far-field extrapolation by fixed multipoles:
  | Hartree multipole sum: apparent total charge =  -0.793277E-15
  Summing up the Hartree potential.
  Time summed over all CPUs for potential: real work        0.001 s, elapsed        0.001 s
  | RMS charge density error from multipole expansion :   0.121351E-02

  Integrating Hamiltonian matrix: batch-based integration.
  Time summed over all CPUs for integration: real work        0.095 s, elapsed        0.110 s

  Updating Kohn-Sham eigenvalues and eigenvectors using ELSI and the ELPA eigensolver.
  Starting ELPA eigensolver
  Finished transformation to standard eigenproblem
  | Time :     0.000 s
  Finished solving standard eigenproblem
  | Time :     0.001 s
  Finished back-transformation of eigenvectors
  | Time :     0.000 s

  Obtaining occupation numbers and electronic chemical potential using ELSI.
  | Note that, for insulating systems, the printed 'chemical potential' value is not uniquely defined.
  | It can be anywhere in the energy gap, as long as it correctly separates occupied and unoccupied states.
  | In systems with a gap, the physically relevant chemical potential is the VBM or HOMO.

  | Chemical potential (Fermi level):    -6.16490119 eV
  Highest occupied state (VBM) at     -6.16490119 eV
  | Occupation number:      1.00000001

  Lowest unoccupied state (CBM) at    -6.16490119 eV
  | Occupation number:      0.99999999

  This system has fractional occupation numbers. Thus, it is a degenerate system
  within the approximate finite broadening function (occupation_type)
  applied to determine the occupation numbers.
  This may not be harmful. However, for some systems (free atoms), a different, non-degenerate
  ground state might exist by using a smaller broadening (see keyword occupation_type).
  Overall HOMO-LUMO gap:      0.00000000 eV.

  Total energy components:
  | Sum of eigenvalues            :        -211.86593776 Ha       -5765.16549483 eV
  | XC energy correction          :         -27.04119553 Ha        -735.82836880 eV
  | XC potential correction       :          36.82644629 Ha        1002.09858980 eV
  | Free-atom electrostatic energy:        -164.89547461 Ha       -4487.03416180 eV
  | Hartree energy correction     :          -0.30162988 Ha          -8.20776657 eV
  | Entropy correction            :          -0.00020734 Ha          -0.00564190 eV
  | ---------------------------
  | Total energy                  :        -367.27779148 Ha       -9994.13720219 eV
  | Total energy, T -> 0          :        -367.27799881 Ha       -9994.14284409 eV  <-- do not rely on this value for anything but (periodic) metals
  | Electronic free energy        :        -367.27820615 Ha       -9994.14848599 eV

  Derived energy quantities:
  | Kinetic energy                :         367.85718707 Ha       10009.90335835 eV
  | Electrostatic energy          :        -708.09378302 Ha      -19268.21219175 eV
  | Energy correction for multipole
  | error in Hartree potential    :          -0.00037370 Ha          -0.01016902 eV
  | Sum of eigenvalues per atom                           :       -2882.58274741 eV
  | Total energy (T->0) per atom                          :       -4997.07142204 eV  <-- do not rely on this value for anything but (periodic) metals
  | Electronic free energy per atom                       :       -4997.07424299 eV
  Evaluating new KS density.
  Integration grid: deviation in total charge (<rho> - N_e) =  -4.988863E-10

  Self-consistency convergence accuracy:
  | Change of charge density      :  0.1201E+00
  | Change of unmixed KS density  :  0.1286E-01
  | Change of sum of eigenvalues  : -0.1225E+01 eV
  | Change of total energy        : -0.1607E+00 eV


------------------------------------------------------------
  End self-consistency iteration #    12       :  max(cpu_time)    wall_clock(cpu1)
  | Time for this iteration                     :        0.286 s           0.054 s
  | Charge density update                       :        0.001 s           0.001 s
  | Density mixing                              :        0.279 s           0.047 s
  | Hartree multipole update                    :        0.001 s           0.001 s
  | Hartree multipole summation                 :        0.002 s           0.002 s
  | Integration                                 :        0.002 s           0.002 s
  | Solution of K.-S. eqns.                     :        0.001 s           0.001 s
  | Total energy evaluation                     :        0.000 s           0.000 s

  Partial memory accounting:
  | Current value for overall tracked memory usage:
  |   Minimum:        0.413 MB (on task 58)
  |   Maximum:        0.519 MB (on task 56)
  |   Average:        0.438 MB
  | Peak value for overall tracked memory usage:
  |   Minimum:        0.916 MB (on task 48 after allocating wave)
  |   Maximum:        1.028 MB (on task 56 after allocating wave)
  |   Average:        0.944 MB
  | Largest tracked array allocation so far:
  |   Minimum:        0.161 MB (gradient_basis_wave_store on task  0)
  |   Maximum:        0.164 MB (gradient_basis_wave_store on task  1)
  |   Average:        0.163 MB
  Note:  These values currently only include a subset of arrays which are explicitly tracked.
  The "true" memory usage will be greater.
------------------------------------------------------------

------------------------------------------------------------
          Begin self-consistency iteration #   13

  Date     :  20260724, Time     :  152915.079
------------------------------------------------------------
  Pulay mixing of updated and previous charge densities.
  Available memory per node after mixing [GB]:   1034.04
  Renormalizing the density to the exact electron count on the 3D integration grid.
  | Formal number of electrons (from input files) :      20.0000000000
  | Integrated number of electrons on 3D grid     :      19.9999999997
  | Charge integration error                      :      -0.0000000003
  | Normalization factor for density and gradient :       1.0000000000

  Evaluating partitioned Hartree potential by multipole expansion.
  | Original multipole sum: apparent total charge =   0.417547E-14
  | Sum of charges compensated after spline to logarithmic grids =  -0.150841E-06
  | Analytical far-field extrapolation by fixed multipoles:
  | Hartree multipole sum: apparent total charge =   0.419391E-14
  Summing up the Hartree potential.
  Time summed over all CPUs for potential: real work        0.001 s, elapsed        0.001 s
  | RMS charge density error from multipole expansion :   0.120625E-02

  Integrating Hamiltonian matrix: batch-based integration.
  Time summed over all CPUs for integration: real work        0.095 s, elapsed        0.109 s

  Updating Kohn-Sham eigenvalues and eigenvectors using ELSI and the ELPA eigensolver.
  Starting ELPA eigensolver
  Finished transformation to standard eigenproblem
  | Time :     0.001 s
  Finished solving standard eigenproblem
  | Time :     0.000 s
  Finished back-transformation of eigenvectors
  | Time :     0.000 s

  Obtaining occupation numbers and electronic chemical potential using ELSI.
  | Note that, for insulating systems, the printed 'chemical potential' value is not uniquely defined.
  | It can be anywhere in the energy gap, as long as it correctly separates occupied and unoccupied states.
  | In systems with a gap, the physically relevant chemical potential is the VBM or HOMO.

  | Chemical potential (Fermi level):    -6.16869024 eV
  Highest occupied state (VBM) at     -6.16869024 eV
  | Occupation number:      1.00000001

  Lowest unoccupied state (CBM) at    -6.16869024 eV
  | Occupation number:      0.99999999

  This system has fractional occupation numbers. Thus, it is a degenerate system
  within the approximate finite broadening function (occupation_type)
  applied to determine the occupation numbers.
  This may not be harmful. However, for some systems (free atoms), a different, non-degenerate
  ground state might exist by using a smaller broadening (see keyword occupation_type).
  Overall HOMO-LUMO gap:      0.00000000 eV.

  Total energy components:
  | Sum of eigenvalues            :        -211.86344904 Ha       -5765.09777329 eV
  | XC energy correction          :         -27.04174135 Ha        -735.84322151 eV
  | XC potential correction       :          36.82722455 Ha        1002.11976729 eV
  | Free-atom electrostatic energy:        -164.89547461 Ha       -4487.03416180 eV
  | Hartree energy correction     :          -0.30356212 Ha          -8.26034566 eV
  | Entropy correction            :          -0.00020734 Ha          -0.00564190 eV
  | ---------------------------
  | Total energy                  :        -367.27700257 Ha       -9994.11573496 eV
  | Total energy, T -> 0          :        -367.27720991 Ha       -9994.12137686 eV  <-- do not rely on this value for anything but (periodic) metals
  | Electronic free energy        :        -367.27741724 Ha       -9994.12701876 eV

  Derived energy quantities:
  | Kinetic energy                :         367.86261068 Ha       10010.05094237 eV
  | Electrostatic energy          :        -708.09787190 Ha      -19268.32345583 eV
  | Energy correction for multipole
  | error in Hartree potential    :          -0.00036295 Ha          -0.00987641 eV
  | Sum of eigenvalues per atom                           :       -2882.54888664 eV
  | Total energy (T->0) per atom                          :       -4997.06068843 eV  <-- do not rely on this value for anything but (periodic) metals
  | Electronic free energy per atom                       :       -4997.06350938 eV
  Evaluating new KS density.
  Integration grid: deviation in total charge (<rho> - N_e) =  -9.890151E-10

  Self-consistency convergence accuracy:
  | Change of charge density      :  0.1650E+00
  | Change of unmixed KS density  :  0.2519E+00
  | Change of sum of eigenvalues  :  0.6772E-01 eV
  | Change of total energy        :  0.2147E-01 eV


------------------------------------------------------------
  End self-consistency iteration #    13       :  max(cpu_time)    wall_clock(cpu1)
  | Time for this iteration                     :        0.264 s           0.263 s
  | Charge density update                       :        0.001 s           0.000 s
  | Density mixing                              :        0.257 s           0.256 s
  | Hartree multipole update                    :        0.001 s           0.002 s
  | Hartree multipole summation                 :        0.002 s           0.001 s
  | Integration                                 :        0.002 s           0.002 s
  | Solution of K.-S. eqns.                     :        0.001 s           0.001 s
  | Total energy evaluation                     :        0.000 s           0.000 s

  Partial memory accounting:
  | Current value for overall tracked memory usage:
  |   Minimum:        0.413 MB (on task 58)
  |   Maximum:        0.519 MB (on task 56)
  |   Average:        0.438 MB
  | Peak value for overall tracked memory usage:
  |   Minimum:        0.916 MB (on task 48 after allocating wave)
  |   Maximum:        1.028 MB (on task 56 after allocating wave)
  |   Average:        0.944 MB
  | Largest tracked array allocation so far:
  |   Minimum:        0.161 MB (gradient_basis_wave_store on task  0)
  |   Maximum:        0.164 MB (gradient_basis_wave_store on task  1)
  |   Average:        0.163 MB
  Note:  These values currently only include a subset of arrays which are explicitly tracked.
  The "true" memory usage will be greater.
------------------------------------------------------------

------------------------------------------------------------
          Begin self-consistency iteration #   14

  Date     :  20260724, Time     :  152915.517
------------------------------------------------------------
  Pulay mixing of updated and previous charge densities.
  Available memory per node after mixing [GB]:   1034.05
  Renormalizing the density to the exact electron count on the 3D integration grid.
  | Formal number of electrons (from input files) :      20.0000000000
  | Integrated number of electrons on 3D grid     :      20.0000000007
  | Charge integration error                      :       0.0000000007
  | Normalization factor for density and gradient :       1.0000000000

  Evaluating partitioned Hartree potential by multipole expansion.
  | Original multipole sum: apparent total charge =   0.355437E-14
  | Sum of charges compensated after spline to logarithmic grids =  -0.156976E-06
  | Analytical far-field extrapolation by fixed multipoles:
  | Hartree multipole sum: apparent total charge =   0.357897E-14
  Summing up the Hartree potential.
  Time summed over all CPUs for potential: real work        0.001 s, elapsed        0.001 s
  | RMS charge density error from multipole expansion :   0.122032E-02

  Integrating Hamiltonian matrix: batch-based integration.
  Time summed over all CPUs for integration: real work        0.095 s, elapsed        0.119 s

  Updating Kohn-Sham eigenvalues and eigenvectors using ELSI and the ELPA eigensolver.
  Starting ELPA eigensolver
  Finished transformation to standard eigenproblem
  | Time :     0.000 s
  Finished solving standard eigenproblem
  | Time :     0.001 s
  Finished back-transformation of eigenvectors
  | Time :     0.000 s

  Obtaining occupation numbers and electronic chemical potential using ELSI.
  | Note that, for insulating systems, the printed 'chemical potential' value is not uniquely defined.
  | It can be anywhere in the energy gap, as long as it correctly separates occupied and unoccupied states.
  | In systems with a gap, the physically relevant chemical potential is the VBM or HOMO.

  | Chemical potential (Fermi level):    -6.15920272 eV
  Highest occupied state (VBM) at     -6.15920272 eV
  | Occupation number:      1.00000001

  Lowest unoccupied state (CBM) at    -6.15920272 eV
  | Occupation number:      0.99999999

  This system has fractional occupation numbers. Thus, it is a degenerate system
  within the approximate finite broadening function (occupation_type)
  applied to determine the occupation numbers.
  This may not be harmful. However, for some systems (free atoms), a different, non-degenerate
  ground state might exist by using a smaller broadening (see keyword occupation_type).
  Overall HOMO-LUMO gap:      0.00000000 eV.

  Total energy components:
  | Sum of eigenvalues            :        -211.86806993 Ha       -5765.22351411 eV
  | XC energy correction          :         -27.04060345 Ha        -735.81225762 eV
  | XC potential correction       :          36.82560089 Ha        1002.07558514 eV
  | Free-atom electrostatic energy:        -164.89547461 Ha       -4487.03416180 eV
  | Hartree energy correction     :          -0.30023455 Ha          -8.16979772 eV
  | Entropy correction            :          -0.00020734 Ha          -0.00564190 eV
  | ---------------------------
  | Total energy                  :        -367.27878165 Ha       -9994.16414611 eV
  | Total energy, T -> 0          :        -367.27898898 Ha       -9994.16978800 eV  <-- do not rely on this value for anything but (periodic) metals
  | Electronic free energy        :        -367.27919632 Ha       -9994.17542990 eV

  Derived energy quantities:
  | Kinetic energy                :         367.85122313 Ha       10009.74107148 eV
  | Electrostatic energy          :        -708.08940133 Ha      -19268.09295997 eV
  | Energy correction for multipole
  | error in Hartree potential    :          -0.00038729 Ha          -0.01053871 eV
  | Sum of eigenvalues per atom                           :       -2882.61175705 eV
  | Total energy (T->0) per atom                          :       -4997.08489400 eV  <-- do not rely on this value for anything but (periodic) metals
  | Electronic free energy per atom                       :       -4997.08771495 eV
  Evaluating new KS density.
  Integration grid: deviation in total charge (<rho> - N_e) =   6.326957E-10

  Self-consistency convergence accuracy:
  | Change of charge density      :  0.1628E+00
  | Change of unmixed KS density  :  0.9110E-03
  | Change of sum of eigenvalues  : -0.1257E+00 eV
  | Change of total energy        : -0.4841E-01 eV


------------------------------------------------------------
  End self-consistency iteration #    14       :  max(cpu_time)    wall_clock(cpu1)
  | Time for this iteration                     :        0.275 s           0.112 s
  | Charge density update                       :        0.001 s           0.001 s
  | Density mixing                              :        0.267 s           0.104 s
  | Hartree multipole update                    :        0.001 s           0.002 s
  | Hartree multipole summation                 :        0.002 s           0.002 s
  | Integration                                 :        0.002 s           0.002 s
  | Solution of K.-S. eqns.                     :        0.001 s           0.001 s
  | Total energy evaluation                     :        0.000 s           0.000 s

  Partial memory accounting:
  | Current value for overall tracked memory usage:
  |   Minimum:        0.413 MB (on task 58)
  |   Maximum:        0.519 MB (on task 56)
  |   Average:        0.438 MB
  | Peak value for overall tracked memory usage:
  |   Minimum:        0.916 MB (on task 48 after allocating wave)
  |   Maximum:        1.028 MB (on task 56 after allocating wave)
  |   Average:        0.944 MB
  | Largest tracked array allocation so far:
  |   Minimum:        0.161 MB (gradient_basis_wave_store on task  0)
  |   Maximum:        0.164 MB (gradient_basis_wave_store on task  1)
  |   Average:        0.163 MB
  Note:  These values currently only include a subset of arrays which are explicitly tracked.
  The "true" memory usage will be greater.
------------------------------------------------------------

------------------------------------------------------------
          Begin self-consistency iteration #   15

  Date     :  20260724, Time     :  152915.641
------------------------------------------------------------
  Pulay mixing of updated and previous charge densities.
  Available memory per node after mixing [GB]:   1034.05
  Renormalizing the density to the exact electron count on the 3D integration grid.
  | Formal number of electrons (from input files) :      20.0000000000
  | Integrated number of electrons on 3D grid     :      19.9999999969
  | Charge integration error                      :      -0.0000000031
  | Normalization factor for density and gradient :       1.0000000002

  Evaluating partitioned Hartree potential by multipole expansion.
  | Original multipole sum: apparent total charge =   0.725633E-15
  | Sum of charges compensated after spline to logarithmic grids =  -0.150184E-06
  | Analytical far-field extrapolation by fixed multipoles:
  | Hartree multipole sum: apparent total charge =   0.817875E-15
  Summing up the Hartree potential.
  Time summed over all CPUs for potential: real work        0.001 s, elapsed        0.001 s
  | RMS charge density error from multipole expansion :   0.120125E-02

  Integrating Hamiltonian matrix: batch-based integration.
  Time summed over all CPUs for integration: real work        0.094 s, elapsed        0.106 s

  Updating Kohn-Sham eigenvalues and eigenvectors using ELSI and the ELPA eigensolver.
  Starting ELPA eigensolver
  Finished transformation to standard eigenproblem
  | Time :     0.001 s
  Finished solving standard eigenproblem
  | Time :     0.000 s
  Finished back-transformation of eigenvectors
  | Time :     0.000 s

  Obtaining occupation numbers and electronic chemical potential using ELSI.
  | Note that, for insulating systems, the printed 'chemical potential' value is not uniquely defined.
  | It can be anywhere in the energy gap, as long as it correctly separates occupied and unoccupied states.
  | In systems with a gap, the physically relevant chemical potential is the VBM or HOMO.

  | Chemical potential (Fermi level):    -6.17835848 eV
  Highest occupied state (VBM) at     -6.17835849 eV
  | Occupation number:      1.00000016

  Lowest unoccupied state (CBM) at    -6.17835848 eV
  | Occupation number:      0.99999983

  This system has fractional occupation numbers. Thus, it is a degenerate system
  within the approximate finite broadening function (occupation_type)
  applied to determine the occupation numbers.
  This may not be harmful. However, for some systems (free atoms), a different, non-degenerate
  ground state might exist by using a smaller broadening (see keyword occupation_type).
  Overall HOMO-LUMO gap:      0.00000000 eV.

  Total energy components:
  | Sum of eigenvalues            :        -211.86632451 Ha       -5765.17601877 eV
  | XC energy correction          :         -27.04232214 Ha        -735.85902543 eV
  | XC potential correction       :          36.82803065 Ha        1002.14170252 eV
  | Free-atom electrostatic energy:        -164.89547461 Ha       -4487.03416180 eV
  | Hartree energy correction     :          -0.29954367 Ha          -8.15099807 eV
  | Entropy correction            :          -0.00020734 Ha          -0.00564190 eV
  | ---------------------------
  | Total energy                  :        -367.27563427 Ha       -9994.07850154 eV
  | Total energy, T -> 0          :        -367.27584160 Ha       -9994.08414344 eV  <-- do not rely on this value for anything but (periodic) metals
  | Electronic free energy        :        -367.27604894 Ha       -9994.08978533 eV

  Derived energy quantities:
  | Kinetic energy                :         367.87036409 Ha       10010.26192350 eV
  | Electrostatic energy          :        -708.10367622 Ha      -19268.48139961 eV
  | Energy correction for multipole
  | error in Hartree potential    :          -0.00035166 Ha          -0.00956920 eV
  | Sum of eigenvalues per atom                           :       -2882.58800938 eV
  | Total energy (T->0) per atom                          :       -4997.04207172 eV  <-- do not rely on this value for anything but (periodic) metals
  | Electronic free energy per atom                       :       -4997.04489267 eV
  Evaluating new KS density.
  Integration grid: deviation in total charge (<rho> - N_e) =  -7.819949E-10

  Self-consistency convergence accuracy:
  | Change of charge density      :  0.1680E+00
  | Change of unmixed KS density  :  0.1954E-02
  | Change of sum of eigenvalues  :  0.4750E-01 eV
  | Change of total energy        :  0.8564E-01 eV


------------------------------------------------------------
  End self-consistency iteration #    15       :  max(cpu_time)    wall_clock(cpu1)
  | Time for this iteration                     :        0.261 s           0.260 s
  | Charge density update                       :        0.001 s           0.000 s
  | Density mixing                              :        0.254 s           0.254 s
  | Hartree multipole update                    :        0.001 s           0.001 s
  | Hartree multipole summation                 :        0.002 s           0.002 s
  | Integration                                 :        0.002 s           0.001 s
  | Solution of K.-S. eqns.                     :        0.001 s           0.001 s
  | Total energy evaluation                     :        0.000 s           0.000 s

  Partial memory accounting:
  | Current value for overall tracked memory usage:
  |   Minimum:        0.413 MB (on task 58)
  |   Maximum:        0.519 MB (on task 56)
  |   Average:        0.438 MB
  | Peak value for overall tracked memory usage:
  |   Minimum:        0.916 MB (on task 48 after allocating wave)
  |   Maximum:        1.028 MB (on task 56 after allocating wave)
  |   Average:        0.944 MB
  | Largest tracked array allocation so far:
  |   Minimum:        0.161 MB (gradient_basis_wave_store on task  0)
  |   Maximum:        0.164 MB (gradient_basis_wave_store on task  1)
  |   Average:        0.163 MB
  Note:  These values currently only include a subset of arrays which are explicitly tracked.
  The "true" memory usage will be greater.
------------------------------------------------------------

------------------------------------------------------------
          Begin self-consistency iteration #   16

  Date     :  20260724, Time     :  152916.088
------------------------------------------------------------
  Pulay mixing of updated and previous charge densities.
  Available memory per node after mixing [GB]:   1034.05
  Renormalizing the density to the exact electron count on the 3D integration grid.
  | Formal number of electrons (from input files) :      20.0000000000
  | Integrated number of electrons on 3D grid     :      19.9999999976
  | Charge integration error                      :      -0.0000000024
  | Normalization factor for density and gradient :       1.0000000001

  Evaluating partitioned Hartree potential by multipole expansion.
  | Original multipole sum: apparent total charge =   0.879369E-15
  | Sum of charges compensated after spline to logarithmic grids =  -0.146437E-06
  | Analytical far-field extrapolation by fixed multipoles:
  | Hartree multipole sum: apparent total charge =   0.928565E-15
  Summing up the Hartree potential.
  Time summed over all CPUs for potential: real work        0.001 s, elapsed        0.001 s
  | RMS charge density error from multipole expansion :   0.119095E-02

  Integrating Hamiltonian matrix: batch-based integration.
  Time summed over all CPUs for integration: real work        0.095 s, elapsed        0.107 s

  Updating Kohn-Sham eigenvalues and eigenvectors using ELSI and the ELPA eigensolver.
  Starting ELPA eigensolver
  Finished transformation to standard eigenproblem
  | Time :     0.000 s
  Finished solving standard eigenproblem
  | Time :     0.001 s
  Finished back-transformation of eigenvectors
  | Time :     0.000 s

  Obtaining occupation numbers and electronic chemical potential using ELSI.
  | Note that, for insulating systems, the printed 'chemical potential' value is not uniquely defined.
  | It can be anywhere in the energy gap, as long as it correctly separates occupied and unoccupied states.
  | In systems with a gap, the physically relevant chemical potential is the VBM or HOMO.

  | Chemical potential (Fermi level):    -6.18506412 eV
  Highest occupied state (VBM) at     -6.18506413 eV
  | Occupation number:      1.00000028

  Lowest unoccupied state (CBM) at    -6.18506412 eV
  | Occupation number:      0.99999972

  This system has fractional occupation numbers. Thus, it is a degenerate system
  within the approximate finite broadening function (occupation_type)
  applied to determine the occupation numbers.
  This may not be harmful. However, for some systems (free atoms), a different, non-degenerate
  ground state might exist by using a smaller broadening (see keyword occupation_type).
  Overall HOMO-LUMO gap:      0.00000000 eV.

  Total energy components:
  | Sum of eigenvalues            :        -211.86483722 Ha       -5765.13554771 eV
  | XC energy correction          :         -27.04288368 Ha        -735.87430587 eV
  | XC potential correction       :          36.82884177 Ha        1002.16377400 eV
  | Free-atom electrostatic energy:        -164.89547461 Ha       -4487.03416180 eV
  | Hartree energy correction     :          -0.30028865 Ha          -8.17126999 eV
  | Entropy correction            :          -0.00020734 Ha          -0.00564190 eV
  | ---------------------------
  | Total energy                  :        -367.27464240 Ha       -9994.05151137 eV
  | Total energy, T -> 0          :        -367.27484973 Ha       -9994.05715327 eV  <-- do not rely on this value for anything but (periodic) metals
  | Electronic free energy        :        -367.27505707 Ha       -9994.06279516 eV

  Derived energy quantities:
  | Kinetic energy                :         367.87685494 Ha       10010.43854839 eV
  | Electrostatic energy          :        -708.10861365 Ha      -19268.61575389 eV
  | Energy correction for multipole
  | error in Hartree potential    :          -0.00034100 Ha          -0.00927915 eV
  | Sum of eigenvalues per atom                           :       -2882.56777386 eV
  | Total energy (T->0) per atom                          :       -4997.02857663 eV  <-- do not rely on this value for anything but (periodic) metals
  | Electronic free energy per atom                       :       -4997.03139758 eV
  Evaluating new KS density.
  Integration grid: deviation in total charge (<rho> - N_e) =  -5.473666E-10

  Self-consistency convergence accuracy:
  | Change of charge density      :  0.1597E+00
  | Change of unmixed KS density  :  0.4055E-02
  | Change of sum of eigenvalues  :  0.4047E-01 eV
  | Change of total energy        :  0.2699E-01 eV


------------------------------------------------------------
  End self-consistency iteration #    16       :  max(cpu_time)    wall_clock(cpu1)
  | Time for this iteration                     :        0.282 s           0.107 s
  | Charge density update                       :        0.001 s           0.001 s
  | Density mixing                              :        0.275 s           0.100 s
  | Hartree multipole update                    :        0.001 s           0.001 s
  | Hartree multipole summation                 :        0.002 s           0.002 s
  | Integration                                 :        0.002 s           0.002 s
  | Solution of K.-S. eqns.                     :        0.001 s           0.001 s
  | Total energy evaluation                     :        0.000 s           0.000 s

  Partial memory accounting:
  | Current value for overall tracked memory usage:
  |   Minimum:        0.413 MB (on task 58)
  |   Maximum:        0.519 MB (on task 56)
  |   Average:        0.438 MB
  | Peak value for overall tracked memory usage:
  |   Minimum:        0.916 MB (on task 48 after allocating wave)
  |   Maximum:        1.028 MB (on task 56 after allocating wave)
  |   Average:        0.944 MB
  | Largest tracked array allocation so far:
  |   Minimum:        0.161 MB (gradient_basis_wave_store on task  0)
  |   Maximum:        0.164 MB (gradient_basis_wave_store on task  1)
  |   Average:        0.163 MB
  Note:  These values currently only include a subset of arrays which are explicitly tracked.
  The "true" memory usage will be greater.
------------------------------------------------------------

------------------------------------------------------------
          Begin self-consistency iteration #   17

  Date     :  20260724, Time     :  152916.361
------------------------------------------------------------
  Pulay mixing of updated and previous charge densities.
  Available memory per node after mixing [GB]:   1034.05
  Renormalizing the density to the exact electron count on the 3D integration grid.
  | Formal number of electrons (from input files) :      20.0000000000
  | Integrated number of electrons on 3D grid     :      19.9999999930
  | Charge integration error                      :      -0.0000000070
  | Normalization factor for density and gradient :       1.0000000004

  Evaluating partitioned Hartree potential by multipole expansion.
  | Original multipole sum: apparent total charge =   0.971611E-15
  | Sum of charges compensated after spline to logarithmic grids =  -0.113695E-06
  | Analytical far-field extrapolation by fixed multipoles:
  | Hartree multipole sum: apparent total charge =   0.953162E-15
  Summing up the Hartree potential.
  Time summed over all CPUs for potential: real work        0.001 s, elapsed        0.001 s
  | RMS charge density error from multipole expansion :   0.114144E-02

  Integrating Hamiltonian matrix: batch-based integration.
  Time summed over all CPUs for integration: real work        0.095 s, elapsed        0.117 s

  Updating Kohn-Sham eigenvalues and eigenvectors using ELSI and the ELPA eigensolver.
  Starting ELPA eigensolver
  Finished transformation to standard eigenproblem
  | Time :     0.001 s
  Finished solving standard eigenproblem
  | Time :     0.000 s
  Finished back-transformation of eigenvectors
  | Time :     0.000 s

  Obtaining occupation numbers and electronic chemical potential using ELSI.
  | Note that, for insulating systems, the printed 'chemical potential' value is not uniquely defined.
  | It can be anywhere in the energy gap, as long as it correctly separates occupied and unoccupied states.
  | In systems with a gap, the physically relevant chemical potential is the VBM or HOMO.

  | Chemical potential (Fermi level):    -6.20371361 eV
  Highest occupied state (VBM) at     -6.22625731 eV
  | Occupation number:      1.99856819

  Lowest unoccupied state (CBM) at    -6.18262757 eV
  | Occupation number:      0.00286357

  Overall HOMO-LUMO gap:      0.04362974 eV.

  Total energy components:
  | Sum of eigenvalues            :        -211.83963101 Ha       -5764.44965172 eV
  | XC energy correction          :         -27.04922121 Ha        -736.04675890 eV
  | XC potential correction       :          36.83761631 Ha        1002.40254155 eV
  | Free-atom electrostatic energy:        -164.89547461 Ha       -4487.03416180 eV
  | Hartree energy correction     :          -0.32413945 Ha          -8.82028313 eV
  | Entropy correction            :          -0.00000250 Ha          -0.00006808 eV
  | ---------------------------
  | Total energy                  :        -367.27084996 Ha       -9993.94831401 eV
  | Total energy, T -> 0          :        -367.27085247 Ha       -9993.94838209 eV  <-- do not rely on this value for anything but (periodic) metals
  | Electronic free energy        :        -367.27085497 Ha       -9993.94845018 eV

  Derived energy quantities:
  | Kinetic energy                :         367.91996202 Ha       10011.61155188 eV
  | Electrostatic energy          :        -708.14159077 Ha      -19269.51310698 eV
  | Energy correction for multipole
  | error in Hartree potential    :          -0.00023398 Ha          -0.00636694 eV
  | Sum of eigenvalues per atom                           :       -2882.22482586 eV
  | Total energy (T->0) per atom                          :       -4996.97419105 eV  <-- do not rely on this value for anything but (periodic) metals
  | Electronic free energy per atom                       :       -4996.97422509 eV
  Evaluating new KS density.
  Integration grid: deviation in total charge (<rho> - N_e) =  -2.695941E-10

  Self-consistency convergence accuracy:
  | Change of charge density      :  0.1568E+00
  | Change of unmixed KS density  :  0.1142E-02
  | Change of sum of eigenvalues  :  0.6859E+00 eV
  | Change of total energy        :  0.1032E+00 eV


------------------------------------------------------------
  End self-consistency iteration #    17       :  max(cpu_time)    wall_clock(cpu1)
  | Time for this iteration                     :        0.259 s           0.103 s
  | Charge density update                       :        0.001 s           0.000 s
  | Density mixing                              :        0.252 s           0.096 s
  | Hartree multipole update                    :        0.001 s           0.001 s
  | Hartree multipole summation                 :        0.002 s           0.002 s
  | Integration                                 :        0.002 s           0.002 s
  | Solution of K.-S. eqns.                     :        0.001 s           0.001 s
  | Total energy evaluation                     :        0.000 s           0.000 s

  Partial memory accounting:
  | Current value for overall tracked memory usage:
  |   Minimum:        0.413 MB (on task 58)
  |   Maximum:        0.519 MB (on task 56)
  |   Average:        0.438 MB
  | Peak value for overall tracked memory usage:
  |   Minimum:        0.916 MB (on task 48 after allocating wave)
  |   Maximum:        1.028 MB (on task 56 after allocating wave)
  |   Average:        0.944 MB
  | Largest tracked array allocation so far:
  |   Minimum:        0.161 MB (gradient_basis_wave_store on task  0)
  |   Maximum:        0.164 MB (gradient_basis_wave_store on task  1)
  |   Average:        0.163 MB
  Note:  These values currently only include a subset of arrays which are explicitly tracked.
  The "true" memory usage will be greater.
------------------------------------------------------------

------------------------------------------------------------
          Begin self-consistency iteration #   18

  Date     :  20260724, Time     :  152916.476
------------------------------------------------------------
  Pulay mixing of updated and previous charge densities.
  Available memory per node after mixing [GB]:   1034.05
  Renormalizing the density to the exact electron count on the 3D integration grid.
  | Formal number of electrons (from input files) :      20.0000000000
  | Integrated number of electrons on 3D grid     :      20.0000000001
  | Charge integration error                      :       0.0000000001
  | Normalization factor for density and gradient :       1.0000000000

  Evaluating partitioned Hartree potential by multipole expansion.
  | Original multipole sum: apparent total charge =  -0.457825E-14
  | Sum of charges compensated after spline to logarithmic grids =  -0.113914E-06
  | Analytical far-field extrapolation by fixed multipoles:
  | Hartree multipole sum: apparent total charge =  -0.462437E-14
  Summing up the Hartree potential.
  Time summed over all CPUs for potential: real work        0.001 s, elapsed        0.001 s
  | RMS charge density error from multipole expansion :   0.113864E-02

  Integrating Hamiltonian matrix: batch-based integration.
  Time summed over all CPUs for integration: real work        0.095 s, elapsed        0.112 s

  Updating Kohn-Sham eigenvalues and eigenvectors using ELSI and the ELPA eigensolver.
  Starting ELPA eigensolver
  Finished transformation to standard eigenproblem
  | Time :     0.001 s
  Finished solving standard eigenproblem
  | Time :     0.000 s
  Finished back-transformation of eigenvectors
  | Time :     0.000 s

  Obtaining occupation numbers and electronic chemical potential using ELSI.
  | Note that, for insulating systems, the printed 'chemical potential' value is not uniquely defined.
  | It can be anywhere in the energy gap, as long as it correctly separates occupied and unoccupied states.
  | In systems with a gap, the physically relevant chemical potential is the VBM or HOMO.

  | Chemical potential (Fermi level):    -6.20523213 eV
  Highest occupied state (VBM) at     -6.22865659 eV
  | Occupation number:      1.99907607

  Lowest unoccupied state (CBM) at    -6.18321525 eV
  | Occupation number:      0.00184784

  Overall HOMO-LUMO gap:      0.04544135 eV.

  Total energy components:
  | Sum of eigenvalues            :        -211.84194161 Ha       -5764.51252640 eV
  | XC energy correction          :         -27.04912955 Ha        -736.04426459 eV
  | XC potential correction       :          36.83748787 Ha        1002.39904643 eV
  | Free-atom electrostatic energy:        -164.89547461 Ha       -4487.03416180 eV
  | Hartree energy correction     :          -0.32185643 Ha          -8.75815916 eV
  | Entropy correction            :          -0.00000167 Ha          -0.00004550 eV
  | ---------------------------
  | Total energy                  :        -367.27091433 Ha       -9993.95006552 eV
  | Total energy, T -> 0          :        -367.27091600 Ha       -9993.95011101 eV  <-- do not rely on this value for anything but (periodic) metals
  | Electronic free energy        :        -367.27091767 Ha       -9993.95015651 eV

  Derived energy quantities:
  | Kinetic energy                :         367.91961398 Ha       10011.60208123 eV
  | Electrostatic energy          :        -708.14139876 Ha      -19269.50788215 eV
  | Energy correction for multipole
  | error in Hartree potential    :          -0.00023183 Ha          -0.00630853 eV
  | Sum of eigenvalues per atom                           :       -2882.25626320 eV
  | Total energy (T->0) per atom                          :       -4996.97505551 eV  <-- do not rely on this value for anything but (periodic) metals
  | Electronic free energy per atom                       :       -4996.97507826 eV
  Evaluating new KS density.
  Integration grid: deviation in total charge (<rho> - N_e) =  -3.511538E-10

  Self-consistency convergence accuracy:
  | Change of charge density      :  0.1122E+00
  | Change of unmixed KS density  :  0.2489E+00
  | Change of sum of eigenvalues  : -0.6287E-01 eV
  | Change of total energy        : -0.1752E-02 eV


------------------------------------------------------------
  End self-consistency iteration #    18       :  max(cpu_time)    wall_clock(cpu1)
  | Time for this iteration                     :        0.280 s           0.280 s
  | Charge density update                       :        0.001 s           0.001 s
  | Density mixing                              :        0.272 s           0.272 s
  | Hartree multipole update                    :        0.001 s           0.002 s
  | Hartree multipole summation                 :        0.002 s           0.001 s
  | Integration                                 :        0.002 s           0.002 s
  | Solution of K.-S. eqns.                     :        0.001 s           0.002 s
  | Total energy evaluation                     :        0.000 s           0.000 s

  Partial memory accounting:
  | Current value for overall tracked memory usage:
  |   Minimum:        0.413 MB (on task 58)
  |   Maximum:        0.519 MB (on task 56)
  |   Average:        0.438 MB
  | Peak value for overall tracked memory usage:
  |   Minimum:        0.916 MB (on task 48 after allocating wave)
  |   Maximum:        1.028 MB (on task 56 after allocating wave)
  |   Average:        0.944 MB
  | Largest tracked array allocation so far:
  |   Minimum:        0.161 MB (gradient_basis_wave_store on task  0)
  |   Maximum:        0.164 MB (gradient_basis_wave_store on task  1)
  |   Average:        0.163 MB
  Note:  These values currently only include a subset of arrays which are explicitly tracked.
  The "true" memory usage will be greater.
------------------------------------------------------------

------------------------------------------------------------
          Begin self-consistency iteration #   19

  Date     :  20260724, Time     :  152916.832
------------------------------------------------------------
  Pulay mixing of updated and previous charge densities.
  Available memory per node after mixing [GB]:   1034.05
  Renormalizing the density to the exact electron count on the 3D integration grid.
  | Formal number of electrons (from input files) :      20.0000000000
  | Integrated number of electrons on 3D grid     :      19.9999999993
  | Charge integration error                      :      -0.0000000007
  | Normalization factor for density and gradient :       1.0000000000

  Evaluating partitioned Hartree potential by multipole expansion.
  | Original multipole sum: apparent total charge =   0.180793E-14
  | Sum of charges compensated after spline to logarithmic grids =  -0.109790E-06
  | Analytical far-field extrapolation by fixed multipoles:
  | Hartree multipole sum: apparent total charge =   0.191247E-14
  Summing up the Hartree potential.
  Time summed over all CPUs for potential: real work        0.001 s, elapsed        0.001 s
  | RMS charge density error from multipole expansion :   0.113314E-02

  Integrating Hamiltonian matrix: batch-based integration.
  Time summed over all CPUs for integration: real work        0.095 s, elapsed        0.110 s

  Updating Kohn-Sham eigenvalues and eigenvectors using ELSI and the ELPA eigensolver.
  Starting ELPA eigensolver
  Finished transformation to standard eigenproblem
  | Time :     0.000 s
  Finished solving standard eigenproblem
  | Time :     0.001 s
  Finished back-transformation of eigenvectors
  | Time :     0.000 s

  Obtaining occupation numbers and electronic chemical potential using ELSI.
  | Note that, for insulating systems, the printed 'chemical potential' value is not uniquely defined.
  | It can be anywhere in the energy gap, as long as it correctly separates occupied and unoccupied states.
  | In systems with a gap, the physically relevant chemical potential is the VBM or HOMO.

  | Chemical potential (Fermi level):    -6.19959654 eV
  Highest occupied state (VBM) at     -6.23294819 eV
  | Occupation number:      1.99999760

  Lowest unoccupied state (CBM) at    -6.16725665 eV
  | Occupation number:      0.00000480

  Overall HOMO-LUMO gap:      0.06569153 eV.

  Total energy components:
  | Sum of eigenvalues            :        -211.83893382 Ha       -5764.43068027 eV
  | XC energy correction          :         -27.05006878 Ha        -736.06982221 eV
  | XC potential correction       :          36.83877162 Ha        1002.43397899 eV
  | Free-atom electrostatic energy:        -164.89547461 Ha       -4487.03416180 eV
  | Hartree energy correction     :          -0.32592046 Ha          -8.86874694 eV
  | Entropy correction            :          -0.00000001 Ha          -0.00000016 eV
  | ---------------------------
  | Total energy                  :        -367.27162604 Ha       -9993.96943223 eV
  | Total energy, T -> 0          :        -367.27162605 Ha       -9993.96943240 eV  <-- do not rely on this value for anything but (periodic) metals
  | Electronic free energy        :        -367.27162606 Ha       -9993.96943256 eV

  Derived energy quantities:
  | Kinetic energy                :         367.92451940 Ha       10011.73556447 eV
  | Electrostatic energy          :        -708.14607667 Ha      -19269.63517449 eV
  | Energy correction for multipole
  | error in Hartree potential    :          -0.00021944 Ha          -0.00597132 eV
  | Sum of eigenvalues per atom                           :       -2882.21534014 eV
  | Total energy (T->0) per atom                          :       -4996.98471620 eV  <-- do not rely on this value for anything but (periodic) metals
  | Electronic free energy per atom                       :       -4996.98471628 eV
  Evaluating new KS density.
  Integration grid: deviation in total charge (<rho> - N_e) =  -1.772307E-10

  Self-consistency convergence accuracy:
  | Change of charge density      :  0.1125E+00
  | Change of unmixed KS density  :  0.2992E-03
  | Change of sum of eigenvalues  :  0.8185E-01 eV
  | Change of total energy        : -0.1937E-01 eV


------------------------------------------------------------
  End self-consistency iteration #    19       :  max(cpu_time)    wall_clock(cpu1)
  | Time for this iteration                     :        0.293 s           0.229 s
  | Charge density update                       :        0.001 s           0.001 s
  | Density mixing                              :        0.286 s           0.222 s
  | Hartree multipole update                    :        0.001 s           0.001 s
  | Hartree multipole summation                 :        0.002 s           0.002 s
  | Integration                                 :        0.002 s           0.002 s
  | Solution of K.-S. eqns.                     :        0.001 s           0.001 s
  | Total energy evaluation                     :        0.000 s           0.000 s

  Partial memory accounting:
  | Current value for overall tracked memory usage:
  |   Minimum:        0.413 MB (on task 58)
  |   Maximum:        0.519 MB (on task 56)
  |   Average:        0.438 MB
  | Peak value for overall tracked memory usage:
  |   Minimum:        0.916 MB (on task 48 after allocating wave)
  |   Maximum:        1.028 MB (on task 56 after allocating wave)
  |   Average:        0.944 MB
  | Largest tracked array allocation so far:
  |   Minimum:        0.161 MB (gradient_basis_wave_store on task  0)
  |   Maximum:        0.164 MB (gradient_basis_wave_store on task  1)
  |   Average:        0.163 MB
  Note:  These values currently only include a subset of arrays which are explicitly tracked.
  The "true" memory usage will be greater.
------------------------------------------------------------

------------------------------------------------------------
          Begin self-consistency iteration #   20

  Date     :  20260724, Time     :  152917.199
------------------------------------------------------------
  Pulay mixing of updated and previous charge densities.
  Available memory per node after mixing [GB]:   1034.05
  Renormalizing the density to the exact electron count on the 3D integration grid.
  | Formal number of electrons (from input files) :      20.0000000000
  | Integrated number of electrons on 3D grid     :      20.0000000008
  | Charge integration error                      :       0.0000000008
  | Normalization factor for density and gradient :       1.0000000000

  Evaluating partitioned Hartree potential by multipole expansion.
  | Original multipole sum: apparent total charge =  -0.139592E-14
  | Sum of charges compensated after spline to logarithmic grids =  -0.107377E-06
  | Analytical far-field extrapolation by fixed multipoles:
  | Hartree multipole sum: apparent total charge =  -0.136517E-14
  Summing up the Hartree potential.
  Time summed over all CPUs for potential: real work        0.001 s, elapsed        0.001 s
  | RMS charge density error from multipole expansion :   0.113549E-02

  Integrating Hamiltonian matrix: batch-based integration.
  Time summed over all CPUs for integration: real work        0.095 s, elapsed        0.107 s

  Updating Kohn-Sham eigenvalues and eigenvectors using ELSI and the ELPA eigensolver.
  Starting ELPA eigensolver
  Finished transformation to standard eigenproblem
  | Time :     0.000 s
  Finished solving standard eigenproblem
  | Time :     0.001 s
  Finished back-transformation of eigenvectors
  | Time :     0.000 s

  Obtaining occupation numbers and electronic chemical potential using ELSI.
  | Note that, for insulating systems, the printed 'chemical potential' value is not uniquely defined.
  | It can be anywhere in the energy gap, as long as it correctly separates occupied and unoccupied states.
  | In systems with a gap, the physically relevant chemical potential is the VBM or HOMO.

  | Chemical potential (Fermi level):    -6.19621681 eV
  Highest occupied state (VBM) at     -6.23077947 eV
  | Occupation number:      1.99999898

  Lowest unoccupied state (CBM) at    -6.16263208 eV
  | Occupation number:      0.00000204

  Overall HOMO-LUMO gap:      0.06814739 eV.

  Total energy components:
  | Sum of eigenvalues            :        -211.83476863 Ha       -5764.31733977 eV
  | XC energy correction          :         -27.05043675 Ha        -736.07983541 eV
  | XC potential correction       :          36.83927901 Ha        1002.44778585 eV
  | Free-atom electrostatic energy:        -164.89547461 Ha       -4487.03416180 eV
  | Hartree energy correction     :          -0.33030814 Ha          -8.98814190 eV
  | Entropy correction            :          -0.00000000 Ha          -0.00000007 eV
  | ---------------------------
  | Total energy                  :        -367.27170913 Ha       -9993.97169302 eV
  | Total energy, T -> 0          :        -367.27170913 Ha       -9993.97169309 eV  <-- do not rely on this value for anything but (periodic) metals
  | Electronic free energy        :        -367.27170913 Ha       -9993.97169316 eV

  Derived energy quantities:
  | Kinetic energy                :         367.92427046 Ha       10011.72879034 eV
  | Electrostatic energy          :        -708.14554283 Ha      -19269.62064795 eV
  | Energy correction for multipole
  | error in Hartree potential    :          -0.00021568 Ha          -0.00586901 eV
  | Sum of eigenvalues per atom                           :       -2882.15866989 eV
  | Total energy (T->0) per atom                          :       -4996.98584655 eV  <-- do not rely on this value for anything but (periodic) metals
  | Electronic free energy per atom                       :       -4996.98584658 eV
  Evaluating new KS density.
  Integration grid: deviation in total charge (<rho> - N_e) =  -1.173213E-10

  Self-consistency convergence accuracy:
  | Change of charge density      :  0.1159E+00
  | Change of unmixed KS density  :  0.1885E-02
  | Change of sum of eigenvalues  :  0.1133E+00 eV
  | Change of total energy        : -0.2261E-02 eV


------------------------------------------------------------
  End self-consistency iteration #    20       :  max(cpu_time)    wall_clock(cpu1)
  | Time for this iteration                     :        0.268 s           0.143 s
  | Charge density update                       :        0.001 s           0.001 s
  | Density mixing                              :        0.261 s           0.136 s
  | Hartree multipole update                    :        0.001 s           0.001 s
  | Hartree multipole summation                 :        0.002 s           0.002 s
  | Integration                                 :        0.002 s           0.002 s
  | Solution of K.-S. eqns.                     :        0.001 s           0.001 s
  | Total energy evaluation                     :        0.000 s           0.000 s

  Partial memory accounting:
  | Current value for overall tracked memory usage:
  |   Minimum:        0.413 MB (on task 58)
  |   Maximum:        0.519 MB (on task 56)
  |   Average:        0.438 MB
  | Peak value for overall tracked memory usage:
  |   Minimum:        0.916 MB (on task 48 after allocating wave)
  |   Maximum:        1.028 MB (on task 56 after allocating wave)
  |   Average:        0.944 MB
  | Largest tracked array allocation so far:
  |   Minimum:        0.161 MB (gradient_basis_wave_store on task  0)
  |   Maximum:        0.164 MB (gradient_basis_wave_store on task  1)
  |   Average:        0.163 MB
  Note:  These values currently only include a subset of arrays which are explicitly tracked.
  The "true" memory usage will be greater.
------------------------------------------------------------

------------------------------------------------------------
          Begin self-consistency iteration #   21

  Date     :  20260724, Time     :  152917.439
------------------------------------------------------------
  Pulay mixing of updated and previous charge densities.
  Available memory per node after mixing [GB]:   1034.05
  Renormalizing the density to the exact electron count on the 3D integration grid.
  | Formal number of electrons (from input files) :      20.0000000000
  | Integrated number of electrons on 3D grid     :      20.0000000003
  | Charge integration error                      :       0.0000000003
  | Normalization factor for density and gradient :       1.0000000000

  Evaluating partitioned Hartree potential by multipole expansion.
  | Original multipole sum: apparent total charge =  -0.127908E-14
  | Sum of charges compensated after spline to logarithmic grids =  -0.117077E-06
  | Analytical far-field extrapolation by fixed multipoles:
  | Hartree multipole sum: apparent total charge =  -0.134058E-14
  Summing up the Hartree potential.
  Time summed over all CPUs for potential: real work        0.001 s, elapsed        0.001 s
  | RMS charge density error from multipole expansion :   0.114366E-02

  Integrating Hamiltonian matrix: batch-based integration.
  Time summed over all CPUs for integration: real work        0.095 s, elapsed        0.109 s

  Updating Kohn-Sham eigenvalues and eigenvectors using ELSI and the ELPA eigensolver.
  Starting ELPA eigensolver
  Finished transformation to standard eigenproblem
  | Time :     0.001 s
  Finished solving standard eigenproblem
  | Time :     0.000 s
  Finished back-transformation of eigenvectors
  | Time :     0.000 s

  Obtaining occupation numbers and electronic chemical potential using ELSI.
  | Note that, for insulating systems, the printed 'chemical potential' value is not uniquely defined.
  | It can be anywhere in the energy gap, as long as it correctly separates occupied and unoccupied states.
  | In systems with a gap, the physically relevant chemical potential is the VBM or HOMO.

  | Chemical potential (Fermi level):    -6.20922786 eV
  Highest occupied state (VBM) at     -6.22642486 eV
  | Occupation number:      1.98498528

  Lowest unoccupied state (CBM) at    -6.19388571 eV
  | Occupation number:      0.03002905

  Overall HOMO-LUMO gap:      0.03253915 eV.

  Total energy components:
  | Sum of eigenvalues            :        -211.84449986 Ha       -5764.58213977 eV
  | XC energy correction          :         -27.04852195 Ha        -736.02773087 eV
  | XC potential correction       :          36.83664418 Ha        1002.37608854 eV
  | Free-atom electrostatic energy:        -164.89547461 Ha       -4487.03416180 eV
  | Hartree energy correction     :          -0.31858699 Ha          -8.66919305 eV
  | Entropy correction            :          -0.00002062 Ha          -0.00056113 eV
  | ---------------------------
  | Total energy                  :        -367.27043921 Ha       -9993.93713694 eV
  | Total energy, T -> 0          :        -367.27045984 Ha       -9993.93769807 eV  <-- do not rely on this value for anything but (periodic) metals
  | Electronic free energy        :        -367.27048046 Ha       -9993.93825920 eV

  Derived energy quantities:
  | Kinetic energy                :         367.91627865 Ha       10011.51132206 eV
  | Electrostatic energy          :        -708.13819591 Ha      -19269.42072813 eV
  | Energy correction for multipole
  | error in Hartree potential    :          -0.00023929 Ha          -0.00651154 eV
  | Sum of eigenvalues per atom                           :       -2882.29106988 eV
  | Total energy (T->0) per atom                          :       -4996.96884903 eV  <-- do not rely on this value for anything but (periodic) metals
  | Electronic free energy per atom                       :       -4996.96912960 eV
  Evaluating new KS density.
  Integration grid: deviation in total charge (<rho> - N_e) =  -1.385629E-10

  Self-consistency convergence accuracy:
  | Change of charge density      :  0.1170E+00
  | Change of unmixed KS density  :  0.3952E-03
  | Change of sum of eigenvalues  : -0.2648E+00 eV
  | Change of total energy        :  0.3456E-01 eV


------------------------------------------------------------
  End self-consistency iteration #    21       :  max(cpu_time)    wall_clock(cpu1)
  | Time for this iteration                     :        0.260 s           0.174 s
  | Charge density update                       :        0.001 s           0.000 s
  | Density mixing                              :        0.253 s           0.168 s
  | Hartree multipole update                    :        0.001 s           0.001 s
  | Hartree multipole summation                 :        0.002 s           0.001 s
  | Integration                                 :        0.002 s           0.002 s
  | Solution of K.-S. eqns.                     :        0.001 s           0.001 s
  | Total energy evaluation                     :        0.000 s           0.000 s

  Partial memory accounting:
  | Current value for overall tracked memory usage:
  |   Minimum:        0.413 MB (on task 58)
  |   Maximum:        0.519 MB (on task 56)
  |   Average:        0.438 MB
  | Peak value for overall tracked memory usage:
  |   Minimum:        0.916 MB (on task 48 after allocating wave)
  |   Maximum:        1.028 MB (on task 56 after allocating wave)
  |   Average:        0.944 MB
  | Largest tracked array allocation so far:
  |   Minimum:        0.161 MB (gradient_basis_wave_store on task  0)
  |   Maximum:        0.164 MB (gradient_basis_wave_store on task  1)
  |   Average:        0.163 MB
  Note:  These values currently only include a subset of arrays which are explicitly tracked.
  The "true" memory usage will be greater.
------------------------------------------------------------

------------------------------------------------------------
          Begin self-consistency iteration #   22

  Date     :  20260724, Time     :  152917.625
------------------------------------------------------------
  Pulay mixing of updated and previous charge densities.
  Available memory per node after mixing [GB]:   1034.05
  Renormalizing the density to the exact electron count on the 3D integration grid.
  | Formal number of electrons (from input files) :      20.0000000000
  | Integrated number of electrons on 3D grid     :      19.9999999943
  | Charge integration error                      :      -0.0000000057
  | Normalization factor for density and gradient :       1.0000000003

  Evaluating partitioned Hartree potential by multipole expansion.
  | Original multipole sum: apparent total charge =  -0.399713E-15
  | Sum of charges compensated after spline to logarithmic grids =  -0.125776E-06
  | Analytical far-field extrapolation by fixed multipoles:
  | Hartree multipole sum: apparent total charge =  -0.368966E-15
  Summing up the Hartree potential.
  Time summed over all CPUs for potential: real work        0.001 s, elapsed        0.001 s
  | RMS charge density error from multipole expansion :   0.113822E-02

  Integrating Hamiltonian matrix: batch-based integration.
  Time summed over all CPUs for integration: real work        0.095 s, elapsed        0.105 s

  Updating Kohn-Sham eigenvalues and eigenvectors using ELSI and the ELPA eigensolver.
  Starting ELPA eigensolver
  Finished transformation to standard eigenproblem
  | Time :     0.000 s
  Finished solving standard eigenproblem
  | Time :     0.001 s
  Finished back-transformation of eigenvectors
  | Time :     0.000 s

  Obtaining occupation numbers and electronic chemical potential using ELSI.
  | Note that, for insulating systems, the printed 'chemical potential' value is not uniquely defined.
  | It can be anywhere in the energy gap, as long as it correctly separates occupied and unoccupied states.
  | In systems with a gap, the physically relevant chemical potential is the VBM or HOMO.

  | Chemical potential (Fermi level):    -6.21994611 eV
  Highest occupied state (VBM) at     -6.23291729 eV
  | Occupation number:      1.93340561

  Lowest unoccupied state (CBM) at    -6.20932780 eV
  | Occupation number:      0.13318613

  This system has fractional occupation numbers. Thus, it is a degenerate system
  within the approximate finite broadening function (occupation_type)
  applied to determine the occupation numbers.
  This may not be harmful. However, for some systems (free atoms), a different, non-degenerate
  ground state might exist by using a smaller broadening (see keyword occupation_type).
  Overall HOMO-LUMO gap:      0.00000000 eV.

  Total energy components:
  | Sum of eigenvalues            :        -211.85996231 Ha       -5765.00289461 eV
  | XC energy correction          :         -27.04713709 Ha        -735.99004708 eV
  | XC potential correction       :          36.83471420 Ha        1002.32357114 eV
  | Free-atom electrostatic energy:        -164.89547461 Ha       -4487.03416180 eV
  | Hartree energy correction     :          -0.30222565 Ha          -8.22397843 eV
  | Entropy correction            :          -0.00007212 Ha          -0.00196240 eV
  | ---------------------------
  | Total energy                  :        -367.27008546 Ha       -9993.92751078 eV
  | Total energy, T -> 0          :        -367.27015758 Ha       -9993.92947318 eV  <-- do not rely on this value for anything but (periodic) metals
  | Electronic free energy        :        -367.27022969 Ha       -9993.93143558 eV

  Derived energy quantities:
  | Kinetic energy                :         367.91343403 Ha       10011.43391618 eV
  | Electrostatic energy          :        -708.13638240 Ha      -19269.37137988 eV
  | Energy correction for multipole
  | error in Hartree potential    :          -0.00025614 Ha          -0.00696988 eV
  | Sum of eigenvalues per atom                           :       -2882.50144731 eV
  | Total energy (T->0) per atom                          :       -4996.96473659 eV  <-- do not rely on this value for anything but (periodic) metals
  | Electronic free energy per atom                       :       -4996.96571779 eV
  Evaluating new KS density.
  Integration grid: deviation in total charge (<rho> - N_e) =  -5.601137E-10

  Self-consistency convergence accuracy:
  | Change of charge density      :  0.1069E+00
  | Change of unmixed KS density  :  0.5622E-02
  | Change of sum of eigenvalues  : -0.4208E+00 eV
  | Change of total energy        :  0.9626E-02 eV


------------------------------------------------------------
  End self-consistency iteration #    22       :  max(cpu_time)    wall_clock(cpu1)
  | Time for this iteration                     :        0.254 s           0.254 s
  | Charge density update                       :        0.001 s           0.001 s
  | Density mixing                              :        0.247 s           0.247 s
  | Hartree multipole update                    :        0.001 s           0.001 s
  | Hartree multipole summation                 :        0.002 s           0.002 s
  | Integration                                 :        0.002 s           0.002 s
  | Solution of K.-S. eqns.                     :        0.001 s           0.001 s
  | Total energy evaluation                     :        0.000 s           0.000 s

  Partial memory accounting:
  | Current value for overall tracked memory usage:
  |   Minimum:        0.413 MB (on task 58)
  |   Maximum:        0.519 MB (on task 56)
  |   Average:        0.438 MB
  | Peak value for overall tracked memory usage:
  |   Minimum:        0.916 MB (on task 48 after allocating wave)
  |   Maximum:        1.028 MB (on task 56 after allocating wave)
  |   Average:        0.944 MB
  | Largest tracked array allocation so far:
  |   Minimum:        0.161 MB (gradient_basis_wave_store on task  0)
  |   Maximum:        0.164 MB (gradient_basis_wave_store on task  1)
  |   Average:        0.163 MB
  Note:  These values currently only include a subset of arrays which are explicitly tracked.
  The "true" memory usage will be greater.
------------------------------------------------------------

------------------------------------------------------------
          Begin self-consistency iteration #   23

  Date     :  20260724, Time     :  152917.899
------------------------------------------------------------
  Pulay mixing of updated and previous charge densities.
  Available memory per node after mixing [GB]:   1034.05
  Renormalizing the density to the exact electron count on the 3D integration grid.
  | Formal number of electrons (from input files) :      20.0000000000
  | Integrated number of electrons on 3D grid     :      20.0000000150
  | Charge integration error                      :       0.0000000150
  | Normalization factor for density and gradient :       0.9999999992

  Evaluating partitioned Hartree potential by multipole expansion.
  | Original multipole sum: apparent total charge =  -0.307472E-15
  | Sum of charges compensated after spline to logarithmic grids =  -0.918083E-07
  | Analytical far-field extrapolation by fixed multipoles:
  | Hartree multipole sum: apparent total charge =  -0.264426E-15
  Summing up the Hartree potential.
  Time summed over all CPUs for potential: real work        0.001 s, elapsed        0.001 s
  | RMS charge density error from multipole expansion :   0.114799E-02

  Integrating Hamiltonian matrix: batch-based integration.
  Time summed over all CPUs for integration: real work        0.095 s, elapsed        0.108 s

  Updating Kohn-Sham eigenvalues and eigenvectors using ELSI and the ELPA eigensolver.
  Starting ELPA eigensolver
  Finished transformation to standard eigenproblem
  | Time :     0.001 s
  Finished solving standard eigenproblem
  | Time :     0.000 s
  Finished back-transformation of eigenvectors
  | Time :     0.000 s

  Obtaining occupation numbers and electronic chemical potential using ELSI.
  | Note that, for insulating systems, the printed 'chemical potential' value is not uniquely defined.
  | It can be anywhere in the energy gap, as long as it correctly separates occupied and unoccupied states.
  | In systems with a gap, the physically relevant chemical potential is the VBM or HOMO.

  | Chemical potential (Fermi level):    -6.17394607 eV
  Highest occupied state (VBM) at     -6.20985073 eV
  | Occupation number:      1.99999962

  Lowest unoccupied state (CBM) at    -6.13898606 eV
  | Occupation number:      0.00000076

  Overall HOMO-LUMO gap:      0.07086467 eV.

  Total energy components:
  | Sum of eigenvalues            :        -211.80135956 Ha       -5763.40823272 eV
  | XC energy correction          :         -27.05294128 Ha        -736.14798698 eV
  | XC potential correction       :          36.84277031 Ha        1002.54278899 eV
  | Free-atom electrostatic energy:        -164.89547461 Ha       -4487.03416180 eV
  | Hartree energy correction     :          -0.36480706 Ha          -9.92690529 eV
  | Entropy correction            :          -0.00000000 Ha          -0.00000003 eV
  | ---------------------------
  | Total energy                  :        -367.27181220 Ha       -9993.97449780 eV
  | Total energy, T -> 0          :        -367.27181220 Ha       -9993.97449783 eV  <-- do not rely on this value for anything but (periodic) metals
  | Electronic free energy        :        -367.27181220 Ha       -9993.97449786 eV

  Derived energy quantities:
  | Kinetic energy                :         367.92864483 Ha       10011.84782296 eV
  | Electrostatic energy          :        -708.14751575 Ha      -19269.67433378 eV
  | Energy correction for multipole
  | error in Hartree potential    :          -0.00019898 Ha          -0.00541448 eV
  | Sum of eigenvalues per atom                           :       -2881.70411636 eV
  | Total energy (T->0) per atom                          :       -4996.98724891 eV  <-- do not rely on this value for anything but (periodic) metals
  | Electronic free energy per atom                       :       -4996.98724893 eV
  Evaluating new KS density.
  Integration grid: deviation in total charge (<rho> - N_e) =   8.896528E-10

  Self-consistency convergence accuracy:
  | Change of charge density      :  0.9124E-01
  | Change of unmixed KS density  :  0.1246E-01
  | Change of sum of eigenvalues  :  0.1595E+01 eV
  | Change of total energy        : -0.4699E-01 eV


------------------------------------------------------------
  End self-consistency iteration #    23       :  max(cpu_time)    wall_clock(cpu1)
  | Time for this iteration                     :        0.293 s           0.283 s
  | Charge density update                       :        0.001 s           0.000 s
  | Density mixing                              :        0.286 s           0.277 s
  | Hartree multipole update                    :        0.001 s           0.001 s
  | Hartree multipole summation                 :        0.002 s           0.001 s
  | Integration                                 :        0.002 s           0.002 s
  | Solution of K.-S. eqns.                     :        0.001 s           0.001 s
  | Total energy evaluation                     :        0.000 s           0.000 s

  Partial memory accounting:
  | Current value for overall tracked memory usage:
  |   Minimum:        0.413 MB (on task 58)
  |   Maximum:        0.519 MB (on task 56)
  |   Average:        0.438 MB
  | Peak value for overall tracked memory usage:
  |   Minimum:        0.916 MB (on task 48 after allocating wave)
  |   Maximum:        1.028 MB (on task 56 after allocating wave)
  |   Average:        0.944 MB
  | Largest tracked array allocation so far:
  |   Minimum:        0.161 MB (gradient_basis_wave_store on task  0)
  |   Maximum:        0.164 MB (gradient_basis_wave_store on task  1)
  |   Average:        0.163 MB
  Note:  These values currently only include a subset of arrays which are explicitly tracked.
  The "true" memory usage will be greater.
------------------------------------------------------------

------------------------------------------------------------
          Begin self-consistency iteration #   24

  Date     :  20260724, Time     :  152918.341
------------------------------------------------------------
  Pulay mixing of updated and previous charge densities.
  Available memory per node after mixing [GB]:   1034.05
  Renormalizing the density to the exact electron count on the 3D integration grid.
  | Formal number of electrons (from input files) :      20.0000000000
  | Integrated number of electrons on 3D grid     :      19.9999999924
  | Charge integration error                      :      -0.0000000076
  | Normalization factor for density and gradient :       1.0000000004

  Evaluating partitioned Hartree potential by multipole expansion.
  | Original multipole sum: apparent total charge =  -0.355437E-14
  | Sum of charges compensated after spline to logarithmic grids =  -0.114801E-06
  | Analytical far-field extrapolation by fixed multipoles:
  | Hartree multipole sum: apparent total charge =  -0.346828E-14
  Summing up the Hartree potential.
  Time summed over all CPUs for potential: real work        0.001 s, elapsed        0.001 s
  | RMS charge density error from multipole expansion :   0.115060E-02

  Integrating Hamiltonian matrix: batch-based integration.
  Time summed over all CPUs for integration: real work        0.095 s, elapsed        0.109 s

  Updating Kohn-Sham eigenvalues and eigenvectors using ELSI and the ELPA eigensolver.
  Starting ELPA eigensolver
  Finished transformation to standard eigenproblem
  | Time :     0.000 s
  Finished solving standard eigenproblem
  | Time :     0.001 s
  Finished back-transformation of eigenvectors
  | Time :     0.000 s

  Obtaining occupation numbers and electronic chemical potential using ELSI.
  | Note that, for insulating systems, the printed 'chemical potential' value is not uniquely defined.
  | It can be anywhere in the energy gap, as long as it correctly separates occupied and unoccupied states.
  | In systems with a gap, the physically relevant chemical potential is the VBM or HOMO.

  | Chemical potential (Fermi level):    -6.20426801 eV
  Highest occupied state (VBM) at     -6.21311530 eV
  | Occupation number:      1.78913689

  Lowest unoccupied state (CBM) at    -6.19858688 eV
  | Occupation number:      0.42172479

  This system has fractional occupation numbers. Thus, it is a degenerate system
  within the approximate finite broadening function (occupation_type)
  applied to determine the occupation numbers.
  This may not be harmful. However, for some systems (free atoms), a different, non-degenerate
  ground state might exist by using a smaller broadening (see keyword occupation_type).
  Overall HOMO-LUMO gap:      0.00000000 eV.

  Total energy components:
  | Sum of eigenvalues            :        -211.83345275 Ha       -5764.28153280 eV
  | XC energy correction          :         -27.04849385 Ha        -736.02696635 eV
  | XC potential correction       :          36.83667958 Ha        1002.37705186 eV
  | Free-atom electrostatic energy:        -164.89547461 Ha       -4487.03416180 eV
  | Hartree energy correction     :          -0.32889657 Ha          -8.94973095 eV
  | Entropy correction            :          -0.00016985 Ha          -0.00462198 eV
  | ---------------------------
  | Total energy                  :        -367.26963819 Ha       -9993.91534002 eV
  | Total energy, T -> 0          :        -367.26980805 Ha       -9993.91996201 eV  <-- do not rely on this value for anything but (periodic) metals
  | Electronic free energy        :        -367.26997790 Ha       -9993.92458399 eV

  Derived energy quantities:
  | Kinetic energy                :         367.91438089 Ha       10011.45968157 eV
  | Electrostatic energy          :        -708.13552523 Ha      -19269.34805524 eV
  | Energy correction for multipole
  | error in Hartree potential    :          -0.00025019 Ha          -0.00680810 eV
  | Sum of eigenvalues per atom                           :       -2882.14076640 eV
  | Total energy (T->0) per atom                          :       -4996.95998100 eV  <-- do not rely on this value for anything but (periodic) metals
  | Electronic free energy per atom                       :       -4996.96229199 eV
  Evaluating new KS density.
  Integration grid: deviation in total charge (<rho> - N_e) =  -9.741008E-10

  Self-consistency convergence accuracy:
  | Change of charge density      :  0.1213E+00
  | Change of unmixed KS density  :  0.1695E-01
  | Change of sum of eigenvalues  : -0.8733E+00 eV
  | Change of total energy        :  0.5916E-01 eV


------------------------------------------------------------
  End self-consistency iteration #    24       :  max(cpu_time)    wall_clock(cpu1)
  | Time for this iteration                     :        0.253 s           0.104 s
  | Charge density update                       :        0.001 s           0.001 s
  | Density mixing                              :        0.246 s           0.097 s
  | Hartree multipole update                    :        0.001 s           0.001 s
  | Hartree multipole summation                 :        0.002 s           0.002 s
  | Integration                                 :        0.002 s           0.002 s
  | Solution of K.-S. eqns.                     :        0.001 s           0.001 s
  | Total energy evaluation                     :        0.000 s           0.000 s

  Partial memory accounting:
  | Current value for overall tracked memory usage:
  |   Minimum:        0.413 MB (on task 58)
  |   Maximum:        0.519 MB (on task 56)
  |   Average:        0.438 MB
  | Peak value for overall tracked memory usage:
  |   Minimum:        0.916 MB (on task 48 after allocating wave)
  |   Maximum:        1.028 MB (on task 56 after allocating wave)
  |   Average:        0.944 MB
  | Largest tracked array allocation so far:
  |   Minimum:        0.161 MB (gradient_basis_wave_store on task  0)
  |   Maximum:        0.164 MB (gradient_basis_wave_store on task  1)
  |   Average:        0.163 MB
  Note:  These values currently only include a subset of arrays which are explicitly tracked.
  The "true" memory usage will be greater.
------------------------------------------------------------

------------------------------------------------------------
          Begin self-consistency iteration #   25

  Date     :  20260724, Time     :  152918.454
------------------------------------------------------------
  SCF convergence analysis is based on: Mixed KS density changes
  Charge density: The charge density seems to be converging.
                  The linear fit of ln(rho_delta) over the last 15 steps has a slope of  -0.0182
  Estimated 261 more steps to reach target accuracy

  Pulay mixing of updated and previous charge densities.
  Available memory per node after mixing [GB]:   1034.05
  Renormalizing the density to the exact electron count on the 3D integration grid.
  | Formal number of electrons (from input files) :      20.0000000000
  | Integrated number of electrons on 3D grid     :      20.0000000013
  | Charge integration error                      :       0.0000000013
  | Normalization factor for density and gradient :       0.9999999999

  Evaluating partitioned Hartree potential by multipole expansion.
  | Original multipole sum: apparent total charge =  -0.316081E-14
  | Sum of charges compensated after spline to logarithmic grids =  -0.157367E-06
  | Analytical far-field extrapolation by fixed multipoles:
  | Hartree multipole sum: apparent total charge =  -0.301322E-14
  Summing up the Hartree potential.
  Time summed over all CPUs for potential: real work        0.001 s, elapsed        0.001 s
  | RMS charge density error from multipole expansion :   0.120683E-02

  Integrating Hamiltonian matrix: batch-based integration.
  Time summed over all CPUs for integration: real work        0.095 s, elapsed        0.123 s

  Updating Kohn-Sham eigenvalues and eigenvectors using ELSI and the ELPA eigensolver.
  Starting ELPA eigensolver
  Finished transformation to standard eigenproblem
  | Time :     0.000 s
  Finished solving standard eigenproblem
  | Time :     0.001 s
  Finished back-transformation of eigenvectors
  | Time :     0.000 s

  Obtaining occupation numbers and electronic chemical potential using ELSI.
  | Note that, for insulating systems, the printed 'chemical potential' value is not uniquely defined.
  | It can be anywhere in the energy gap, as long as it correctly separates occupied and unoccupied states.
  | In systems with a gap, the physically relevant chemical potential is the VBM or HOMO.

  | Chemical potential (Fermi level):    -6.17168905 eV
  Highest occupied state (VBM) at     -6.17168910 eV
  | Occupation number:      1.00000578

  Lowest unoccupied state (CBM) at    -6.17168900 eV
  | Occupation number:      0.99999422

  This system has fractional occupation numbers. Thus, it is a degenerate system
  within the approximate finite broadening function (occupation_type)
  applied to determine the occupation numbers.
  This may not be harmful. However, for some systems (free atoms), a different, non-degenerate
  ground state might exist by using a smaller broadening (see keyword occupation_type).
  Overall HOMO-LUMO gap:      0.00000000 eV.

  Total energy components:
  | Sum of eigenvalues            :        -211.87518061 Ha       -5765.41700567 eV
  | XC energy correction          :         -27.04095411 Ha        -735.82179940 eV
  | XC potential correction       :          36.82613505 Ha        1002.09012043 eV
  | Free-atom electrostatic energy:        -164.89547461 Ha       -4487.03416180 eV
  | Hartree energy correction     :          -0.29151632 Ha          -7.93256277 eV
  | Entropy correction            :          -0.00020734 Ha          -0.00564190 eV
  | ---------------------------
  | Total energy                  :        -367.27699060 Ha       -9994.11540920 eV
  | Total energy, T -> 0          :        -367.27719794 Ha       -9994.12105110 eV  <-- do not rely on this value for anything but (periodic) metals
  | Electronic free energy        :        -367.27740527 Ha       -9994.12669300 eV

  Derived energy quantities:
  | Kinetic energy                :         367.85922359 Ha       10009.95877501 eV
  | Electrostatic energy          :        -708.09526009 Ha      -19268.25238482 eV
  | Energy correction for multipole
  | error in Hartree potential    :          -0.00038210 Ha          -0.01039753 eV
  | Sum of eigenvalues per atom                           :       -2882.70850283 eV
  | Total energy (T->0) per atom                          :       -4997.06052555 eV  <-- do not rely on this value for anything but (periodic) metals
  | Electronic free energy per atom                       :       -4997.06334650 eV
  Evaluating new KS density.
  Integration grid: deviation in total charge (<rho> - N_e) =   2.889919E-10

  Self-consistency convergence accuracy:
  | Change of charge density      :  0.5749E-01
  | Change of unmixed KS density  :  0.5306E-01
  | Change of sum of eigenvalues  : -0.1135E+01 eV
  | Change of total energy        : -0.2001E+00 eV


------------------------------------------------------------
  End self-consistency iteration #    25       :  max(cpu_time)    wall_clock(cpu1)
  | Time for this iteration                     :        0.255 s           0.255 s
  | Charge density update                       :        0.001 s           0.001 s
  | Density mixing                              :        0.248 s           0.248 s
  | Hartree multipole update                    :        0.001 s           0.001 s
  | Hartree multipole summation                 :        0.002 s           0.002 s
  | Integration                                 :        0.002 s           0.002 s
  | Solution of K.-S. eqns.                     :        0.001 s           0.001 s
  | Total energy evaluation                     :        0.000 s           0.000 s

  Partial memory accounting:
  | Current value for overall tracked memory usage:
  |   Minimum:        0.413 MB (on task 58)
  |   Maximum:        0.519 MB (on task 56)
  |   Average:        0.438 MB
  | Peak value for overall tracked memory usage:
  |   Minimum:        0.916 MB (on task 48 after allocating wave)
  |   Maximum:        1.028 MB (on task 56 after allocating wave)
  |   Average:        0.944 MB
  | Largest tracked array allocation so far:
  |   Minimum:        0.161 MB (gradient_basis_wave_store on task  0)
  |   Maximum:        0.164 MB (gradient_basis_wave_store on task  1)
  |   Average:        0.163 MB
  Note:  These values currently only include a subset of arrays which are explicitly tracked.
  The "true" memory usage will be greater.
------------------------------------------------------------

------------------------------------------------------------
          Begin self-consistency iteration #   26

  Date     :  20260724, Time     :  152918.840
------------------------------------------------------------
  SCF convergence analysis is based on: Mixed KS density changes
  Charge density: The charge density seems to be converging.
                  The linear fit of ln(rho_delta) over the last 15 steps has a slope of  -0.0165
  Estimated 317 more steps to reach target accuracy

  Pulay mixing of updated and previous charge densities.
  Available memory per node after mixing [GB]:   1034.05
  Renormalizing the density to the exact electron count on the 3D integration grid.
  | Formal number of electrons (from input files) :      20.0000000000
  | Integrated number of electrons on 3D grid     :      19.9999999998
  | Charge integration error                      :      -0.0000000002
  | Normalization factor for density and gradient :       1.0000000000

  Evaluating partitioned Hartree potential by multipole expansion.
  | Original multipole sum: apparent total charge =   0.531311E-14
  | Sum of charges compensated after spline to logarithmic grids =  -0.135824E-06
  | Analytical far-field extrapolation by fixed multipoles:
  | Hartree multipole sum: apparent total charge =   0.538076E-14
  Summing up the Hartree potential.
  Time summed over all CPUs for potential: real work        0.001 s, elapsed        0.001 s
  | RMS charge density error from multipole expansion :   0.117513E-02

  Integrating Hamiltonian matrix: batch-based integration.
  Time summed over all CPUs for integration: real work        0.095 s, elapsed        0.105 s

  Updating Kohn-Sham eigenvalues and eigenvectors using ELSI and the ELPA eigensolver.
  Starting ELPA eigensolver
  Finished transformation to standard eigenproblem
  | Time :     0.001 s
  Finished solving standard eigenproblem
  | Time :     0.000 s
  Finished back-transformation of eigenvectors
  | Time :     0.000 s

  Obtaining occupation numbers and electronic chemical potential using ELSI.
  | Note that, for insulating systems, the printed 'chemical potential' value is not uniquely defined.
  | It can be anywhere in the energy gap, as long as it correctly separates occupied and unoccupied states.
  | In systems with a gap, the physically relevant chemical potential is the VBM or HOMO.

  | Chemical potential (Fermi level):    -6.19434025 eV
  Highest occupied state (VBM) at     -6.19434032 eV
  | Occupation number:      1.00000869

  Lowest unoccupied state (CBM) at    -6.19434017 eV
  | Occupation number:      0.99999130

  This system has fractional occupation numbers. Thus, it is a degenerate system
  within the approximate finite broadening function (occupation_type)
  applied to determine the occupation numbers.
  This may not be harmful. However, for some systems (free atoms), a different, non-degenerate
  ground state might exist by using a smaller broadening (see keyword occupation_type).
  Overall HOMO-LUMO gap:      0.00000000 eV.

  Total energy components:
  | Sum of eigenvalues            :        -211.85467720 Ha       -5764.85907952 eV
  | XC energy correction          :         -27.04450876 Ha        -735.91852638 eV
  | XC potential correction       :          36.83116255 Ha        1002.22692563 eV
  | Free-atom electrostatic energy:        -164.89547461 Ha       -4487.03416180 eV
  | Hartree energy correction     :          -0.30912605 Ha          -8.41174770 eV
  | Entropy correction            :          -0.00020734 Ha          -0.00564190 eV
  | ---------------------------
  | Total energy                  :        -367.27262407 Ha       -9993.99658977 eV
  | Total energy, T -> 0          :        -367.27283140 Ha       -9994.00223166 eV  <-- do not rely on this value for anything but (periodic) metals
  | Electronic free energy        :        -367.27303874 Ha       -9994.00787356 eV

  Derived energy quantities:
  | Kinetic energy                :         367.88869386 Ha       10010.76070190 eV
  | Electrostatic energy          :        -708.11680917 Ha      -19268.83876529 eV
  | Energy correction for multipole
  | error in Hartree potential    :          -0.00031274 Ha          -0.00850996 eV
  | Sum of eigenvalues per atom                           :       -2882.42953976 eV
  | Total energy (T->0) per atom                          :       -4997.00111583 eV  <-- do not rely on this value for anything but (periodic) metals
  | Electronic free energy per atom                       :       -4997.00393678 eV
  Evaluating new KS density.
  Integration grid: deviation in total charge (<rho> - N_e) =  -2.634195E-10

  Self-consistency convergence accuracy:
  | Change of charge density      :  0.1652E+00
  | Change of unmixed KS density  :  0.1979E+00
  | Change of sum of eigenvalues  :  0.5579E+00 eV
  | Change of total energy        :  0.1188E+00 eV


------------------------------------------------------------
  End self-consistency iteration #    26       :  max(cpu_time)    wall_clock(cpu1)
  | Time for this iteration                     :        0.256 s           0.135 s
  | Charge density update                       :        0.001 s           0.000 s
  | Density mixing                              :        0.249 s           0.129 s
  | Hartree multipole update                    :        0.001 s           0.001 s
  | Hartree multipole summation                 :        0.002 s           0.002 s
  | Integration                                 :        0.002 s           0.001 s
  | Solution of K.-S. eqns.                     :        0.001 s           0.001 s
  | Total energy evaluation                     :        0.000 s           0.000 s

  Partial memory accounting:
  | Current value for overall tracked memory usage:
  |   Minimum:        0.413 MB (on task 58)
  |   Maximum:        0.519 MB (on task 56)
  |   Average:        0.438 MB
  | Peak value for overall tracked memory usage:
  |   Minimum:        0.916 MB (on task 48 after allocating wave)
  |   Maximum:        1.028 MB (on task 56 after allocating wave)
  |   Average:        0.944 MB
  | Largest tracked array allocation so far:
  |   Minimum:        0.161 MB (gradient_basis_wave_store on task  0)
  |   Maximum:        0.164 MB (gradient_basis_wave_store on task  1)
  |   Average:        0.163 MB
  Note:  These values currently only include a subset of arrays which are explicitly tracked.
  The "true" memory usage will be greater.
------------------------------------------------------------

------------------------------------------------------------
          Begin self-consistency iteration #   27

  Date     :  20260724, Time     :  152919.140
------------------------------------------------------------
  SCF convergence analysis is based on: Mixed KS density changes
  Charge density: The charge density seems to be converging.
                  The linear fit of ln(rho_delta) over the last 15 steps has a slope of  -0.0154
  Estimated 335 more steps to reach target accuracy

  Pulay mixing of updated and previous charge densities.
  Available memory per node after mixing [GB]:   1034.05
  Renormalizing the density to the exact electron count on the 3D integration grid.
  | Formal number of electrons (from input files) :      20.0000000000
  | Integrated number of electrons on 3D grid     :      20.0000000025
  | Charge integration error                      :       0.0000000025
  | Normalization factor for density and gradient :       0.9999999999

  Evaluating partitioned Hartree potential by multipole expansion.
  | Original multipole sum: apparent total charge =   0.156196E-14
  | Sum of charges compensated after spline to logarithmic grids =  -0.155365E-06
  | Analytical far-field extrapolation by fixed multipoles:
  | Hartree multipole sum: apparent total charge =   0.159885E-14
  Summing up the Hartree potential.
  Time summed over all CPUs for potential: real work        0.001 s, elapsed        0.002 s
  | RMS charge density error from multipole expansion :   0.121300E-02

  Integrating Hamiltonian matrix: batch-based integration.
  Time summed over all CPUs for integration: real work        0.100 s, elapsed        0.112 s

  Updating Kohn-Sham eigenvalues and eigenvectors using ELSI and the ELPA eigensolver.
  Starting ELPA eigensolver
  Finished transformation to standard eigenproblem
  | Time :     0.000 s
  Finished solving standard eigenproblem
  | Time :     0.001 s
  Finished back-transformation of eigenvectors
  | Time :     0.000 s

  Obtaining occupation numbers and electronic chemical potential using ELSI.
  | Note that, for insulating systems, the printed 'chemical potential' value is not uniquely defined.
  | It can be anywhere in the energy gap, as long as it correctly separates occupied and unoccupied states.
  | In systems with a gap, the physically relevant chemical potential is the VBM or HOMO.

  | Chemical potential (Fermi level):    -6.16560944 eV
  Highest occupied state (VBM) at     -6.16560959 eV
  | Occupation number:      1.00001687

  Lowest unoccupied state (CBM) at    -6.16560929 eV
  | Occupation number:      0.99998313

  This system has fractional occupation numbers. Thus, it is a degenerate system
  within the approximate finite broadening function (occupation_type)
  applied to determine the occupation numbers.
  This may not be harmful. However, for some systems (free atoms), a different, non-degenerate
  ground state might exist by using a smaller broadening (see keyword occupation_type).
  Overall HOMO-LUMO gap:      0.00000000 eV.

  Total energy components:
  | Sum of eigenvalues            :        -211.86912368 Ha       -5765.25218814 eV
  | XC energy correction          :         -27.04110002 Ha        -735.82577004 eV
  | XC potential correction       :          36.82636702 Ha        1002.09643259 eV
  | Free-atom electrostatic energy:        -164.89547461 Ha       -4487.03416180 eV
  | Hartree energy correction     :          -0.29796512 Ha          -8.10804347 eV
  | Entropy correction            :          -0.00020734 Ha          -0.00564190 eV
  | ---------------------------
  | Total energy                  :        -367.27729641 Ha       -9994.12373085 eV
  | Total energy, T -> 0          :        -367.27750375 Ha       -9994.12937275 eV  <-- do not rely on this value for anything but (periodic) metals
  | Electronic free energy        :        -367.27771109 Ha       -9994.13501464 eV

  Derived energy quantities:
  | Kinetic energy                :         367.85788819 Ha       10009.92243689 eV
  | Electrostatic energy          :        -708.09408458 Ha      -19268.22039771 eV
  | Energy correction for multipole
  | error in Hartree potential    :          -0.00038318 Ha          -0.01042691 eV
  | Sum of eigenvalues per atom                           :       -2882.62609407 eV
  | Total energy (T->0) per atom                          :       -4997.06468637 eV  <-- do not rely on this value for anything but (periodic) metals
  | Electronic free energy per atom                       :       -4997.06750732 eV
  Evaluating new KS density.
  Integration grid: deviation in total charge (<rho> - N_e) =   1.481197E-10

  Self-consistency convergence accuracy:
  | Change of charge density      :  0.1494E+00
  | Change of unmixed KS density  :  0.4068E-02
  | Change of sum of eigenvalues  : -0.3931E+00 eV
  | Change of total energy        : -0.1271E+00 eV


------------------------------------------------------------
  End self-consistency iteration #    27       :  max(cpu_time)    wall_clock(cpu1)
  | Time for this iteration                     :        0.259 s           0.107 s
  | Charge density update                       :        0.001 s           0.001 s
  | Density mixing                              :        0.252 s           0.099 s
  | Hartree multipole update                    :        0.001 s           0.001 s
  | Hartree multipole summation                 :        0.003 s           0.003 s
  | Integration                                 :        0.002 s           0.002 s
  | Solution of K.-S. eqns.                     :        0.001 s           0.001 s
  | Total energy evaluation                     :        0.000 s           0.000 s

  Partial memory accounting:
  | Current value for overall tracked memory usage:
  |   Minimum:        0.413 MB (on task 58)
  |   Maximum:        0.519 MB (on task 56)
  |   Average:        0.438 MB
  | Peak value for overall tracked memory usage:
  |   Minimum:        0.916 MB (on task 48 after allocating wave)
  |   Maximum:        1.028 MB (on task 56 after allocating wave)
  |   Average:        0.944 MB
  | Largest tracked array allocation so far:
  |   Minimum:        0.161 MB (gradient_basis_wave_store on task  0)
  |   Maximum:        0.164 MB (gradient_basis_wave_store on task  1)
  |   Average:        0.163 MB
  Note:  These values currently only include a subset of arrays which are explicitly tracked.
  The "true" memory usage will be greater.
------------------------------------------------------------

------------------------------------------------------------
          Begin self-consistency iteration #   28

  Date     :  20260724, Time     :  152919.321
------------------------------------------------------------
  SCF convergence analysis is based on: Mixed KS density changes
  Charge density: The charge density seems to be converging.
                  The linear fit of ln(rho_delta) over the last 15 steps has a slope of  -0.0077
  Estimated 678 more steps to reach target accuracy

  Pulay mixing of updated and previous charge densities.
  Available memory per node after mixing [GB]:   1034.05
  Renormalizing the density to the exact electron count on the 3D integration grid.
  | Formal number of electrons (from input files) :      20.0000000000
  | Integrated number of electrons on 3D grid     :      19.9999999967
  | Charge integration error                      :      -0.0000000033
  | Normalization factor for density and gradient :       1.0000000002

  Evaluating partitioned Hartree potential by multipole expansion.
  | Original multipole sum: apparent total charge =   0.225069E-14
  | Sum of charges compensated after spline to logarithmic grids =  -0.147374E-06
  | Analytical far-field extrapolation by fixed multipoles:
  | Hartree multipole sum: apparent total charge =   0.217075E-14
  Summing up the Hartree potential.
  Time summed over all CPUs for potential: real work        0.001 s, elapsed        0.001 s
  | RMS charge density error from multipole expansion :   0.118619E-02

  Integrating Hamiltonian matrix: batch-based integration.
  Time summed over all CPUs for integration: real work        0.095 s, elapsed        0.110 s

  Updating Kohn-Sham eigenvalues and eigenvectors using ELSI and the ELPA eigensolver.
  Starting ELPA eigensolver
  Finished transformation to standard eigenproblem
  | Time :     0.000 s
  Finished solving standard eigenproblem
  | Time :     0.001 s
  Finished back-transformation of eigenvectors
  | Time :     0.000 s

  Obtaining occupation numbers and electronic chemical potential using ELSI.
  | Note that, for insulating systems, the printed 'chemical potential' value is not uniquely defined.
  | It can be anywhere in the energy gap, as long as it correctly separates occupied and unoccupied states.
  | In systems with a gap, the physically relevant chemical potential is the VBM or HOMO.

  | Chemical potential (Fermi level):    -6.18613232 eV
  Highest occupied state (VBM) at     -6.18613271 eV
  | Occupation number:      1.00004354

  Lowest unoccupied state (CBM) at    -6.18613194 eV
  | Occupation number:      0.99995646

  This system has fractional occupation numbers. Thus, it is a degenerate system
  within the approximate finite broadening function (occupation_type)
  applied to determine the occupation numbers.
  This may not be harmful. However, for some systems (free atoms), a different, non-degenerate
  ground state might exist by using a smaller broadening (see keyword occupation_type).
  Overall HOMO-LUMO gap:      0.00000000 eV.

  Total energy components:
  | Sum of eigenvalues            :        -211.86827726 Ha       -5765.22915587 eV
  | XC energy correction          :         -27.04251794 Ha        -735.86435354 eV
  | XC potential correction       :          36.82836421 Ha        1002.15077915 eV
  | Free-atom electrostatic energy:        -164.89547461 Ha       -4487.03416180 eV
  | Hartree energy correction     :          -0.29675516 Ha          -8.07511878 eV
  | Entropy correction            :          -0.00020734 Ha          -0.00564190 eV
  | ---------------------------
  | Total energy                  :        -367.27466075 Ha       -9994.05201083 eV
  | Total energy, T -> 0          :        -367.27486809 Ha       -9994.05765273 eV  <-- do not rely on this value for anything but (periodic) metals
  | Electronic free energy        :        -367.27507542 Ha       -9994.06329462 eV

  Derived energy quantities:
  | Kinetic energy                :         367.87438916 Ha       10010.37145126 eV
  | Electrostatic energy          :        -708.10653198 Ha      -19268.55910855 eV
  | Energy correction for multipole
  | error in Hartree potential    :          -0.00034713 Ha          -0.00944581 eV
  | Sum of eigenvalues per atom                           :       -2882.61457793 eV
  | Total energy (T->0) per atom                          :       -4997.02882636 eV  <-- do not rely on this value for anything but (periodic) metals
  | Electronic free energy per atom                       :       -4997.03164731 eV
  Evaluating new KS density.
  Integration grid: deviation in total charge (<rho> - N_e) =  -1.925571E-11

  Self-consistency convergence accuracy:
  | Change of charge density      :  0.1650E+00
  | Change of unmixed KS density  :  0.4640E-02
  | Change of sum of eigenvalues  :  0.2303E-01 eV
  | Change of total energy        :  0.7172E-01 eV


------------------------------------------------------------
  End self-consistency iteration #    28       :  max(cpu_time)    wall_clock(cpu1)
  | Time for this iteration                     :        0.272 s           0.208 s
  | Charge density update                       :        0.001 s           0.001 s
  | Density mixing                              :        0.265 s           0.201 s
  | Hartree multipole update                    :        0.001 s           0.001 s
  | Hartree multipole summation                 :        0.002 s           0.002 s
  | Integration                                 :        0.002 s           0.002 s
  | Solution of K.-S. eqns.                     :        0.001 s           0.001 s
  | Total energy evaluation                     :        0.000 s           0.000 s

  Partial memory accounting:
  | Current value for overall tracked memory usage:
  |   Minimum:        0.413 MB (on task 58)
  |   Maximum:        0.519 MB (on task 56)
  |   Average:        0.438 MB
  | Peak value for overall tracked memory usage:
  |   Minimum:        0.916 MB (on task 48 after allocating wave)
  |   Maximum:        1.028 MB (on task 56 after allocating wave)
  |   Average:        0.944 MB
  | Largest tracked array allocation so far:
  |   Minimum:        0.161 MB (gradient_basis_wave_store on task  0)
  |   Maximum:        0.164 MB (gradient_basis_wave_store on task  1)
  |   Average:        0.163 MB
  Note:  These values currently only include a subset of arrays which are explicitly tracked.
  The "true" memory usage will be greater.
------------------------------------------------------------

------------------------------------------------------------
          Begin self-consistency iteration #   29

  Date     :  20260724, Time     :  152919.675
------------------------------------------------------------
  SCF convergence analysis is based on: Mixed KS density changes
  Charge density: The charge density seems to be converging.
                  The linear fit of ln(rho_delta) over the last 15 steps has a slope of  -0.0015
  Estimated 3572 more steps to reach target accuracy

  Pulay mixing of updated and previous charge densities.
  Available memory per node after mixing [GB]:   1034.05
  Renormalizing the density to the exact electron count on the 3D integration grid.
  | Formal number of electrons (from input files) :      20.0000000000
  | Integrated number of electrons on 3D grid     :      20.0000000006
  | Charge integration error                      :       0.0000000006
  | Normalization factor for density and gradient :       1.0000000000

  Evaluating partitioned Hartree potential by multipole expansion.
  | Original multipole sum: apparent total charge =   0.382495E-14
  | Sum of charges compensated after spline to logarithmic grids =  -0.138032E-06
  | Analytical far-field extrapolation by fixed multipoles:
  | Hartree multipole sum: apparent total charge =   0.383110E-14
  Summing up the Hartree potential.
  Time summed over all CPUs for potential: real work        0.001 s, elapsed        0.001 s
  | RMS charge density error from multipole expansion :   0.117533E-02

  Integrating Hamiltonian matrix: batch-based integration.
  Time summed over all CPUs for integration: real work        0.095 s, elapsed        0.110 s

  Updating Kohn-Sham eigenvalues and eigenvectors using ELSI and the ELPA eigensolver.
  Starting ELPA eigensolver
  Finished transformation to standard eigenproblem
  | Time :     0.000 s
  Finished solving standard eigenproblem
  | Time :     0.001 s
  Finished back-transformation of eigenvectors
  | Time :     0.000 s

  Obtaining occupation numbers and electronic chemical potential using ELSI.
  | Note that, for insulating systems, the printed 'chemical potential' value is not uniquely defined.
  | It can be anywhere in the energy gap, as long as it correctly separates occupied and unoccupied states.
  | In systems with a gap, the physically relevant chemical potential is the VBM or HOMO.

  | Chemical potential (Fermi level):    -6.19357515 eV
  Highest occupied state (VBM) at     -6.19357587 eV
  | Occupation number:      1.00008106

  Lowest unoccupied state (CBM) at    -6.19357443 eV
  | Occupation number:      0.99991894

  This system has fractional occupation numbers. Thus, it is a degenerate system
  within the approximate finite broadening function (occupation_type)
  applied to determine the occupation numbers.
  This may not be harmful. However, for some systems (free atoms), a different, non-degenerate
  ground state might exist by using a smaller broadening (see keyword occupation_type).
  Overall HOMO-LUMO gap:      0.00000000 eV.

  Total energy components:
  | Sum of eigenvalues            :        -211.85758017 Ha       -5764.93807313 eV
  | XC energy correction          :         -27.04415376 Ha        -735.90886650 eV
  | XC potential correction       :          36.83066401 Ha        1002.21335965 eV
  | Free-atom electrostatic energy:        -164.89547461 Ha       -4487.03416180 eV
  | Hartree energy correction     :          -0.30640325 Ha          -8.33765658 eV
  | Entropy correction            :          -0.00020734 Ha          -0.00564190 eV
  | ---------------------------
  | Total energy                  :        -367.27294778 Ha       -9994.00539836 eV
  | Total energy, T -> 0          :        -367.27315511 Ha       -9994.01104026 eV  <-- do not rely on this value for anything but (periodic) metals
  | Electronic free energy        :        -367.27336245 Ha       -9994.01668215 eV

  Derived energy quantities:
  | Kinetic energy                :         367.88707852 Ha       10010.71674629 eV
  | Electrostatic energy          :        -708.11587254 Ha      -19268.81327815 eV
  | Energy correction for multipole
  | error in Hartree potential    :          -0.00031892 Ha          -0.00867813 eV
  | Sum of eigenvalues per atom                           :       -2882.46903657 eV
  | Total energy (T->0) per atom                          :       -4997.00552013 eV  <-- do not rely on this value for anything but (periodic) metals
  | Electronic free energy per atom                       :       -4997.00834108 eV
  Evaluating new KS density.
  Integration grid: deviation in total charge (<rho> - N_e) =  -5.631478E-10

  Self-consistency convergence accuracy:
  | Change of charge density      :  0.1574E+00
  | Change of unmixed KS density  :  0.2895E-02
  | Change of sum of eigenvalues  :  0.2911E+00 eV
  | Change of total energy        :  0.4661E-01 eV


------------------------------------------------------------
  End self-consistency iteration #    29       :  max(cpu_time)    wall_clock(cpu1)
  | Time for this iteration                     :        0.259 s           0.123 s
  | Charge density update                       :        0.001 s           0.001 s
  | Density mixing                              :        0.251 s           0.116 s
  | Hartree multipole update                    :        0.001 s           0.001 s
  | Hartree multipole summation                 :        0.002 s           0.002 s
  | Integration                                 :        0.002 s           0.002 s
  | Solution of K.-S. eqns.                     :        0.001 s           0.001 s
  | Total energy evaluation                     :        0.000 s           0.000 s

  Partial memory accounting:
  | Current value for overall tracked memory usage:
  |   Minimum:        0.413 MB (on task 58)
  |   Maximum:        0.519 MB (on task 56)
  |   Average:        0.438 MB
  | Peak value for overall tracked memory usage:
  |   Minimum:        0.916 MB (on task 48 after allocating wave)
  |   Maximum:        1.028 MB (on task 56 after allocating wave)
  |   Average:        0.944 MB
  | Largest tracked array allocation so far:
  |   Minimum:        0.161 MB (gradient_basis_wave_store on task  0)
  |   Maximum:        0.164 MB (gradient_basis_wave_store on task  1)
  |   Average:        0.163 MB
  Note:  These values currently only include a subset of arrays which are explicitly tracked.
  The "true" memory usage will be greater.
------------------------------------------------------------

------------------------------------------------------------
          Begin self-consistency iteration #   30

  Date     :  20260724, Time     :  152919.809
------------------------------------------------------------
  SCF convergence analysis is based on: Mixed KS density changes
  Charge density: WARNING - The density does not seem to be converging.
                  The linear fit of ln(rho_delta) over the last 15 steps has a slope of   0.0049

  Pulay mixing of updated and previous charge densities.
  Available memory per node after mixing [GB]:   1034.05
  Renormalizing the density to the exact electron count on the 3D integration grid.
  | Formal number of electrons (from input files) :      20.0000000000
  | Integrated number of electrons on 3D grid     :      20.0000000006
  | Charge integration error                      :       0.0000000006
  | Normalization factor for density and gradient :       1.0000000000

  Evaluating partitioned Hartree potential by multipole expansion.
  | Original multipole sum: apparent total charge =  -0.574972E-15
  | Sum of charges compensated after spline to logarithmic grids =  -0.103391E-06
  | Analytical far-field extrapolation by fixed multipoles:
  | Hartree multipole sum: apparent total charge =  -0.547300E-15
  Summing up the Hartree potential.
  Time summed over all CPUs for potential: real work        0.001 s, elapsed        0.001 s
  | RMS charge density error from multipole expansion :   0.113779E-02

  Integrating Hamiltonian matrix: batch-based integration.
  Time summed over all CPUs for integration: real work        0.095 s, elapsed        0.110 s

  Updating Kohn-Sham eigenvalues and eigenvectors using ELSI and the ELPA eigensolver.
  Starting ELPA eigensolver
  Finished transformation to standard eigenproblem
  | Time :     0.000 s
  Finished solving standard eigenproblem
  | Time :     0.001 s
  Finished back-transformation of eigenvectors
  | Time :     0.000 s

  Obtaining occupation numbers and electronic chemical potential using ELSI.
  | Note that, for insulating systems, the printed 'chemical potential' value is not uniquely defined.
  | It can be anywhere in the energy gap, as long as it correctly separates occupied and unoccupied states.
  | In systems with a gap, the physically relevant chemical potential is the VBM or HOMO.

  | Chemical potential (Fermi level):    -6.19074861 eV
  Highest occupied state (VBM) at     -6.22288159 eV
  | Occupation number:      1.99999449

  Lowest unoccupied state (CBM) at    -6.15966300 eV
  | Occupation number:      0.00001102

  Overall HOMO-LUMO gap:      0.06321859 eV.

  Total energy components:
  | Sum of eigenvalues            :        -211.82473580 Ha       -5764.04433258 eV
  | XC energy correction          :         -27.05095468 Ha        -736.09392876 eV
  | XC potential correction       :          36.84002688 Ha        1002.46813636 eV
  | Free-atom electrostatic energy:        -164.89547461 Ha       -4487.03416180 eV
  | Hartree energy correction     :          -0.34039238 Ha          -9.26254803 eV
  | Entropy correction            :          -0.00000001 Ha          -0.00000036 eV
  | ---------------------------
  | Total energy                  :        -367.27153059 Ha       -9993.96683481 eV
  | Total energy, T -> 0          :        -367.27153060 Ha       -9993.96683518 eV  <-- do not rely on this value for anything but (periodic) metals
  | Electronic free energy        :        -367.27153062 Ha       -9993.96683554 eV

  Derived energy quantities:
  | Kinetic energy                :         367.92561855 Ha       10011.76547369 eV
  | Electrostatic energy          :        -708.14619446 Ha      -19269.63837974 eV
  | Energy correction for multipole
  | error in Hartree potential    :          -0.00021420 Ha          -0.00582856 eV
  | Sum of eigenvalues per atom                           :       -2882.02216629 eV
  | Total energy (T->0) per atom                          :       -4996.98341759 eV  <-- do not rely on this value for anything but (periodic) metals
  | Electronic free energy per atom                       :       -4996.98341777 eV
  Evaluating new KS density.
  Integration grid: deviation in total charge (<rho> - N_e) =   5.159322E-10

  Self-consistency convergence accuracy:
  | Change of charge density      :  0.1510E+00
  | Change of unmixed KS density  :  0.1567E-02
  | Change of sum of eigenvalues  :  0.8937E+00 eV
  | Change of total energy        :  0.3856E-01 eV


------------------------------------------------------------
  End self-consistency iteration #    30       :  max(cpu_time)    wall_clock(cpu1)
  | Time for this iteration                     :        0.265 s           0.265 s
  | Charge density update                       :        0.001 s           0.001 s
  | Density mixing                              :        0.258 s           0.258 s
  | Hartree multipole update                    :        0.001 s           0.001 s
  | Hartree multipole summation                 :        0.002 s           0.001 s
  | Integration                                 :        0.002 s           0.002 s
  | Solution of K.-S. eqns.                     :        0.001 s           0.001 s
  | Total energy evaluation                     :        0.000 s           0.000 s

  Partial memory accounting:
  | Current value for overall tracked memory usage:
  |   Minimum:        0.413 MB (on task 58)
  |   Maximum:        0.519 MB (on task 56)
  |   Average:        0.438 MB
  | Peak value for overall tracked memory usage:
  |   Minimum:        0.916 MB (on task 48 after allocating wave)
  |   Maximum:        1.028 MB (on task 56 after allocating wave)
  |   Average:        0.944 MB
  | Largest tracked array allocation so far:
  |   Minimum:        0.161 MB (gradient_basis_wave_store on task  0)
  |   Maximum:        0.164 MB (gradient_basis_wave_store on task  1)
  |   Average:        0.163 MB
  Note:  These values currently only include a subset of arrays which are explicitly tracked.
  The "true" memory usage will be greater.
------------------------------------------------------------

------------------------------------------------------------
          Begin self-consistency iteration #   31

  Date     :  20260724, Time     :  152920.125
------------------------------------------------------------
  SCF convergence analysis is based on: Mixed KS density changes
  Charge density: WARNING - The density does not seem to be converging.
                  The linear fit of ln(rho_delta) over the last 15 steps has a slope of   0.0078

  Pulay mixing of updated and previous charge densities.
  Available memory per node after mixing [GB]:   1034.05
  Renormalizing the density to the exact electron count on the 3D integration grid.
  | Formal number of electrons (from input files) :      20.0000000000
  | Integrated number of electrons on 3D grid     :      19.9999999998
  | Charge integration error                      :      -0.0000000002
  | Normalization factor for density and gradient :       1.0000000000

  Evaluating partitioned Hartree potential by multipole expansion.
  | Original multipole sum: apparent total charge =  -0.173722E-14
  | Sum of charges compensated after spline to logarithmic grids =  -0.103707E-06
  | Analytical far-field extrapolation by fixed multipoles:
  | Hartree multipole sum: apparent total charge =  -0.170954E-14
  Summing up the Hartree potential.
  Time summed over all CPUs for potential: real work        0.001 s, elapsed        0.001 s
  | RMS charge density error from multipole expansion :   0.113829E-02

  Integrating Hamiltonian matrix: batch-based integration.
  Time summed over all CPUs for integration: real work        0.094 s, elapsed        0.110 s

  Updating Kohn-Sham eigenvalues and eigenvectors using ELSI and the ELPA eigensolver.
  Starting ELPA eigensolver
  Finished transformation to standard eigenproblem
  | Time :     0.000 s
  Finished solving standard eigenproblem
  | Time :     0.001 s
  Finished back-transformation of eigenvectors
  | Time :     0.000 s

  Obtaining occupation numbers and electronic chemical potential using ELSI.
  | Note that, for insulating systems, the printed 'chemical potential' value is not uniquely defined.
  | It can be anywhere in the energy gap, as long as it correctly separates occupied and unoccupied states.
  | In systems with a gap, the physically relevant chemical potential is the VBM or HOMO.

  | Chemical potential (Fermi level):    -6.19103841 eV
  Highest occupied state (VBM) at     -6.22246741 eV
  | Occupation number:      1.99999120

  Lowest unoccupied state (CBM) at    -6.16067921 eV
  | Occupation number:      0.00001759

  Overall HOMO-LUMO gap:      0.06178820 eV.

  Total energy components:
  | Sum of eigenvalues            :        -211.82484659 Ha       -5764.04734711 eV
  | XC energy correction          :         -27.05088890 Ha        -736.09213890 eV
  | XC potential correction       :          36.83993791 Ha        1002.46571537 eV
  | Free-atom electrostatic energy:        -164.89547461 Ha       -4487.03416180 eV
  | Hartree energy correction     :          -0.34020786 Ha          -9.25752689 eV
  | Entropy correction            :          -0.00000002 Ha          -0.00000057 eV
  | ---------------------------
  | Total energy                  :        -367.27148004 Ha       -9993.96545932 eV
  | Total energy, T -> 0          :        -367.27148006 Ha       -9993.96545989 eV  <-- do not rely on this value for anything but (periodic) metals
  | Electronic free energy        :        -367.27148008 Ha       -9993.96546046 eV

  Derived energy quantities:
  | Kinetic energy                :         367.92528525 Ha       10011.75640432 eV
  | Electrostatic energy          :        -708.14587640 Ha      -19269.62972474 eV
  | Energy correction for multipole
  | error in Hartree potential    :          -0.00021535 Ha          -0.00585994 eV
  | Sum of eigenvalues per atom                           :       -2882.02367355 eV
  | Total energy (T->0) per atom                          :       -4996.98272995 eV  <-- do not rely on this value for anything but (periodic) metals
  | Electronic free energy per atom                       :       -4996.98273023 eV
  Evaluating new KS density.
  Integration grid: deviation in total charge (<rho> - N_e) =  -2.083098E-10

  Self-consistency convergence accuracy:
  | Change of charge density      :  0.1170E+00
  | Change of unmixed KS density  :  0.2484E+00
  | Change of sum of eigenvalues  : -0.3015E-02 eV
  | Change of total energy        :  0.1375E-02 eV


------------------------------------------------------------
  End self-consistency iteration #    31       :  max(cpu_time)    wall_clock(cpu1)
  | Time for this iteration                     :        0.262 s           0.222 s
  | Charge density update                       :        0.001 s           0.001 s
  | Density mixing                              :        0.255 s           0.215 s
  | Hartree multipole update                    :        0.001 s           0.001 s
  | Hartree multipole summation                 :        0.002 s           0.002 s
  | Integration                                 :        0.002 s           0.002 s
  | Solution of K.-S. eqns.                     :        0.001 s           0.001 s
  | Total energy evaluation                     :        0.000 s           0.000 s

  Partial memory accounting:
  | Current value for overall tracked memory usage:
  |   Minimum:        0.413 MB (on task 58)
  |   Maximum:        0.519 MB (on task 56)
  |   Average:        0.438 MB
  | Peak value for overall tracked memory usage:
  |   Minimum:        0.916 MB (on task 48 after allocating wave)
  |   Maximum:        1.028 MB (on task 56 after allocating wave)
  |   Average:        0.944 MB
  | Largest tracked array allocation so far:
  |   Minimum:        0.161 MB (gradient_basis_wave_store on task  0)
  |   Maximum:        0.164 MB (gradient_basis_wave_store on task  1)
  |   Average:        0.163 MB
  Note:  These values currently only include a subset of arrays which are explicitly tracked.
  The "true" memory usage will be greater.
------------------------------------------------------------

------------------------------------------------------------
          Begin self-consistency iteration #   32

  Date     :  20260724, Time     :  152920.363
------------------------------------------------------------
  SCF convergence analysis is based on: Mixed KS density changes
  Charge density: WARNING - The density does not seem to be converging.
                  The linear fit of ln(rho_delta) over the last 15 steps has a slope of   0.0092

  Pulay mixing of updated and previous charge densities.
  Available memory per node after mixing [GB]:   1034.05
  Renormalizing the density to the exact electron count on the 3D integration grid.
  | Formal number of electrons (from input files) :      20.0000000000
  | Integrated number of electrons on 3D grid     :      20.0000000004
  | Charge integration error                      :       0.0000000004
  | Normalization factor for density and gradient :       1.0000000000

  Evaluating partitioned Hartree potential by multipole expansion.
  | Original multipole sum: apparent total charge =  -0.842473E-15
  | Sum of charges compensated after spline to logarithmic grids =  -0.101829E-06
  | Analytical far-field extrapolation by fixed multipoles:
  | Hartree multipole sum: apparent total charge =  -0.750231E-15
  Summing up the Hartree potential.
  Time summed over all CPUs for potential: real work        0.001 s, elapsed        0.001 s
  | RMS charge density error from multipole expansion :   0.113798E-02

  Integrating Hamiltonian matrix: batch-based integration.
  Time summed over all CPUs for integration: real work        0.095 s, elapsed        0.107 s

  Updating Kohn-Sham eigenvalues and eigenvectors using ELSI and the ELPA eigensolver.
  Starting ELPA eigensolver
  Finished transformation to standard eigenproblem
  | Time :     0.000 s
  Finished solving standard eigenproblem
  | Time :     0.001 s
  Finished back-transformation of eigenvectors
  | Time :     0.000 s

  Obtaining occupation numbers and electronic chemical potential using ELSI.
  | Note that, for insulating systems, the printed 'chemical potential' value is not uniquely defined.
  | It can be anywhere in the energy gap, as long as it correctly separates occupied and unoccupied states.
  | In systems with a gap, the physically relevant chemical potential is the VBM or HOMO.

  | Chemical potential (Fermi level):    -6.18837239 eV
  Highest occupied state (VBM) at     -6.22232676 eV
  | Occupation number:      1.99999843

  Lowest unoccupied state (CBM) at    -6.15541237 eV
  | Occupation number:      0.00000314

  Overall HOMO-LUMO gap:      0.06691439 eV.

  Total energy components:
  | Sum of eigenvalues            :        -211.82212663 Ha       -5763.97333322 eV
  | XC energy correction          :         -27.05128883 Ha        -736.10302157 eV
  | XC potential correction       :          36.84048150 Ha        1002.48050721 eV
  | Free-atom electrostatic energy:        -164.89547461 Ha       -4487.03416180 eV
  | Hartree energy correction     :          -0.34325278 Ha          -9.34038350 eV
  | Entropy correction            :          -0.00000000 Ha          -0.00000011 eV
  | ---------------------------
  | Total energy                  :        -367.27166135 Ha       -9993.97039288 eV
  | Total energy, T -> 0          :        -367.27166135 Ha       -9993.97039298 eV  <-- do not rely on this value for anything but (periodic) metals
  | Electronic free energy        :        -367.27166136 Ha       -9993.97039309 eV

  Derived energy quantities:
  | Kinetic energy                :         367.92676313 Ha       10011.79661932 eV
  | Electrostatic energy          :        -708.14713565 Ha      -19269.66399063 eV
  | Energy correction for multipole
  | error in Hartree potential    :          -0.00021077 Ha          -0.00573529 eV
  | Sum of eigenvalues per atom                           :       -2881.98666661 eV
  | Total energy (T->0) per atom                          :       -4996.98519649 eV  <-- do not rely on this value for anything but (periodic) metals
  | Electronic free energy per atom                       :       -4996.98519655 eV
  Evaluating new KS density.
  Integration grid: deviation in total charge (<rho> - N_e) =   4.291678E-11

  Self-consistency convergence accuracy:
  | Change of charge density      :  0.1168E+00
  | Change of unmixed KS density  :  0.1159E-03
  | Change of sum of eigenvalues  :  0.7401E-01 eV
  | Change of total energy        : -0.4934E-02 eV


------------------------------------------------------------
  End self-consistency iteration #    32       :  max(cpu_time)    wall_clock(cpu1)
  | Time for this iteration                     :        0.263 s           0.258 s
  | Charge density update                       :        0.001 s           0.001 s
  | Density mixing                              :        0.256 s           0.251 s
  | Hartree multipole update                    :        0.001 s           0.001 s
  | Hartree multipole summation                 :        0.002 s           0.002 s
  | Integration                                 :        0.002 s           0.002 s
  | Solution of K.-S. eqns.                     :        0.001 s           0.001 s
  | Total energy evaluation                     :        0.000 s           0.000 s

  Partial memory accounting:
  | Current value for overall tracked memory usage:
  |   Minimum:        0.413 MB (on task 58)
  |   Maximum:        0.519 MB (on task 56)
  |   Average:        0.438 MB
  | Peak value for overall tracked memory usage:
  |   Minimum:        0.916 MB (on task 48 after allocating wave)
  |   Maximum:        1.028 MB (on task 56 after allocating wave)
  |   Average:        0.944 MB
  | Largest tracked array allocation so far:
  |   Minimum:        0.161 MB (gradient_basis_wave_store on task  0)
  |   Maximum:        0.164 MB (gradient_basis_wave_store on task  1)
  |   Average:        0.163 MB
  Note:  These values currently only include a subset of arrays which are explicitly tracked.
  The "true" memory usage will be greater.
------------------------------------------------------------

------------------------------------------------------------
          Begin self-consistency iteration #   33

  Date     :  20260724, Time     :  152920.671
------------------------------------------------------------
  SCF convergence analysis is based on: Mixed KS density changes
  Charge density: WARNING - The density does not seem to be converging.
                  The linear fit of ln(rho_delta) over the last 15 steps has a slope of   0.0077

  Pulay mixing of updated and previous charge densities.
  Available memory per node after mixing [GB]:   1034.05
  Renormalizing the density to the exact electron count on the 3D integration grid.
  | Formal number of electrons (from input files) :      20.0000000000
  | Integrated number of electrons on 3D grid     :      19.9999999990
  | Charge integration error                      :      -0.0000000010
  | Normalization factor for density and gradient :       1.0000000000

  Evaluating partitioned Hartree potential by multipole expansion.
  | Original multipole sum: apparent total charge =   0.805883E-14
  | Sum of charges compensated after spline to logarithmic grids =  -0.100929E-06
  | Analytical far-field extrapolation by fixed multipoles:
  | Hartree multipole sum: apparent total charge =   0.806498E-14
  Summing up the Hartree potential.
  Time summed over all CPUs for potential: real work        0.001 s, elapsed        0.001 s
  | RMS charge density error from multipole expansion :   0.113387E-02

  Integrating Hamiltonian matrix: batch-based integration.
  Time summed over all CPUs for integration: real work        0.094 s, elapsed        0.105 s

  Updating Kohn-Sham eigenvalues and eigenvectors using ELSI and the ELPA eigensolver.
  Starting ELPA eigensolver
  Finished transformation to standard eigenproblem
  | Time :     0.000 s
  Finished solving standard eigenproblem
  | Time :     0.000 s
  Finished back-transformation of eigenvectors
  | Time :     0.001 s

  Obtaining occupation numbers and electronic chemical potential using ELSI.
  | Note that, for insulating systems, the printed 'chemical potential' value is not uniquely defined.
  | It can be anywhere in the energy gap, as long as it correctly separates occupied and unoccupied states.
  | In systems with a gap, the physically relevant chemical potential is the VBM or HOMO.

  | Chemical potential (Fermi level):    -6.18732377 eV
  Highest occupied state (VBM) at     -6.22679356 eV
  | Occupation number:      1.99999998

  Lowest unoccupied state (CBM) at    -6.14872195 eV
  | Occupation number:      0.00000005

  Overall HOMO-LUMO gap:      0.07807161 eV.

  Total energy components:
  | Sum of eigenvalues            :        -211.82347408 Ha       -5764.00999925 eV
  | XC energy correction          :         -27.05165366 Ha        -736.11294897 eV
  | XC potential correction       :          36.84095638 Ha        1002.49342942 eV
  | Free-atom electrostatic energy:        -164.89547461 Ha       -4487.03416180 eV
  | Hartree energy correction     :          -0.34241481 Ha          -9.31758108 eV
  | Entropy correction            :          -0.00000000 Ha          -0.00000000 eV
  | ---------------------------
  | Total energy                  :        -367.27206077 Ha       -9993.98126168 eV
  | Total energy, T -> 0          :        -367.27206077 Ha       -9993.98126168 eV  <-- do not rely on this value for anything but (periodic) metals
  | Electronic free energy        :        -367.27206077 Ha       -9993.98126168 eV

  Derived energy quantities:
  | Kinetic energy                :         367.92927499 Ha       10011.86497048 eV
  | Electrostatic energy          :        -708.14968210 Ha      -19269.73328319 eV
  | Energy correction for multipole
  | error in Hartree potential    :          -0.00020388 Ha          -0.00554787 eV
  | Sum of eigenvalues per atom                           :       -2882.00499962 eV
  | Total energy (T->0) per atom                          :       -4996.99063084 eV  <-- do not rely on this value for anything but (periodic) metals
  | Electronic free energy per atom                       :       -4996.99063084 eV
  Evaluating new KS density.
  Integration grid: deviation in total charge (<rho> - N_e) =   2.662404E-10

  Self-consistency convergence accuracy:
  | Change of charge density      :  0.1179E+00
  | Change of unmixed KS density  :  0.2715E-03
  | Change of sum of eigenvalues  : -0.3667E-01 eV
  | Change of total energy        : -0.1087E-01 eV


------------------------------------------------------------
  End self-consistency iteration #    33       :  max(cpu_time)    wall_clock(cpu1)
  | Time for this iteration                     :        0.275 s           0.236 s
  | Charge density update                       :        0.001 s           0.001 s
  | Density mixing                              :        0.268 s           0.229 s
  | Hartree multipole update                    :        0.001 s           0.001 s
  | Hartree multipole summation                 :        0.002 s           0.002 s
  | Integration                                 :        0.002 s           0.002 s
  | Solution of K.-S. eqns.                     :        0.001 s           0.001 s
  | Total energy evaluation                     :        0.000 s           0.000 s

  Partial memory accounting:
  | Current value for overall tracked memory usage:
  |   Minimum:        0.413 MB (on task 58)
  |   Maximum:        0.519 MB (on task 56)
  |   Average:        0.438 MB
  | Peak value for overall tracked memory usage:
  |   Minimum:        0.916 MB (on task 48 after allocating wave)
  |   Maximum:        1.028 MB (on task 56 after allocating wave)
  |   Average:        0.944 MB
  | Largest tracked array allocation so far:
  |   Minimum:        0.161 MB (gradient_basis_wave_store on task  0)
  |   Maximum:        0.164 MB (gradient_basis_wave_store on task  1)
  |   Average:        0.163 MB
  Note:  These values currently only include a subset of arrays which are explicitly tracked.
  The "true" memory usage will be greater.
------------------------------------------------------------

------------------------------------------------------------
          Begin self-consistency iteration #   34

  Date     :  20260724, Time     :  152921.040
------------------------------------------------------------
  SCF convergence analysis is based on: Mixed KS density changes
  Charge density: WARNING - The density does not seem to be converging.
                  The linear fit of ln(rho_delta) over the last 15 steps has a slope of   0.0070

  Pulay mixing of updated and previous charge densities.
  Available memory per node after mixing [GB]:   1034.05
  Renormalizing the density to the exact electron count on the 3D integration grid.
  | Formal number of electrons (from input files) :      20.0000000000
  | Integrated number of electrons on 3D grid     :      20.0000000020
  | Charge integration error                      :       0.0000000020
  | Normalization factor for density and gradient :       0.9999999999

  Evaluating partitioned Hartree potential by multipole expansion.
  | Original multipole sum: apparent total charge =   0.358205E-14
  | Sum of charges compensated after spline to logarithmic grids =  -0.103076E-06
  | Analytical far-field extrapolation by fixed multipoles:
  | Hartree multipole sum: apparent total charge =   0.358205E-14
  Summing up the Hartree potential.
  Time summed over all CPUs for potential: real work        0.001 s, elapsed        0.001 s
  | RMS charge density error from multipole expansion :   0.114286E-02

  Integrating Hamiltonian matrix: batch-based integration.
  Time summed over all CPUs for integration: real work        0.095 s, elapsed        0.113 s

  Updating Kohn-Sham eigenvalues and eigenvectors using ELSI and the ELPA eigensolver.
  Starting ELPA eigensolver
  Finished transformation to standard eigenproblem
  | Time :     0.001 s
  Finished solving standard eigenproblem
  | Time :     0.000 s
  Finished back-transformation of eigenvectors
  | Time :     0.000 s

  Obtaining occupation numbers and electronic chemical potential using ELSI.
  | Note that, for insulating systems, the printed 'chemical potential' value is not uniquely defined.
  | It can be anywhere in the energy gap, as long as it correctly separates occupied and unoccupied states.
  | In systems with a gap, the physically relevant chemical potential is the VBM or HOMO.

  | Chemical potential (Fermi level):    -6.18961613 eV
  Highest occupied state (VBM) at     -6.21694277 eV
  | Occupation number:      1.99988872

  Lowest unoccupied state (CBM) at    -6.16351012 eV
  | Occupation number:      0.00022254

  Overall HOMO-LUMO gap:      0.05343265 eV.

  Total energy components:
  | Sum of eigenvalues            :        -211.82022181 Ha       -5763.92150066 eV
  | XC energy correction          :         -27.05092222 Ha        -736.09304548 eV
  | XC potential correction       :          36.83999373 Ha        1002.46723431 eV
  | Free-atom electrostatic energy:        -164.89547461 Ha       -4487.03416180 eV
  | Hartree energy correction     :          -0.34456074 Ha          -9.37597479 eV
  | Entropy correction            :          -0.00000023 Ha          -0.00000632 eV
  | ---------------------------
  | Total energy                  :        -367.27118565 Ha       -9993.95744841 eV
  | Total energy, T -> 0          :        -367.27118588 Ha       -9993.95745473 eV  <-- do not rely on this value for anything but (periodic) metals
  | Electronic free energy        :        -367.27118611 Ha       -9993.95746105 eV

  Derived energy quantities:
  | Kinetic energy                :         367.92455004 Ha       10011.73639810 eV
  | Electrostatic energy          :        -708.14481347 Ha      -19269.60080104 eV
  | Energy correction for multipole
  | error in Hartree potential    :          -0.00021795 Ha          -0.00593077 eV
  | Sum of eigenvalues per atom                           :       -2881.96075033 eV
  | Total energy (T->0) per atom                          :       -4996.97872737 eV  <-- do not rely on this value for anything but (periodic) metals
  | Electronic free energy per atom                       :       -4996.97873053 eV
  Evaluating new KS density.
  Integration grid: deviation in total charge (<rho> - N_e) =   3.932001E-10

  Self-consistency convergence accuracy:
  | Change of charge density      :  0.1194E+00
  | Change of unmixed KS density  :  0.1173E-02
  | Change of sum of eigenvalues  :  0.8850E-01 eV
  | Change of total energy        :  0.2381E-01 eV


------------------------------------------------------------
  End self-consistency iteration #    34       :  max(cpu_time)    wall_clock(cpu1)
  | Time for this iteration                     :        0.278 s           0.155 s
  | Charge density update                       :        0.001 s           0.000 s
  | Density mixing                              :        0.271 s           0.148 s
  | Hartree multipole update                    :        0.001 s           0.002 s
  | Hartree multipole summation                 :        0.002 s           0.001 s
  | Integration                                 :        0.002 s           0.002 s
  | Solution of K.-S. eqns.                     :        0.001 s           0.001 s
  | Total energy evaluation                     :        0.000 s           0.000 s

  Partial memory accounting:
  | Current value for overall tracked memory usage:
  |   Minimum:        0.413 MB (on task 58)
  |   Maximum:        0.519 MB (on task 56)
  |   Average:        0.438 MB
  | Peak value for overall tracked memory usage:
  |   Minimum:        0.916 MB (on task 48 after allocating wave)
  |   Maximum:        1.028 MB (on task 56 after allocating wave)
  |   Average:        0.944 MB
  | Largest tracked array allocation so far:
  |   Minimum:        0.161 MB (gradient_basis_wave_store on task  0)
  |   Maximum:        0.164 MB (gradient_basis_wave_store on task  1)
  |   Average:        0.163 MB
  Note:  These values currently only include a subset of arrays which are explicitly tracked.
  The "true" memory usage will be greater.
------------------------------------------------------------

------------------------------------------------------------
          Begin self-consistency iteration #   35

  Date     :  20260724, Time     :  152921.320
------------------------------------------------------------
  SCF convergence analysis is based on: Mixed KS density changes
  Charge density: WARNING - The density does not seem to be converging.
                  The linear fit of ln(rho_delta) over the last 15 steps has a slope of   0.0062

  Pulay mixing of updated and previous charge densities.
  Available memory per node after mixing [GB]:   1034.05
  Renormalizing the density to the exact electron count on the 3D integration grid.
  | Formal number of electrons (from input files) :      20.0000000000
  | Integrated number of electrons on 3D grid     :      20.0000000025
  | Charge integration error                      :       0.0000000025
  | Normalization factor for density and gradient :       0.9999999999

  Evaluating partitioned Hartree potential by multipole expansion.
  | Original multipole sum: apparent total charge =  -0.491955E-15
  | Sum of charges compensated after spline to logarithmic grids =  -0.135102E-06
  | Analytical far-field extrapolation by fixed multipoles:
  | Hartree multipole sum: apparent total charge =  -0.289023E-15
  Summing up the Hartree potential.
  Time summed over all CPUs for potential: real work        0.001 s, elapsed        0.001 s
  | RMS charge density error from multipole expansion :   0.118896E-02

  Integrating Hamiltonian matrix: batch-based integration.
  Time summed over all CPUs for integration: real work        0.095 s, elapsed        0.107 s

  Updating Kohn-Sham eigenvalues and eigenvectors using ELSI and the ELPA eigensolver.
  Starting ELPA eigensolver
  Finished transformation to standard eigenproblem
  | Time :     0.000 s
  Finished solving standard eigenproblem
  | Time :     0.001 s
  Finished back-transformation of eigenvectors
  | Time :     0.000 s

  Obtaining occupation numbers and electronic chemical potential using ELSI.
  | Note that, for insulating systems, the printed 'chemical potential' value is not uniquely defined.
  | It can be anywhere in the energy gap, as long as it correctly separates occupied and unoccupied states.
  | In systems with a gap, the physically relevant chemical potential is the VBM or HOMO.

  | Chemical potential (Fermi level):    -6.17951547 eV
  Highest occupied state (VBM) at     -6.17951575 eV
  | Occupation number:      1.00003124

  Lowest unoccupied state (CBM) at    -6.17951519 eV
  | Occupation number:      0.99996876

  This system has fractional occupation numbers. Thus, it is a degenerate system
  within the approximate finite broadening function (occupation_type)
  applied to determine the occupation numbers.
  This may not be harmful. However, for some systems (free atoms), a different, non-degenerate
  ground state might exist by using a smaller broadening (see keyword occupation_type).
  Overall HOMO-LUMO gap:      0.00000000 eV.

  Total energy components:
  | Sum of eigenvalues            :        -211.84562067 Ha       -5764.61263875 eV
  | XC energy correction          :         -27.04441010 Ha        -735.91584190 eV
  | XC potential correction       :          36.83104852 Ha        1002.22382270 eV
  | Free-atom electrostatic energy:        -164.89547461 Ha       -4487.03416180 eV
  | Hartree energy correction     :          -0.31927535 Ha          -8.68792430 eV
  | Entropy correction            :          -0.00020734 Ha          -0.00564190 eV
  | ---------------------------
  | Total energy                  :        -367.27373221 Ha       -9994.02674405 eV
  | Total energy, T -> 0          :        -367.27393955 Ha       -9994.03238594 eV  <-- do not rely on this value for anything but (periodic) metals
  | Electronic free energy        :        -367.27414689 Ha       -9994.03802784 eV

  Derived energy quantities:
  | Kinetic energy                :         367.88363707 Ha       10010.62309950 eV
  | Electrostatic energy          :        -708.11295918 Ha      -19268.73400165 eV
  | Energy correction for multipole
  | error in Hartree potential    :          -0.00032268 Ha          -0.00878044 eV
  | Sum of eigenvalues per atom                           :       -2882.30631938 eV
  | Total energy (T->0) per atom                          :       -4997.01619297 eV  <-- do not rely on this value for anything but (periodic) metals
  | Electronic free energy per atom                       :       -4997.01901392 eV
  Evaluating new KS density.
  Integration grid: deviation in total charge (<rho> - N_e) =  -2.698144E-10

  Self-consistency convergence accuracy:
  | Change of charge density      :  0.1160E+00
  | Change of unmixed KS density  :  0.2612E-02
  | Change of sum of eigenvalues  : -0.6911E+00 eV
  | Change of total energy        : -0.6930E-01 eV


------------------------------------------------------------
  End self-consistency iteration #    35       :  max(cpu_time)    wall_clock(cpu1)
  | Time for this iteration                     :        0.269 s           0.154 s
  | Charge density update                       :        0.001 s           0.001 s
  | Density mixing                              :        0.262 s           0.147 s
  | Hartree multipole update                    :        0.001 s           0.001 s
  | Hartree multipole summation                 :        0.002 s           0.002 s
  | Integration                                 :        0.002 s           0.002 s
  | Solution of K.-S. eqns.                     :        0.001 s           0.001 s
  | Total energy evaluation                     :        0.000 s           0.000 s

  Partial memory accounting:
  | Current value for overall tracked memory usage:
  |   Minimum:        0.413 MB (on task 58)
  |   Maximum:        0.519 MB (on task 56)
  |   Average:        0.438 MB
  | Peak value for overall tracked memory usage:
  |   Minimum:        0.916 MB (on task 48 after allocating wave)
  |   Maximum:        1.028 MB (on task 56 after allocating wave)
  |   Average:        0.944 MB
  | Largest tracked array allocation so far:
  |   Minimum:        0.161 MB (gradient_basis_wave_store on task  0)
  |   Maximum:        0.164 MB (gradient_basis_wave_store on task  1)
  |   Average:        0.163 MB
  Note:  These values currently only include a subset of arrays which are explicitly tracked.
  The "true" memory usage will be greater.
------------------------------------------------------------

------------------------------------------------------------
          Begin self-consistency iteration #   36

  Date     :  20260724, Time     :  152921.485
------------------------------------------------------------
  SCF convergence analysis is based on: Mixed KS density changes
  Charge density: WARNING - The density does not seem to be converging.
                  The linear fit of ln(rho_delta) over the last 15 steps has a slope of   0.0068

  Pulay mixing of updated and previous charge densities.
  Available memory per node after mixing [GB]:   1034.05
  Renormalizing the density to the exact electron count on the 3D integration grid.
  | Formal number of electrons (from input files) :      20.0000000000
  | Integrated number of electrons on 3D grid     :      20.0000000017
  | Charge integration error                      :       0.0000000017
  | Normalization factor for density and gradient :       0.9999999999

  Evaluating partitioned Hartree potential by multipole expansion.
  | Original multipole sum: apparent total charge =   0.174029E-14
  | Sum of charges compensated after spline to logarithmic grids =  -0.128895E-06
  | Analytical far-field extrapolation by fixed multipoles:
  | Hartree multipole sum: apparent total charge =   0.183868E-14
  Summing up the Hartree potential.
  Time summed over all CPUs for potential: real work        0.001 s, elapsed        0.001 s
  | RMS charge density error from multipole expansion :   0.118643E-02

  Integrating Hamiltonian matrix: batch-based integration.
  Time summed over all CPUs for integration: real work        0.095 s, elapsed        0.108 s

  Updating Kohn-Sham eigenvalues and eigenvectors using ELSI and the ELPA eigensolver.
  Starting ELPA eigensolver
  Finished transformation to standard eigenproblem
  | Time :     0.000 s
  Finished solving standard eigenproblem
  | Time :     0.036 s
  Finished back-transformation of eigenvectors
  | Time :     0.000 s

  Obtaining occupation numbers and electronic chemical potential using ELSI.
  | Note that, for insulating systems, the printed 'chemical potential' value is not uniquely defined.
  | It can be anywhere in the energy gap, as long as it correctly separates occupied and unoccupied states.
  | In systems with a gap, the physically relevant chemical potential is the VBM or HOMO.

  | Chemical potential (Fermi level):    -6.17886704 eV
  Highest occupied state (VBM) at     -6.17886799 eV
  | Occupation number:      1.00010657

  Lowest unoccupied state (CBM) at    -6.17886610 eV
  | Occupation number:      0.99989343

  This system has fractional occupation numbers. Thus, it is a degenerate system
  within the approximate finite broadening function (occupation_type)
  applied to determine the occupation numbers.
  This may not be harmful. However, for some systems (free atoms), a different, non-degenerate
  ground state might exist by using a smaller broadening (see keyword occupation_type).
  Overall HOMO-LUMO gap:      0.00000000 eV.

  Total energy components:
  | Sum of eigenvalues            :        -211.83588180 Ha       -5764.34763058 eV
  | XC energy correction          :         -27.04540983 Ha        -735.94304581 eV
  | XC potential correction       :          36.83245839 Ha        1002.26218720 eV
  | Free-atom electrostatic energy:        -164.89547461 Ha       -4487.03416180 eV
  | Hartree energy correction     :          -0.32876438 Ha          -8.94613397 eV
  | Entropy correction            :          -0.00020734 Ha          -0.00564190 eV
  | ---------------------------
  | Total energy                  :        -367.27307223 Ha       -9994.00878495 eV
  | Total energy, T -> 0          :        -367.27327957 Ha       -9994.01442685 eV  <-- do not rely on this value for anything but (periodic) metals
  | Electronic free energy        :        -367.27348690 Ha       -9994.02006875 eV

  Derived energy quantities:
  | Kinetic energy                :         367.88939185 Ha       10010.77969507 eV
  | Electrostatic energy          :        -708.11705425 Ha      -19268.84543422 eV
  | Energy correction for multipole
  | error in Hartree potential    :          -0.00030932 Ha          -0.00841706 eV
  | Sum of eigenvalues per atom                           :       -2882.17381529 eV
  | Total energy (T->0) per atom                          :       -4997.00721343 eV  <-- do not rely on this value for anything but (periodic) metals
  | Electronic free energy per atom                       :       -4997.01003437 eV
  Evaluating new KS density.
  Integration grid: deviation in total charge (<rho> - N_e) =  -3.809930E-11

  Self-consistency convergence accuracy:
  | Change of charge density      :  0.1515E+00
  | Change of unmixed KS density  :  0.2486E+00
  | Change of sum of eigenvalues  :  0.2650E+00 eV
  | Change of total energy        :  0.1796E-01 eV


------------------------------------------------------------
  End self-consistency iteration #    36       :  max(cpu_time)    wall_clock(cpu1)
  | Time for this iteration                     :        0.296 s           0.296 s
  | Charge density update                       :        0.001 s           0.001 s
  | Density mixing                              :        0.254 s           0.254 s
  | Hartree multipole update                    :        0.001 s           0.001 s
  | Hartree multipole summation                 :        0.002 s           0.002 s
  | Integration                                 :        0.002 s           0.002 s
  | Solution of K.-S. eqns.                     :        0.036 s           0.036 s
  | Total energy evaluation                     :        0.000 s           0.000 s

  Partial memory accounting:
  | Current value for overall tracked memory usage:
  |   Minimum:        0.413 MB (on task 58)
  |   Maximum:        0.519 MB (on task 56)
  |   Average:        0.438 MB
  | Peak value for overall tracked memory usage:
  |   Minimum:        0.916 MB (on task 48 after allocating wave)
  |   Maximum:        1.028 MB (on task 56 after allocating wave)
  |   Average:        0.944 MB
  | Largest tracked array allocation so far:
  |   Minimum:        0.161 MB (gradient_basis_wave_store on task  0)
  |   Maximum:        0.164 MB (gradient_basis_wave_store on task  1)
  |   Average:        0.163 MB
  Note:  These values currently only include a subset of arrays which are explicitly tracked.
  The "true" memory usage will be greater.
------------------------------------------------------------

------------------------------------------------------------
          Begin self-consistency iteration #   37

  Date     :  20260724, Time     :  152921.844
------------------------------------------------------------
  SCF convergence analysis is based on: Mixed KS density changes
  Charge density: WARNING - The density does not seem to be converging.
                  The linear fit of ln(rho_delta) over the last 15 steps has a slope of   0.0076

  Pulay mixing of updated and previous charge densities.
  Available memory per node after mixing [GB]:   1034.05
  Renormalizing the density to the exact electron count on the 3D integration grid.
  | Formal number of electrons (from input files) :      20.0000000000
  | Integrated number of electrons on 3D grid     :      19.9999999993
  | Charge integration error                      :      -0.0000000007
  | Normalization factor for density and gradient :       1.0000000000

  Evaluating partitioned Hartree potential by multipole expansion.
  | Original multipole sum: apparent total charge =   0.266885E-14
  | Sum of charges compensated after spline to logarithmic grids =  -0.128458E-06
  | Analytical far-field extrapolation by fixed multipoles:
  | Hartree multipole sum: apparent total charge =   0.258276E-14
  Summing up the Hartree potential.
  Time summed over all CPUs for potential: real work        0.001 s, elapsed        0.001 s
  | RMS charge density error from multipole expansion :   0.118411E-02

  Integrating Hamiltonian matrix: batch-based integration.
  Time summed over all CPUs for integration: real work        0.095 s, elapsed        0.107 s

  Updating Kohn-Sham eigenvalues and eigenvectors using ELSI and the ELPA eigensolver.
  Starting ELPA eigensolver
  Finished transformation to standard eigenproblem
  | Time :     0.000 s
  Finished solving standard eigenproblem
  | Time :     0.001 s
  Finished back-transformation of eigenvectors
  | Time :     0.000 s

  Obtaining occupation numbers and electronic chemical potential using ELSI.
  | Note that, for insulating systems, the printed 'chemical potential' value is not uniquely defined.
  | It can be anywhere in the energy gap, as long as it correctly separates occupied and unoccupied states.
  | In systems with a gap, the physically relevant chemical potential is the VBM or HOMO.

  | Chemical potential (Fermi level):    -6.18146586 eV
  Highest occupied state (VBM) at     -6.18146838 eV
  | Occupation number:      1.00028370

  Lowest unoccupied state (CBM) at    -6.18146335 eV
  | Occupation number:      0.99971630

  This system has fractional occupation numbers. Thus, it is a degenerate system
  within the approximate finite broadening function (occupation_type)
  applied to determine the occupation numbers.
  This may not be harmful. However, for some systems (free atoms), a different, non-degenerate
  ground state might exist by using a smaller broadening (see keyword occupation_type).
  Overall HOMO-LUMO gap:      0.00000000 eV.

  Total energy components:
  | Sum of eigenvalues            :        -211.83651534 Ha       -5764.36487000 eV
  | XC energy correction          :         -27.04554418 Ha        -735.94670176 eV
  | XC potential correction       :          36.83263946 Ha        1002.26711441 eV
  | Free-atom electrostatic energy:        -164.89547461 Ha       -4487.03416180 eV
  | Hartree energy correction     :          -0.32790398 Ha          -8.92272133 eV
  | Entropy correction            :          -0.00020734 Ha          -0.00564190 eV
  | ---------------------------
  | Total energy                  :        -367.27279865 Ha       -9994.00134048 eV
  | Total energy, T -> 0          :        -367.27300599 Ha       -9994.00698237 eV  <-- do not rely on this value for anything but (periodic) metals
  | Electronic free energy        :        -367.27321332 Ha       -9994.01262427 eV

  Derived energy quantities:
  | Kinetic energy                :         367.89090135 Ha       10010.82077074 eV
  | Electrostatic energy          :        -708.11815582 Ha      -19268.87540946 eV
  | Energy correction for multipole
  | error in Hartree potential    :          -0.00030584 Ha          -0.00832234 eV
  | Sum of eigenvalues per atom                           :       -2882.18243500 eV
  | Total energy (T->0) per atom                          :       -4997.00349119 eV  <-- do not rely on this value for anything but (periodic) metals
  | Electronic free energy per atom                       :       -4997.00631213 eV
  Evaluating new KS density.
  Integration grid: deviation in total charge (<rho> - N_e) =   4.679706E-10

  Self-consistency convergence accuracy:
  | Change of charge density      :  0.1482E+00
  | Change of unmixed KS density  :  0.5438E-03
  | Change of sum of eigenvalues  : -0.1724E-01 eV
  | Change of total energy        :  0.7444E-02 eV


------------------------------------------------------------
  End self-consistency iteration #    37       :  max(cpu_time)    wall_clock(cpu1)
  | Time for this iteration                     :        0.267 s           0.216 s
  | Charge density update                       :        0.001 s           0.001 s
  | Density mixing                              :        0.260 s           0.209 s
  | Hartree multipole update                    :        0.001 s           0.001 s
  | Hartree multipole summation                 :        0.002 s           0.002 s
  | Integration                                 :        0.002 s           0.002 s
  | Solution of K.-S. eqns.                     :        0.001 s           0.001 s
  | Total energy evaluation                     :        0.000 s           0.000 s

  Partial memory accounting:
  | Current value for overall tracked memory usage:
  |   Minimum:        0.413 MB (on task 58)
  |   Maximum:        0.519 MB (on task 56)
  |   Average:        0.438 MB
  | Peak value for overall tracked memory usage:
  |   Minimum:        0.916 MB (on task 48 after allocating wave)
  |   Maximum:        1.028 MB (on task 56 after allocating wave)
  |   Average:        0.944 MB
  | Largest tracked array allocation so far:
  |   Minimum:        0.161 MB (gradient_basis_wave_store on task  0)
  |   Maximum:        0.164 MB (gradient_basis_wave_store on task  1)
  |   Average:        0.163 MB
  Note:  These values currently only include a subset of arrays which are explicitly tracked.
  The "true" memory usage will be greater.
------------------------------------------------------------

------------------------------------------------------------
          Begin self-consistency iteration #   38

  Date     :  20260724, Time     :  152922.259
------------------------------------------------------------
  SCF convergence analysis is based on: Mixed KS density changes
  Charge density: WARNING - The density does not seem to be converging.
                  The linear fit of ln(rho_delta) over the last 15 steps has a slope of   0.0044

  Pulay mixing of updated and previous charge densities.
  Available memory per node after mixing [GB]:   1034.05
  Renormalizing the density to the exact electron count on the 3D integration grid.
  | Formal number of electrons (from input files) :      20.0000000000
  | Integrated number of electrons on 3D grid     :      20.0000000007
  | Charge integration error                      :       0.0000000007
  | Normalization factor for density and gradient :       1.0000000000

  Evaluating partitioned Hartree potential by multipole expansion.
  | Original multipole sum: apparent total charge =  -0.111920E-14
  | Sum of charges compensated after spline to logarithmic grids =  -0.123591E-06
  | Analytical far-field extrapolation by fixed multipoles:
  | Hartree multipole sum: apparent total charge =  -0.110690E-14
  Summing up the Hartree potential.
  Time summed over all CPUs for potential: real work        0.001 s, elapsed        0.001 s
  | RMS charge density error from multipole expansion :   0.118009E-02

  Integrating Hamiltonian matrix: batch-based integration.
  Time summed over all CPUs for integration: real work        0.095 s, elapsed        0.109 s

  Updating Kohn-Sham eigenvalues and eigenvectors using ELSI and the ELPA eigensolver.
  Starting ELPA eigensolver
  Finished transformation to standard eigenproblem
  | Time :     0.000 s
  Finished solving standard eigenproblem
  | Time :     0.001 s
  Finished back-transformation of eigenvectors
  | Time :     0.000 s

  Obtaining occupation numbers and electronic chemical potential using ELSI.
  | Note that, for insulating systems, the printed 'chemical potential' value is not uniquely defined.
  | It can be anywhere in the energy gap, as long as it correctly separates occupied and unoccupied states.
  | In systems with a gap, the physically relevant chemical potential is the VBM or HOMO.

  | Chemical potential (Fermi level):    -6.18337917 eV
  Highest occupied state (VBM) at     -6.18338475 eV
  | Occupation number:      1.00062954

  Lowest unoccupied state (CBM) at    -6.18337359 eV
  | Occupation number:      0.99937045

  This system has fractional occupation numbers. Thus, it is a degenerate system
  within the approximate finite broadening function (occupation_type)
  applied to determine the occupation numbers.
  This may not be harmful. However, for some systems (free atoms), a different, non-degenerate
  ground state might exist by using a smaller broadening (see keyword occupation_type).
  Overall HOMO-LUMO gap:      0.00000000 eV.

  Total energy components:
  | Sum of eigenvalues            :        -211.83039420 Ha       -5764.19830526 eV
  | XC energy correction          :         -27.04636684 Ha        -735.96908745 eV
  | XC potential correction       :          36.83378794 Ha        1002.29836635 eV
  | Free-atom electrostatic energy:        -164.89547461 Ha       -4487.03416180 eV
  | Hartree energy correction     :          -0.33365824 Ha          -9.07930254 eV
  | Entropy correction            :          -0.00020734 Ha          -0.00564189 eV
  | ---------------------------
  | Total energy                  :        -367.27210593 Ha       -9993.98249069 eV
  | Total energy, T -> 0          :        -367.27231327 Ha       -9993.98813259 eV  <-- do not rely on this value for anything but (periodic) metals
  | Electronic free energy        :        -367.27252061 Ha       -9993.99377448 eV

  Derived energy quantities:
  | Kinetic energy                :         367.89581079 Ha       10010.95436327 eV
  | Electrostatic energy          :        -708.12154988 Ha      -19268.96776651 eV
  | Energy correction for multipole
  | error in Hartree potential    :          -0.00029325 Ha          -0.00797974 eV
  | Sum of eigenvalues per atom                           :       -2882.09915263 eV
  | Total energy (T->0) per atom                          :       -4996.99406629 eV  <-- do not rely on this value for anything but (periodic) metals
  | Electronic free energy per atom                       :       -4996.99688724 eV
  Evaluating new KS density.
  Integration grid: deviation in total charge (<rho> - N_e) =  -3.622809E-10

  Self-consistency convergence accuracy:
  | Change of charge density      :  0.1475E+00
  | Change of unmixed KS density  :  0.3426E-03
  | Change of sum of eigenvalues  :  0.1666E+00 eV
  | Change of total energy        :  0.1885E-01 eV


------------------------------------------------------------
  End self-consistency iteration #    38       :  max(cpu_time)    wall_clock(cpu1)
  | Time for this iteration                     :        0.314 s           0.125 s
  | Charge density update                       :        0.001 s           0.001 s
  | Density mixing                              :        0.307 s           0.118 s
  | Hartree multipole update                    :        0.001 s           0.001 s
  | Hartree multipole summation                 :        0.002 s           0.002 s
  | Integration                                 :        0.002 s           0.002 s
  | Solution of K.-S. eqns.                     :        0.001 s           0.001 s
  | Total energy evaluation                     :        0.000 s           0.000 s

  Partial memory accounting:
  | Current value for overall tracked memory usage:
  |   Minimum:        0.413 MB (on task 58)
  |   Maximum:        0.519 MB (on task 56)
  |   Average:        0.438 MB
  | Peak value for overall tracked memory usage:
  |   Minimum:        0.916 MB (on task 48 after allocating wave)
  |   Maximum:        1.028 MB (on task 56 after allocating wave)
  |   Average:        0.944 MB
  | Largest tracked array allocation so far:
  |   Minimum:        0.161 MB (gradient_basis_wave_store on task  0)
  |   Maximum:        0.164 MB (gradient_basis_wave_store on task  1)
  |   Average:        0.163 MB
  Note:  These values currently only include a subset of arrays which are explicitly tracked.
  The "true" memory usage will be greater.
------------------------------------------------------------

------------------------------------------------------------
          Begin self-consistency iteration #   39

  Date     :  20260724, Time     :  152922.424
------------------------------------------------------------
  SCF convergence analysis is based on: Mixed KS density changes
  Charge density: WARNING - The density does not seem to be converging.
                  The linear fit of ln(rho_delta) over the last 15 steps has a slope of   0.0031

  Pulay mixing of updated and previous charge densities.
  Available memory per node after mixing [GB]:   1034.05
  Renormalizing the density to the exact electron count on the 3D integration grid.
  | Formal number of electrons (from input files) :      20.0000000000
  | Integrated number of electrons on 3D grid     :      19.9999999983
  | Charge integration error                      :      -0.0000000017
  | Normalization factor for density and gradient :       1.0000000001

  Evaluating partitioned Hartree potential by multipole expansion.
  | Original multipole sum: apparent total charge =   0.413857E-14
  | Sum of charges compensated after spline to logarithmic grids =  -0.121786E-06
  | Analytical far-field extrapolation by fixed multipoles:
  | Hartree multipole sum: apparent total charge =   0.415087E-14
  Summing up the Hartree potential.
  Time summed over all CPUs for potential: real work        0.001 s, elapsed        0.001 s
  | RMS charge density error from multipole expansion :   0.117215E-02

  Integrating Hamiltonian matrix: batch-based integration.
  Time summed over all CPUs for integration: real work        0.094 s, elapsed        0.105 s

  Updating Kohn-Sham eigenvalues and eigenvectors using ELSI and the ELPA eigensolver.
  Starting ELPA eigensolver
  Finished transformation to standard eigenproblem
  | Time :     0.000 s
  Finished solving standard eigenproblem
  | Time :     0.001 s
  Finished back-transformation of eigenvectors
  | Time :     0.000 s

  Obtaining occupation numbers and electronic chemical potential using ELSI.
  | Note that, for insulating systems, the printed 'chemical potential' value is not uniquely defined.
  | It can be anywhere in the energy gap, as long as it correctly separates occupied and unoccupied states.
  | In systems with a gap, the physically relevant chemical potential is the VBM or HOMO.

  | Chemical potential (Fermi level):    -6.19142343 eV
  Highest occupied state (VBM) at     -6.19142368 eV
  | Occupation number:      1.00002780

  Lowest unoccupied state (CBM) at    -6.19142318 eV
  | Occupation number:      0.99997220

  This system has fractional occupation numbers. Thus, it is a degenerate system
  within the approximate finite broadening function (occupation_type)
  applied to determine the occupation numbers.
  This may not be harmful. However, for some systems (free atoms), a different, non-degenerate
  ground state might exist by using a smaller broadening (see keyword occupation_type).
  Overall HOMO-LUMO gap:      0.00000000 eV.

  Total energy components:
  | Sum of eigenvalues            :        -211.83191977 Ha       -5764.23981830 eV
  | XC energy correction          :         -27.04683938 Ha        -735.98194593 eV
  | XC potential correction       :          36.83442569 Ha        1002.31572037 eV
  | Free-atom electrostatic energy:        -164.89547461 Ha       -4487.03416180 eV
  | Hartree energy correction     :          -0.33144881 Ha          -9.01918104 eV
  | Entropy correction            :          -0.00020734 Ha          -0.00564190 eV
  | ---------------------------
  | Total energy                  :        -367.27125688 Ha       -9993.95938669 eV
  | Total energy, T -> 0          :        -367.27146421 Ha       -9993.96502858 eV  <-- do not rely on this value for anything but (periodic) metals
  | Electronic free energy        :        -367.27167155 Ha       -9993.97067048 eV

  Derived energy quantities:
  | Kinetic energy                :         367.90071944 Ha       10011.08793455 eV
  | Electrostatic energy          :        -708.12513694 Ha      -19269.06537531 eV
  | Energy correction for multipole
  | error in Hartree potential    :          -0.00028198 Ha          -0.00767307 eV
  | Sum of eigenvalues per atom                           :       -2882.11990915 eV
  | Total energy (T->0) per atom                          :       -4996.98251429 eV  <-- do not rely on this value for anything but (periodic) metals
  | Electronic free energy per atom                       :       -4996.98533524 eV
  Evaluating new KS density.
  Integration grid: deviation in total charge (<rho> - N_e) =  -8.078871E-12

  Self-consistency convergence accuracy:
  | Change of charge density      :  0.1445E+00
  | Change of unmixed KS density  :  0.6105E-03
  | Change of sum of eigenvalues  : -0.4151E-01 eV
  | Change of total energy        :  0.2310E-01 eV


------------------------------------------------------------
  End self-consistency iteration #    39       :  max(cpu_time)    wall_clock(cpu1)
  | Time for this iteration                     :        0.264 s           0.236 s
  | Charge density update                       :        0.001 s           0.001 s
  | Density mixing                              :        0.257 s           0.229 s
  | Hartree multipole update                    :        0.001 s           0.001 s
  | Hartree multipole summation                 :        0.002 s           0.001 s
  | Integration                                 :        0.002 s           0.002 s
  | Solution of K.-S. eqns.                     :        0.001 s           0.001 s
  | Total energy evaluation                     :        0.000 s           0.000 s

  Partial memory accounting:
  | Current value for overall tracked memory usage:
  |   Minimum:        0.413 MB (on task 58)
  |   Maximum:        0.519 MB (on task 56)
  |   Average:        0.438 MB
  | Peak value for overall tracked memory usage:
  |   Minimum:        0.916 MB (on task 48 after allocating wave)
  |   Maximum:        1.028 MB (on task 56 after allocating wave)
  |   Average:        0.944 MB
  | Largest tracked array allocation so far:
  |   Minimum:        0.161 MB (gradient_basis_wave_store on task  0)
  |   Maximum:        0.164 MB (gradient_basis_wave_store on task  1)
  |   Average:        0.163 MB
  Note:  These values currently only include a subset of arrays which are explicitly tracked.
  The "true" memory usage will be greater.
------------------------------------------------------------

------------------------------------------------------------
          Begin self-consistency iteration #   40

  Date     :  20260724, Time     :  152922.768
------------------------------------------------------------
  SCF convergence analysis is based on: Mixed KS density changes

  ** WARNING: SCF cycle seems to have stalled.
  ** There has been no decrease in the density change for more than 15 consecutive SCF steps.
  ** The charge density change did not decrease below  5.749E-02 for 15 steps

  Charge density: The charge density seems to be converging.
                  The linear fit of ln(rho_delta) over the last 15 steps has a slope of  -0.0029
  Estimated 1787 more steps to reach target accuracy

  Pulay mixing of updated and previous charge densities.
  Available memory per node after mixing [GB]:   1034.05
  Renormalizing the density to the exact electron count on the 3D integration grid.
  | Formal number of electrons (from input files) :      20.0000000000
  | Integrated number of electrons on 3D grid     :      19.9999999997
  | Charge integration error                      :      -0.0000000003
  | Normalization factor for density and gradient :       1.0000000000

  Evaluating partitioned Hartree potential by multipole expansion.
  | Original multipole sum: apparent total charge =   0.134058E-14
  | Sum of charges compensated after spline to logarithmic grids =  -0.121535E-06
  | Analytical far-field extrapolation by fixed multipoles:
  | Hartree multipole sum: apparent total charge =   0.125448E-14
  Summing up the Hartree potential.
  Time summed over all CPUs for potential: real work        0.001 s, elapsed        0.001 s
  | RMS charge density error from multipole expansion :   0.117143E-02

  Integrating Hamiltonian matrix: batch-based integration.
  Time summed over all CPUs for integration: real work        0.095 s, elapsed        0.109 s

  Updating Kohn-Sham eigenvalues and eigenvectors using ELSI and the ELPA eigensolver.
  Starting ELPA eigensolver
  Finished transformation to standard eigenproblem
  | Time :     0.000 s
  Finished solving standard eigenproblem
  | Time :     0.001 s
  Finished back-transformation of eigenvectors
  | Time :     0.000 s

  Obtaining occupation numbers and electronic chemical potential using ELSI.
  | Note that, for insulating systems, the printed 'chemical potential' value is not uniquely defined.
  | It can be anywhere in the energy gap, as long as it correctly separates occupied and unoccupied states.
  | In systems with a gap, the physically relevant chemical potential is the VBM or HOMO.

  | Chemical potential (Fermi level):    -6.19203932 eV
  Highest occupied state (VBM) at     -6.19204020 eV
  | Occupation number:      1.00009853

  Lowest unoccupied state (CBM) at    -6.19203845 eV
  | Occupation number:      0.99990147

  This system has fractional occupation numbers. Thus, it is a degenerate system
  within the approximate finite broadening function (occupation_type)
  applied to determine the occupation numbers.
  This may not be harmful. However, for some systems (free atoms), a different, non-degenerate
  ground state might exist by using a smaller broadening (see keyword occupation_type).
  Overall HOMO-LUMO gap:      0.00000000 eV.

  Total energy components:
  | Sum of eigenvalues            :        -211.83187293 Ha       -5764.23854358 eV
  | XC energy correction          :         -27.04689216 Ha        -735.98338203 eV
  | XC potential correction       :          36.83449784 Ha        1002.31768347 eV
  | Free-atom electrostatic energy:        -164.89547461 Ha       -4487.03416180 eV
  | Hartree energy correction     :          -0.33143721 Ha          -9.01886523 eV
  | Entropy correction            :          -0.00020734 Ha          -0.00564190 eV
  | ---------------------------
  | Total energy                  :        -367.27117906 Ha       -9993.95726918 eV
  | Total energy, T -> 0          :        -367.27138640 Ha       -9993.96291107 eV  <-- do not rely on this value for anything but (periodic) metals
  | Electronic free energy        :        -367.27159373 Ha       -9993.96855297 eV

  Derived energy quantities:
  | Kinetic energy                :         367.90114373 Ha       10011.09948005 eV
  | Electrostatic energy          :        -708.12543063 Ha      -19269.07336719 eV
  | Energy correction for multipole
  | error in Hartree potential    :          -0.00028098 Ha          -0.00764576 eV
  | Sum of eigenvalues per atom                           :       -2882.11927179 eV
  | Total energy (T->0) per atom                          :       -4996.98145554 eV  <-- do not rely on this value for anything but (periodic) metals
  | Electronic free energy per atom                       :       -4996.98427648 eV
  Evaluating new KS density.
  Integration grid: deviation in total charge (<rho> - N_e) =   5.682139E-10

  Self-consistency convergence accuracy:
  | Change of charge density      :  0.1422E+00
  | Change of unmixed KS density  :  0.1058E-02
  | Change of sum of eigenvalues  :  0.1275E-02 eV
  | Change of total energy        :  0.2118E-02 eV


------------------------------------------------------------
  End self-consistency iteration #    40       :  max(cpu_time)    wall_clock(cpu1)
  | Time for this iteration                     :        0.280 s           0.184 s
  | Charge density update                       :        0.001 s           0.001 s
  | Density mixing                              :        0.273 s           0.177 s
  | Hartree multipole update                    :        0.001 s           0.001 s
  | Hartree multipole summation                 :        0.002 s           0.002 s
  | Integration                                 :        0.002 s           0.002 s
  | Solution of K.-S. eqns.                     :        0.001 s           0.001 s
  | Total energy evaluation                     :        0.000 s           0.000 s

  Partial memory accounting:
  | Current value for overall tracked memory usage:
  |   Minimum:        0.413 MB (on task 58)
  |   Maximum:        0.519 MB (on task 56)
  |   Average:        0.438 MB
  | Peak value for overall tracked memory usage:
  |   Minimum:        0.916 MB (on task 48 after allocating wave)
  |   Maximum:        1.028 MB (on task 56 after allocating wave)
  |   Average:        0.944 MB
  | Largest tracked array allocation so far:
  |   Minimum:        0.161 MB (gradient_basis_wave_store on task  0)
  |   Maximum:        0.164 MB (gradient_basis_wave_store on task  1)
  |   Average:        0.163 MB
  Note:  These values currently only include a subset of arrays which are explicitly tracked.
  The "true" memory usage will be greater.
------------------------------------------------------------

------------------------------------------------------------
          Begin self-consistency iteration #   41

  Date     :  20260724, Time     :  152922.964
------------------------------------------------------------
  SCF convergence analysis is based on: Mixed KS density changes

  ** WARNING: SCF cycle seems to have stalled.
  ** There has been no decrease in the density change for more than 15 consecutive SCF steps.
  ** The charge density change did not decrease below  5.749E-02 for 16 steps

  Charge density: The charge density seems to be converging.
                  The linear fit of ln(rho_delta) over the last 15 steps has a slope of  -0.0008
  Estimated 6494 more steps to reach target accuracy

  Pulay mixing of updated and previous charge densities.
  Available memory per node after mixing [GB]:   1034.05
  Renormalizing the density to the exact electron count on the 3D integration grid.
  | Formal number of electrons (from input files) :      20.0000000000
  | Integrated number of electrons on 3D grid     :      20.0000000004
  | Charge integration error                      :       0.0000000004
  | Normalization factor for density and gradient :       1.0000000000

  Evaluating partitioned Hartree potential by multipole expansion.
  | Original multipole sum: apparent total charge =   0.101466E-13
  | Sum of charges compensated after spline to logarithmic grids =  -0.113567E-06
  | Analytical far-field extrapolation by fixed multipoles:
  | Hartree multipole sum: apparent total charge =   0.101958E-13
  Summing up the Hartree potential.
  Time summed over all CPUs for potential: real work        0.001 s, elapsed        0.001 s
  | RMS charge density error from multipole expansion :   0.116344E-02

  Integrating Hamiltonian matrix: batch-based integration.
  Time summed over all CPUs for integration: real work        0.094 s, elapsed        0.105 s

  Updating Kohn-Sham eigenvalues and eigenvectors using ELSI and the ELPA eigensolver.
  Starting ELPA eigensolver
  Finished transformation to standard eigenproblem
  | Time :     0.000 s
  Finished solving standard eigenproblem
  | Time :     0.001 s
  Finished back-transformation of eigenvectors
  | Time :     0.000 s

  Obtaining occupation numbers and electronic chemical potential using ELSI.
  | Note that, for insulating systems, the printed 'chemical potential' value is not uniquely defined.
  | It can be anywhere in the energy gap, as long as it correctly separates occupied and unoccupied states.
  | In systems with a gap, the physically relevant chemical potential is the VBM or HOMO.

  | Chemical potential (Fermi level):    -6.19740876 eV
  Highest occupied state (VBM) at     -6.19784925 eV
  | Occupation number:      1.04967172

  Lowest unoccupied state (CBM) at    -2.73826405 eV
  | Occupation number:      0.00000000

  This system has fractional occupation numbers. Thus, it is a degenerate system
  within the approximate finite broadening function (occupation_type)
  applied to determine the occupation numbers.
  This may not be harmful. However, for some systems (free atoms), a different, non-degenerate
  ground state might exist by using a smaller broadening (see keyword occupation_type).
  Overall HOMO-LUMO gap:      0.00000000 eV.

  Total energy components:
  | Sum of eigenvalues            :        -211.82274603 Ha       -5763.99018815 eV
  | XC energy correction          :         -27.04844747 Ha        -736.02570425 eV
  | XC potential correction       :          36.83663850 Ha        1002.37593379 eV
  | Free-atom electrostatic energy:        -164.89547461 Ha       -4487.03416180 eV
  | Hartree energy correction     :          -0.33977262 Ha          -9.24568338 eV
  | Entropy correction            :          -0.00023368 Ha          -0.00635877 eV
  | ---------------------------
  | Total energy                  :        -367.26980223 Ha       -9993.91980380 eV
  | Total energy, T -> 0          :        -367.27003591 Ha       -9993.92616257 eV  <-- do not rely on this value for anything but (periodic) metals
  | Electronic free energy        :        -367.27026959 Ha       -9993.93252134 eV

  Derived energy quantities:
  | Kinetic energy                :         367.91082988 Ha       10011.36305361 eV
  | Electrostatic energy          :        -708.13218464 Ha      -19269.25715315 eV
  | Energy correction for multipole
  | error in Hartree potential    :          -0.00025784 Ha          -0.00701607 eV
  | Sum of eigenvalues per atom                           :       -2881.99509408 eV
  | Total energy (T->0) per atom                          :       -4996.96308128 eV  <-- do not rely on this value for anything but (periodic) metals
  | Electronic free energy per atom                       :       -4996.96626067 eV
  Evaluating new KS density.
  Integration grid: deviation in total charge (<rho> - N_e) =  -5.918999E-10

  Self-consistency convergence accuracy:
  | Change of charge density      :  0.1419E+00
  | Change of unmixed KS density  :  0.8813E-04
  | Change of sum of eigenvalues  :  0.2484E+00 eV
  | Change of total energy        :  0.3747E-01 eV


------------------------------------------------------------
  End self-consistency iteration #    41       :  max(cpu_time)    wall_clock(cpu1)
  | Time for this iteration                     :        0.268 s           0.268 s
  | Charge density update                       :        0.001 s           0.001 s
  | Density mixing                              :        0.261 s           0.261 s
  | Hartree multipole update                    :        0.001 s           0.001 s
  | Hartree multipole summation                 :        0.002 s           0.002 s
  | Integration                                 :        0.002 s           0.002 s
  | Solution of K.-S. eqns.                     :        0.001 s           0.001 s
  | Total energy evaluation                     :        0.000 s           0.000 s

  Partial memory accounting:
  | Current value for overall tracked memory usage:
  |   Minimum:        0.413 MB (on task 58)
  |   Maximum:        0.519 MB (on task 56)
  |   Average:        0.438 MB
  | Peak value for overall tracked memory usage:
  |   Minimum:        0.916 MB (on task 48 after allocating wave)
  |   Maximum:        1.028 MB (on task 56 after allocating wave)
  |   Average:        0.944 MB
  | Largest tracked array allocation so far:
  |   Minimum:        0.161 MB (gradient_basis_wave_store on task  0)
  |   Maximum:        0.164 MB (gradient_basis_wave_store on task  1)
  |   Average:        0.163 MB
  Note:  These values currently only include a subset of arrays which are explicitly tracked.
  The "true" memory usage will be greater.
------------------------------------------------------------

------------------------------------------------------------
          Begin self-consistency iteration #   42

  Date     :  20260724, Time     :  152923.244
------------------------------------------------------------
  SCF convergence analysis is based on: Mixed KS density changes

  ** WARNING: SCF cycle seems to have stalled.
  ** There has been no decrease in the density change for more than 15 consecutive SCF steps.
  ** The charge density change did not decrease below  5.749E-02 for 17 steps

  Charge density: The charge density seems to be converging.
                  The linear fit of ln(rho_delta) over the last 15 steps has a slope of  -0.0000
  Estimated 100000 more steps to reach target accuracy

  Pulay mixing of updated and previous charge densities.
  Available memory per node after mixing [GB]:   1034.05
  Renormalizing the density to the exact electron count on the 3D integration grid.
  | Formal number of electrons (from input files) :      20.0000000000
  | Integrated number of electrons on 3D grid     :      19.9999999997
  | Charge integration error                      :      -0.0000000003
  | Normalization factor for density and gradient :       1.0000000000

  Evaluating partitioned Hartree potential by multipole expansion.
  | Original multipole sum: apparent total charge =  -0.333299E-14
  | Sum of charges compensated after spline to logarithmic grids =  -0.110014E-06
  | Analytical far-field extrapolation by fixed multipoles:
  | Hartree multipole sum: apparent total charge =  -0.343753E-14
  Summing up the Hartree potential.
  Time summed over all CPUs for potential: real work        0.001 s, elapsed        0.001 s
  | RMS charge density error from multipole expansion :   0.115705E-02

  Integrating Hamiltonian matrix: batch-based integration.
  Time summed over all CPUs for integration: real work        0.095 s, elapsed        0.110 s

  Updating Kohn-Sham eigenvalues and eigenvectors using ELSI and the ELPA eigensolver.
  Starting ELPA eigensolver
  Finished transformation to standard eigenproblem
  | Time :     0.000 s
  Finished solving standard eigenproblem
  | Time :     0.000 s
  Finished back-transformation of eigenvectors
  | Time :     0.000 s

  Obtaining occupation numbers and electronic chemical potential using ELSI.
  | Note that, for insulating systems, the printed 'chemical potential' value is not uniquely defined.
  | It can be anywhere in the energy gap, as long as it correctly separates occupied and unoccupied states.
  | In systems with a gap, the physically relevant chemical potential is the VBM or HOMO.

  | Chemical potential (Fermi level):    -6.19739342 eV
  Highest occupied state (VBM) at     -6.20385499 eV
  | Occupation number:      1.63918009

  Lowest unoccupied state (CBM) at    -6.19487249 eV
  | Occupation number:      0.72145604

  This system has fractional occupation numbers. Thus, it is a degenerate system
  within the approximate finite broadening function (occupation_type)
  applied to determine the occupation numbers.
  This may not be harmful. However, for some systems (free atoms), a different, non-degenerate
  ground state might exist by using a smaller broadening (see keyword occupation_type).
  Overall HOMO-LUMO gap:      0.00000000 eV.

  Total energy components:
  | Sum of eigenvalues            :        -211.82137586 Ha       -5763.95290372 eV
  | XC energy correction          :         -27.04917174 Ha        -736.04541264 eV
  | XC potential correction       :          36.83763033 Ha        1002.40292298 eV
  | Free-atom electrostatic energy:        -164.89547461 Ha       -4487.03416180 eV
  | Hartree energy correction     :          -0.34104623 Ha          -9.28034022 eV
  | Entropy correction            :          -0.00023383 Ha          -0.00636286 eV
  | ---------------------------
  | Total energy                  :        -367.26943811 Ha       -9993.90989539 eV
  | Total energy, T -> 0          :        -367.26967194 Ha       -9993.91625825 eV  <-- do not rely on this value for anything but (periodic) metals
  | Electronic free energy        :        -367.26990577 Ha       -9993.92262110 eV

  Derived energy quantities:
  | Kinetic energy                :         367.91545838 Ha       10011.48900135 eV
  | Electrostatic energy          :        -708.13572474 Ha      -19269.35348410 eV
  | Energy correction for multipole
  | error in Hartree potential    :          -0.00024517 Ha          -0.00667145 eV
  | Sum of eigenvalues per atom                           :       -2881.97645186 eV
  | Total energy (T->0) per atom                          :       -4996.95812912 eV  <-- do not rely on this value for anything but (periodic) metals
  | Electronic free energy per atom                       :       -4996.96131055 eV
  Evaluating new KS density.
  Integration grid: deviation in total charge (<rho> - N_e) =   8.326637E-10

  Self-consistency convergence accuracy:
  | Change of charge density      :  0.1244E+00
  | Change of unmixed KS density  :  0.1310E-01
  | Change of sum of eigenvalues  :  0.3728E-01 eV
  | Change of total energy        :  0.9908E-02 eV


------------------------------------------------------------
  End self-consistency iteration #    42       :  max(cpu_time)    wall_clock(cpu1)
  | Time for this iteration                     :        0.267 s           0.267 s
  | Charge density update                       :        0.001 s           0.001 s
  | Density mixing                              :        0.260 s           0.260 s
  | Hartree multipole update                    :        0.001 s           0.001 s
  | Hartree multipole summation                 :        0.002 s           0.002 s
  | Integration                                 :        0.002 s           0.002 s
  | Solution of K.-S. eqns.                     :        0.001 s           0.001 s
  | Total energy evaluation                     :        0.000 s           0.000 s

  Partial memory accounting:
  | Current value for overall tracked memory usage:
  |   Minimum:        0.413 MB (on task 58)
  |   Maximum:        0.519 MB (on task 56)
  |   Average:        0.438 MB
  | Peak value for overall tracked memory usage:
  |   Minimum:        0.916 MB (on task 48 after allocating wave)
  |   Maximum:        1.028 MB (on task 56 after allocating wave)
  |   Average:        0.944 MB
  | Largest tracked array allocation so far:
  |   Minimum:        0.161 MB (gradient_basis_wave_store on task  0)
  |   Maximum:        0.164 MB (gradient_basis_wave_store on task  1)
  |   Average:        0.163 MB
  Note:  These values currently only include a subset of arrays which are explicitly tracked.
  The "true" memory usage will be greater.
------------------------------------------------------------

------------------------------------------------------------
          Begin self-consistency iteration #   43

  Date     :  20260724, Time     :  152923.520
------------------------------------------------------------
  SCF convergence analysis is based on: Mixed KS density changes
  Charge density: The charge density seems to be converging.
                  The linear fit of ln(rho_delta) over the last 15 steps has a slope of  -0.0114
  Estimated 379 more steps to reach target accuracy

  Pulay mixing of updated and previous charge densities.
  Available memory per node after mixing [GB]:   1034.05
  Renormalizing the density to the exact electron count on the 3D integration grid.
  | Formal number of electrons (from input files) :      20.0000000000
  | Integrated number of electrons on 3D grid     :      20.0000000015
  | Charge integration error                      :       0.0000000015
  | Normalization factor for density and gradient :       0.9999999999

  Evaluating partitioned Hartree potential by multipole expansion.
  | Original multipole sum: apparent total charge =   0.359127E-14
  | Sum of charges compensated after spline to logarithmic grids =  -0.122840E-06
  | Analytical far-field extrapolation by fixed multipoles:
  | Hartree multipole sum: apparent total charge =   0.372041E-14
  Summing up the Hartree potential.
  Time summed over all CPUs for potential: real work        0.001 s, elapsed        0.001 s
  | RMS charge density error from multipole expansion :   0.117933E-02

  Integrating Hamiltonian matrix: batch-based integration.
  Time summed over all CPUs for integration: real work        0.094 s, elapsed        0.105 s

  Updating Kohn-Sham eigenvalues and eigenvectors using ELSI and the ELPA eigensolver.
  Starting ELPA eigensolver
  Finished transformation to standard eigenproblem
  | Time :     0.000 s
  Finished solving standard eigenproblem
  | Time :     0.001 s
  Finished back-transformation of eigenvectors
  | Time :     0.000 s

  Obtaining occupation numbers and electronic chemical potential using ELSI.
  | Note that, for insulating systems, the printed 'chemical potential' value is not uniquely defined.
  | It can be anywhere in the energy gap, as long as it correctly separates occupied and unoccupied states.
  | In systems with a gap, the physically relevant chemical potential is the VBM or HOMO.

  | Chemical potential (Fermi level):    -6.18565953 eV
  Highest occupied state (VBM) at     -6.18566277 eV
  | Occupation number:      1.00036600

  Lowest unoccupied state (CBM) at    -6.18565628 eV
  | Occupation number:      0.99963400

  This system has fractional occupation numbers. Thus, it is a degenerate system
  within the approximate finite broadening function (occupation_type)
  applied to determine the occupation numbers.
  This may not be harmful. However, for some systems (free atoms), a different, non-degenerate
  ground state might exist by using a smaller broadening (see keyword occupation_type).
  Overall HOMO-LUMO gap:      0.00000000 eV.

  Total energy components:
  | Sum of eigenvalues            :        -211.83116273 Ha       -5764.21921803 eV
  | XC energy correction          :         -27.04643403 Ha        -735.97091576 eV
  | XC potential correction       :          36.83388669 Ha        1002.30105331 eV
  | Free-atom electrostatic energy:        -164.89547461 Ha       -4487.03416180 eV
  | Hartree energy correction     :          -0.33267297 Ha          -9.05249207 eV
  | Entropy correction            :          -0.00020734 Ha          -0.00564190 eV
  | ---------------------------
  | Total energy                  :        -367.27185764 Ha       -9993.97573434 eV
  | Total energy, T -> 0          :        -367.27206498 Ha       -9993.98137624 eV  <-- do not rely on this value for anything but (periodic) metals
  | Electronic free energy        :        -367.27227231 Ha       -9993.98701813 eV

  Derived energy quantities:
  | Kinetic energy                :         367.89615521 Ha       10010.96373540 eV
  | Electrostatic energy          :        -708.12157882 Ha      -19268.96855399 eV
  | Energy correction for multipole
  | error in Hartree potential    :          -0.00029138 Ha          -0.00792881 eV
  | Sum of eigenvalues per atom                           :       -2882.10960901 eV
  | Total energy (T->0) per atom                          :       -4996.99068812 eV  <-- do not rely on this value for anything but (periodic) metals
  | Electronic free energy per atom                       :       -4996.99350907 eV
  Evaluating new KS density.
  Integration grid: deviation in total charge (<rho> - N_e) =  -4.924949E-10

  Self-consistency convergence accuracy:
  | Change of charge density      :  0.2157E-01
  | Change of unmixed KS density  :  0.1438E+00
  | Change of sum of eigenvalues  : -0.2663E+00 eV
  | Change of total energy        : -0.6584E-01 eV


------------------------------------------------------------
  End self-consistency iteration #    43       :  max(cpu_time)    wall_clock(cpu1)
  | Time for this iteration                     :        0.267 s           0.267 s
  | Charge density update                       :        0.001 s           0.001 s
  | Density mixing                              :        0.260 s           0.260 s
  | Hartree multipole update                    :        0.001 s           0.002 s
  | Hartree multipole summation                 :        0.002 s           0.001 s
  | Integration                                 :        0.002 s           0.002 s
  | Solution of K.-S. eqns.                     :        0.001 s           0.001 s
  | Total energy evaluation                     :        0.000 s           0.000 s

  Partial memory accounting:
  | Current value for overall tracked memory usage:
  |   Minimum:        0.413 MB (on task 58)
  |   Maximum:        0.519 MB (on task 56)
  |   Average:        0.438 MB
  | Peak value for overall tracked memory usage:
  |   Minimum:        0.916 MB (on task 48 after allocating wave)
  |   Maximum:        1.028 MB (on task 56 after allocating wave)
  |   Average:        0.944 MB
  | Largest tracked array allocation so far:
  |   Minimum:        0.161 MB (gradient_basis_wave_store on task  0)
  |   Maximum:        0.164 MB (gradient_basis_wave_store on task  1)
  |   Average:        0.163 MB
  Note:  These values currently only include a subset of arrays which are explicitly tracked.
  The "true" memory usage will be greater.
------------------------------------------------------------

------------------------------------------------------------
          Begin self-consistency iteration #   44

  Date     :  20260724, Time     :  152923.832
------------------------------------------------------------
  SCF convergence analysis is based on: Mixed KS density changes
  Charge density: The charge density seems to be converging.
                  The linear fit of ln(rho_delta) over the last 15 steps has a slope of  -0.0119
  Estimated 435 more steps to reach target accuracy

  Pulay mixing of updated and previous charge densities.
  Available memory per node after mixing [GB]:   1034.05
  Renormalizing the density to the exact electron count on the 3D integration grid.
  | Formal number of electrons (from input files) :      20.0000000000
  | Integrated number of electrons on 3D grid     :      19.9999999987
  | Charge integration error                      :      -0.0000000013
  | Normalization factor for density and gradient :       1.0000000001

  Evaluating partitioned Hartree potential by multipole expansion.
  | Original multipole sum: apparent total charge =  -0.169109E-14
  | Sum of charges compensated after spline to logarithmic grids =  -0.110851E-06
  | Analytical far-field extrapolation by fixed multipoles:
  | Hartree multipole sum: apparent total charge =  -0.169724E-14
  Summing up the Hartree potential.
  Time summed over all CPUs for potential: real work        0.001 s, elapsed        0.001 s
  | RMS charge density error from multipole expansion :   0.115835E-02

  Integrating Hamiltonian matrix: batch-based integration.
  Time summed over all CPUs for integration: real work        0.094 s, elapsed        0.107 s

  Updating Kohn-Sham eigenvalues and eigenvectors using ELSI and the ELPA eigensolver.
  Starting ELPA eigensolver
  Finished transformation to standard eigenproblem
  | Time :     0.000 s
  Finished solving standard eigenproblem
  | Time :     0.001 s
  Finished back-transformation of eigenvectors
  | Time :     0.000 s

  Obtaining occupation numbers and electronic chemical potential using ELSI.
  | Note that, for insulating systems, the printed 'chemical potential' value is not uniquely defined.
  | It can be anywhere in the energy gap, as long as it correctly separates occupied and unoccupied states.
  | In systems with a gap, the physically relevant chemical potential is the VBM or HOMO.

  | Chemical potential (Fermi level):    -6.19818134 eV
  Highest occupied state (VBM) at     -6.20324936 eV
  | Occupation number:      1.52645683

  Lowest unoccupied state (CBM) at    -6.19770951 eV
  | Occupation number:      0.94679928

  This system has fractional occupation numbers. Thus, it is a degenerate system
  within the approximate finite broadening function (occupation_type)
  applied to determine the occupation numbers.
  This may not be harmful. However, for some systems (free atoms), a different, non-degenerate
  ground state might exist by using a smaller broadening (see keyword occupation_type).
  Overall HOMO-LUMO gap:      0.00000000 eV.

  Total energy components:
  | Sum of eigenvalues            :        -211.82217164 Ha       -5763.97455806 eV
  | XC energy correction          :         -27.04900527 Ha        -736.04088284 eV
  | XC potential correction       :          36.83739939 Ha        1002.39663883 eV
  | Free-atom electrostatic energy:        -164.89547461 Ha       -4487.03416180 eV
  | Hartree energy correction     :          -0.34011812 Ha          -9.25508503 eV
  | Entropy correction            :          -0.00026378 Ha          -0.00717787 eV
  | ---------------------------
  | Total energy                  :        -367.26937025 Ha       -9993.90804889 eV
  | Total energy, T -> 0          :        -367.26963403 Ha       -9993.91522676 eV  <-- do not rely on this value for anything but (periodic) metals
  | Electronic free energy        :        -367.26989781 Ha       -9993.92240464 eV

  Derived energy quantities:
  | Kinetic energy                :         367.91474051 Ha       10011.46946717 eV
  | Electrostatic energy          :        -708.13510548 Ha      -19269.33663322 eV
  | Energy correction for multipole
  | error in Hartree potential    :          -0.00024754 Ha          -0.00673603 eV
  | Sum of eigenvalues per atom                           :       -2881.98727903 eV
  | Total energy (T->0) per atom                          :       -4996.95761338 eV  <-- do not rely on this value for anything but (periodic) metals
  | Electronic free energy per atom                       :       -4996.96120232 eV
  Evaluating new KS density.
  Integration grid: deviation in total charge (<rho> - N_e) =   2.713278E-10

  Self-consistency convergence accuracy:
  | Change of charge density      :  0.1437E+00
  | Change of unmixed KS density  :  0.1575E+00
  | Change of sum of eigenvalues  :  0.2447E+00 eV
  | Change of total energy        :  0.6769E-01 eV


------------------------------------------------------------
  End self-consistency iteration #    44       :  max(cpu_time)    wall_clock(cpu1)
  | Time for this iteration                     :        0.265 s           0.233 s
  | Charge density update                       :        0.001 s           0.001 s
  | Density mixing                              :        0.258 s           0.226 s
  | Hartree multipole update                    :        0.001 s           0.001 s
  | Hartree multipole summation                 :        0.002 s           0.002 s
  | Integration                                 :        0.002 s           0.002 s
  | Solution of K.-S. eqns.                     :        0.001 s           0.001 s
  | Total energy evaluation                     :        0.000 s           0.000 s

  Partial memory accounting:
  | Current value for overall tracked memory usage:
  |   Minimum:        0.413 MB (on task 58)
  |   Maximum:        0.519 MB (on task 56)
  |   Average:        0.438 MB
  | Peak value for overall tracked memory usage:
  |   Minimum:        0.916 MB (on task 48 after allocating wave)
  |   Maximum:        1.028 MB (on task 56 after allocating wave)
  |   Average:        0.944 MB
  | Largest tracked array allocation so far:
  |   Minimum:        0.161 MB (gradient_basis_wave_store on task  0)
  |   Maximum:        0.164 MB (gradient_basis_wave_store on task  1)
  |   Average:        0.163 MB
  Note:  These values currently only include a subset of arrays which are explicitly tracked.
  The "true" memory usage will be greater.
------------------------------------------------------------

------------------------------------------------------------
          Begin self-consistency iteration #   45

  Date     :  20260724, Time     :  152924.167
------------------------------------------------------------
  SCF convergence analysis is based on: Mixed KS density changes
  Charge density: The charge density seems to be converging.
                  The linear fit of ln(rho_delta) over the last 15 steps has a slope of  -0.0354
  Estimated 108 more steps to reach target accuracy

  Pulay mixing of updated and previous charge densities.
  Available memory per node after mixing [GB]:   1034.05
  Renormalizing the density to the exact electron count on the 3D integration grid.
  | Formal number of electrons (from input files) :      20.0000000000
  | Integrated number of electrons on 3D grid     :      19.9999999995
  | Charge integration error                      :      -0.0000000005
  | Normalization factor for density and gradient :       1.0000000000

  Evaluating partitioned Hartree potential by multipole expansion.
  | Original multipole sum: apparent total charge =   0.445834E-14
  | Sum of charges compensated after spline to logarithmic grids =  -0.111386E-06
  | Analytical far-field extrapolation by fixed multipoles:
  | Hartree multipole sum: apparent total charge =   0.455673E-14
  Summing up the Hartree potential.
  Time summed over all CPUs for potential: real work        0.001 s, elapsed        0.002 s
  | RMS charge density error from multipole expansion :   0.115797E-02

  Integrating Hamiltonian matrix: batch-based integration.
  Time summed over all CPUs for integration: real work        0.096 s, elapsed        0.110 s

  Updating Kohn-Sham eigenvalues and eigenvectors using ELSI and the ELPA eigensolver.
  Starting ELPA eigensolver
  Finished transformation to standard eigenproblem
  | Time :     0.001 s
  Finished solving standard eigenproblem
  | Time :     0.000 s
  Finished back-transformation of eigenvectors
  | Time :     0.000 s

  Obtaining occupation numbers and electronic chemical potential using ELSI.
  | Note that, for insulating systems, the printed 'chemical potential' value is not uniquely defined.
  | It can be anywhere in the energy gap, as long as it correctly separates occupied and unoccupied states.
  | In systems with a gap, the physically relevant chemical potential is the VBM or HOMO.

  | Chemical potential (Fermi level):    -6.19981939 eV
  Highest occupied state (VBM) at     -6.20594768 eV
  | Occupation number:      1.61387766

  Lowest unoccupied state (CBM) at    -6.19777075 eV
  | Occupation number:      0.77202973

  This system has fractional occupation numbers. Thus, it is a degenerate system
  within the approximate finite broadening function (occupation_type)
  applied to determine the occupation numbers.
  This may not be harmful. However, for some systems (free atoms), a different, non-degenerate
  ground state might exist by using a smaller broadening (see keyword occupation_type).
  Overall HOMO-LUMO gap:      0.00000000 eV.

  Total energy components:
  | Sum of eigenvalues            :        -211.82500215 Ha       -5764.05158025 eV
  | XC energy correction          :         -27.04893071 Ha        -736.03885380 eV
  | XC potential correction       :          36.83727894 Ha        1002.39336118 eV
  | Free-atom electrostatic energy:        -164.89547461 Ha       -4487.03416180 eV
  | Hartree energy correction     :          -0.33728945 Ha          -9.17811280 eV
  | Entropy correction            :          -0.00024180 Ha          -0.00657979 eV
  | ---------------------------
  | Total energy                  :        -367.26941797 Ha       -9993.90934747 eV
  | Total energy, T -> 0          :        -367.26965977 Ha       -9993.91592726 eV  <-- do not rely on this value for anything but (periodic) metals
  | Electronic free energy        :        -367.26990158 Ha       -9993.92250706 eV

  Derived energy quantities:
  | Kinetic energy                :         367.91538734 Ha       10011.48706833 eV
  | Electrostatic energy          :        -708.13587460 Ha      -19269.35756200 eV
  | Energy correction for multipole
  | error in Hartree potential    :          -0.00024800 Ha          -0.00674853 eV
  | Sum of eigenvalues per atom                           :       -2882.02579012 eV
  | Total energy (T->0) per atom                          :       -4996.95796363 eV  <-- do not rely on this value for anything but (periodic) metals
  | Electronic free energy per atom                       :       -4996.96125353 eV
  Evaluating new KS density.
  Integration grid: deviation in total charge (<rho> - N_e) =   9.308394E-10

  Self-consistency convergence accuracy:
  | Change of charge density      :  0.6421E-02
  | Change of unmixed KS density  :  0.1300E+00
  | Change of sum of eigenvalues  : -0.7702E-01 eV
  | Change of total energy        : -0.1299E-02 eV


------------------------------------------------------------
  End self-consistency iteration #    45       :  max(cpu_time)    wall_clock(cpu1)
  | Time for this iteration                     :        0.279 s           0.189 s
  | Charge density update                       :        0.001 s           0.000 s
  | Density mixing                              :        0.272 s           0.182 s
  | Hartree multipole update                    :        0.001 s           0.001 s
  | Hartree multipole summation                 :        0.002 s           0.002 s
  | Integration                                 :        0.002 s           0.001 s
  | Solution of K.-S. eqns.                     :        0.001 s           0.001 s
  | Total energy evaluation                     :        0.000 s           0.000 s

  Partial memory accounting:
  | Current value for overall tracked memory usage:
  |   Minimum:        0.413 MB (on task 58)
  |   Maximum:        0.519 MB (on task 56)
  |   Average:        0.438 MB
  | Peak value for overall tracked memory usage:
  |   Minimum:        0.916 MB (on task 48 after allocating wave)
  |   Maximum:        1.028 MB (on task 56 after allocating wave)
  |   Average:        0.944 MB
  | Largest tracked array allocation so far:
  |   Minimum:        0.161 MB (gradient_basis_wave_store on task  0)
  |   Maximum:        0.164 MB (gradient_basis_wave_store on task  1)
  |   Average:        0.163 MB
  Note:  These values currently only include a subset of arrays which are explicitly tracked.
  The "true" memory usage will be greater.
------------------------------------------------------------

------------------------------------------------------------
          Begin self-consistency iteration #   46

  Date     :  20260724, Time     :  152924.490
------------------------------------------------------------
  SCF convergence analysis is based on: Mixed KS density changes
  Charge density: The charge density seems to be converging.
                  The linear fit of ln(rho_delta) over the last 15 steps has a slope of  -0.0515
  Estimated 81 more steps to reach target accuracy

  Pulay mixing of updated and previous charge densities.
  Available memory per node after mixing [GB]:   1034.05
  Renormalizing the density to the exact electron count on the 3D integration grid.
  | Formal number of electrons (from input files) :      20.0000000000
  | Integrated number of electrons on 3D grid     :      19.9999999999
  | Charge integration error                      :      -0.0000000001
  | Normalization factor for density and gradient :       1.0000000000

  Evaluating partitioned Hartree potential by multipole expansion.
  | Original multipole sum: apparent total charge =   0.161730E-14
  | Sum of charges compensated after spline to logarithmic grids =  -0.108978E-06
  | Analytical far-field extrapolation by fixed multipoles:
  | Hartree multipole sum: apparent total charge =   0.151276E-14
  Summing up the Hartree potential.
  Time summed over all CPUs for potential: real work        0.001 s, elapsed        0.001 s
  | RMS charge density error from multipole expansion :   0.115521E-02

  Integrating Hamiltonian matrix: batch-based integration.
  Time summed over all CPUs for integration: real work        0.095 s, elapsed        0.111 s

  Updating Kohn-Sham eigenvalues and eigenvectors using ELSI and the ELPA eigensolver.
  Starting ELPA eigensolver
  Finished transformation to standard eigenproblem
  | Time :     0.000 s
  Finished solving standard eigenproblem
  | Time :     0.000 s
  Finished back-transformation of eigenvectors
  | Time :     0.001 s

  Obtaining occupation numbers and electronic chemical potential using ELSI.
  | Note that, for insulating systems, the printed 'chemical potential' value is not uniquely defined.
  | It can be anywhere in the energy gap, as long as it correctly separates occupied and unoccupied states.
  | In systems with a gap, the physically relevant chemical potential is the VBM or HOMO.

  | Chemical potential (Fermi level):    -6.19759572 eV
  Highest occupied state (VBM) at     -6.20887149 eV
  | Occupation number:      1.88920598

  Lowest unoccupied state (CBM) at    -6.18895200 eV
  | Occupation number:      0.22155422

  This system has fractional occupation numbers. Thus, it is a degenerate system
  within the approximate finite broadening function (occupation_type)
  applied to determine the occupation numbers.
  This may not be harmful. However, for some systems (free atoms), a different, non-degenerate
  ground state might exist by using a smaller broadening (see keyword occupation_type).
  Overall HOMO-LUMO gap:      0.00000000 eV.

  Total energy components:
  | Sum of eigenvalues            :        -211.82382646 Ha       -5764.01958798 eV
  | XC energy correction          :         -27.04945426 Ha        -736.05310029 eV
  | XC potential correction       :          36.83798776 Ha        1002.41264907 eV
  | Free-atom electrostatic energy:        -164.89547461 Ha       -4487.03416180 eV
  | Hartree energy correction     :          -0.33910992 Ha          -9.22765040 eV
  | Entropy correction            :          -0.00010725 Ha          -0.00291831 eV
  | ---------------------------
  | Total energy                  :        -367.26987748 Ha       -9993.92185140 eV
  | Total energy, T -> 0          :        -367.26998473 Ha       -9993.92476971 eV  <-- do not rely on this value for anything but (periodic) metals
  | Electronic free energy        :        -367.27009197 Ha       -9993.92768802 eV

  Derived energy quantities:
  | Kinetic energy                :         367.91789739 Ha       10011.55537043 eV
  | Electrostatic energy          :        -708.13832062 Ha      -19269.42412154 eV
  | Energy correction for multipole
  | error in Hartree potential    :          -0.00024002 Ha          -0.00653127 eV
  | Sum of eigenvalues per atom                           :       -2882.00979399 eV
  | Total energy (T->0) per atom                          :       -4996.96238486 eV  <-- do not rely on this value for anything but (periodic) metals
  | Electronic free energy per atom                       :       -4996.96384401 eV
  Evaluating new KS density.
  Integration grid: deviation in total charge (<rho> - N_e) =   9.445564E-10

  Self-consistency convergence accuracy:
  | Change of charge density      :  0.1475E-01
  | Change of unmixed KS density  :  0.2142E-01
  | Change of sum of eigenvalues  :  0.3199E-01 eV
  | Change of total energy        : -0.1250E-01 eV


------------------------------------------------------------
  End self-consistency iteration #    46       :  max(cpu_time)    wall_clock(cpu1)
  | Time for this iteration                     :        0.264 s           0.141 s
  | Charge density update                       :        0.001 s           0.001 s
  | Density mixing                              :        0.256 s           0.134 s
  | Hartree multipole update                    :        0.001 s           0.001 s
  | Hartree multipole summation                 :        0.002 s           0.002 s
  | Integration                                 :        0.002 s           0.002 s
  | Solution of K.-S. eqns.                     :        0.001 s           0.001 s
  | Total energy evaluation                     :        0.000 s           0.000 s

  Partial memory accounting:
  | Current value for overall tracked memory usage:
  |   Minimum:        0.413 MB (on task 58)
  |   Maximum:        0.519 MB (on task 56)
  |   Average:        0.438 MB
  | Peak value for overall tracked memory usage:
  |   Minimum:        0.916 MB (on task 48 after allocating wave)
  |   Maximum:        1.028 MB (on task 56 after allocating wave)
  |   Average:        0.944 MB
  | Largest tracked array allocation so far:
  |   Minimum:        0.161 MB (gradient_basis_wave_store on task  0)
  |   Maximum:        0.164 MB (gradient_basis_wave_store on task  1)
  |   Average:        0.163 MB
  Note:  These values currently only include a subset of arrays which are explicitly tracked.
  The "true" memory usage will be greater.
------------------------------------------------------------

------------------------------------------------------------
          Begin self-consistency iteration #   47

  Date     :  20260724, Time     :  152924.777
------------------------------------------------------------
  SCF convergence analysis is based on: Mixed KS density changes
  Charge density: The charge density seems to be converging.
                  The linear fit of ln(rho_delta) over the last 15 steps has a slope of  -0.0587
  Estimated 84 more steps to reach target accuracy

  Pulay mixing of updated and previous charge densities.
  Available memory per node after mixing [GB]:   1034.05
  Renormalizing the density to the exact electron count on the 3D integration grid.
  | Formal number of electrons (from input files) :      20.0000000000
  | Integrated number of electrons on 3D grid     :      20.0000000002
  | Charge integration error                      :       0.0000000002
  | Normalization factor for density and gradient :       1.0000000000

  Evaluating partitioned Hartree potential by multipole expansion.
  | Original multipole sum: apparent total charge =   0.150661E-14
  | Sum of charges compensated after spline to logarithmic grids =  -0.107254E-06
  | Analytical far-field extrapolation by fixed multipoles:
  | Hartree multipole sum: apparent total charge =   0.153121E-14
  Summing up the Hartree potential.
  Time summed over all CPUs for potential: real work        0.001 s, elapsed        0.001 s
  | RMS charge density error from multipole expansion :   0.115469E-02

  Integrating Hamiltonian matrix: batch-based integration.
  Time summed over all CPUs for integration: real work        0.095 s, elapsed        0.109 s

  Updating Kohn-Sham eigenvalues and eigenvectors using ELSI and the ELPA eigensolver.
  Starting ELPA eigensolver
  Finished transformation to standard eigenproblem
  | Time :     0.000 s
  Finished solving standard eigenproblem
  | Time :     0.001 s
  Finished back-transformation of eigenvectors
  | Time :     0.000 s

  Obtaining occupation numbers and electronic chemical potential using ELSI.
  | Note that, for insulating systems, the printed 'chemical potential' value is not uniquely defined.
  | It can be anywhere in the energy gap, as long as it correctly separates occupied and unoccupied states.
  | In systems with a gap, the physically relevant chemical potential is the VBM or HOMO.

  | Chemical potential (Fermi level):    -6.19554321 eV
  Highest occupied state (VBM) at     -6.20958679 eV
  | Occupation number:      1.95297372

  Lowest unoccupied state (CBM) at    -6.18370282 eV
  | Occupation number:      0.09403557

  This system has fractional occupation numbers. Thus, it is a degenerate system
  within the approximate finite broadening function (occupation_type)
  applied to determine the occupation numbers.
  This may not be harmful. However, for some systems (free atoms), a different, non-degenerate
  ground state might exist by using a smaller broadening (see keyword occupation_type).
  Overall HOMO-LUMO gap:      0.00000000 eV.

  Total energy components:
  | Sum of eigenvalues            :        -211.82207805 Ha       -5763.97201153 eV
  | XC energy correction          :         -27.04980937 Ha        -736.06276342 eV
  | XC potential correction       :          36.83847013 Ha        1002.42577502 eV
  | Free-atom electrostatic energy:        -164.89547461 Ha       -4487.03416180 eV
  | Hartree energy correction     :          -0.34125859 Ha          -9.28611876 eV
  | Entropy correction            :          -0.00005436 Ha          -0.00147922 eV
  | ---------------------------
  | Total energy                  :        -367.27015049 Ha       -9993.92928048 eV
  | Total energy, T -> 0          :        -367.27020485 Ha       -9993.93075970 eV  <-- do not rely on this value for anything but (periodic) metals
  | Electronic free energy        :        -367.27025922 Ha       -9993.93223892 eV

  Derived energy quantities:
  | Kinetic energy                :         367.91921247 Ha       10011.59115553 eV
  | Electrostatic energy          :        -708.13955360 Ha      -19269.45767260 eV
  | Energy correction for multipole
  | error in Hartree potential    :          -0.00023530 Ha          -0.00640278 eV
  | Sum of eigenvalues per atom                           :       -2881.98600577 eV
  | Total energy (T->0) per atom                          :       -4996.96537985 eV  <-- do not rely on this value for anything but (periodic) metals
  | Electronic free energy per atom                       :       -4996.96611946 eV
  Evaluating new KS density.
  Integration grid: deviation in total charge (<rho> - N_e) =  -7.226433E-10

  Self-consistency convergence accuracy:
  | Change of charge density      :  0.8350E-01
  | Change of unmixed KS density  :  0.6739E-01
  | Change of sum of eigenvalues  :  0.4758E-01 eV
  | Change of total energy        : -0.7429E-02 eV


------------------------------------------------------------
  End self-consistency iteration #    47       :  max(cpu_time)    wall_clock(cpu1)
  | Time for this iteration                     :        0.263 s           0.128 s
  | Charge density update                       :        0.001 s           0.001 s
  | Density mixing                              :        0.256 s           0.121 s
  | Hartree multipole update                    :        0.001 s           0.001 s
  | Hartree multipole summation                 :        0.002 s           0.002 s
  | Integration                                 :        0.002 s           0.002 s
  | Solution of K.-S. eqns.                     :        0.001 s           0.001 s
  | Total energy evaluation                     :        0.000 s           0.000 s

  Partial memory accounting:
  | Current value for overall tracked memory usage:
  |   Minimum:        0.413 MB (on task 58)
  |   Maximum:        0.519 MB (on task 56)
  |   Average:        0.438 MB
  | Peak value for overall tracked memory usage:
  |   Minimum:        0.916 MB (on task 48 after allocating wave)
  |   Maximum:        1.028 MB (on task 56 after allocating wave)
  |   Average:        0.944 MB
  | Largest tracked array allocation so far:
  |   Minimum:        0.161 MB (gradient_basis_wave_store on task  0)
  |   Maximum:        0.164 MB (gradient_basis_wave_store on task  1)
  |   Average:        0.163 MB
  Note:  These values currently only include a subset of arrays which are explicitly tracked.
  The "true" memory usage will be greater.
------------------------------------------------------------

------------------------------------------------------------
          Begin self-consistency iteration #   48

  Date     :  20260724, Time     :  152925.152
------------------------------------------------------------
  SCF convergence analysis is based on: Mixed KS density changes
  Charge density: The charge density seems to be converging.
                  The linear fit of ln(rho_delta) over the last 15 steps has a slope of  -0.0539
  Estimated 93 more steps to reach target accuracy

  Pulay mixing of updated and previous charge densities.
  Available memory per node after mixing [GB]:   1034.05
  Renormalizing the density to the exact electron count on the 3D integration grid.
  | Formal number of electrons (from input files) :      20.0000000000
  | Integrated number of electrons on 3D grid     :      19.9999999997
  | Charge integration error                      :      -0.0000000003
  | Normalization factor for density and gradient :       1.0000000000

  Evaluating partitioned Hartree potential by multipole expansion.
  | Original multipole sum: apparent total charge =  -0.805576E-15
  | Sum of charges compensated after spline to logarithmic grids =  -0.108158E-06
  | Analytical far-field extrapolation by fixed multipoles:
  | Hartree multipole sum: apparent total charge =  -0.873220E-15
  Summing up the Hartree potential.
  Time summed over all CPUs for potential: real work        0.001 s, elapsed        0.001 s
  | RMS charge density error from multipole expansion :   0.115802E-02

  Integrating Hamiltonian matrix: batch-based integration.
  Time summed over all CPUs for integration: real work        0.094 s, elapsed        0.106 s

  Updating Kohn-Sham eigenvalues and eigenvectors using ELSI and the ELPA eigensolver.
  Starting ELPA eigensolver
  Finished transformation to standard eigenproblem
  | Time :     0.000 s
  Finished solving standard eigenproblem
  | Time :     0.001 s
  Finished back-transformation of eigenvectors
  | Time :     0.000 s

  Obtaining occupation numbers and electronic chemical potential using ELSI.
  | Note that, for insulating systems, the printed 'chemical potential' value is not uniquely defined.
  | It can be anywhere in the energy gap, as long as it correctly separates occupied and unoccupied states.
  | In systems with a gap, the physically relevant chemical potential is the VBM or HOMO.

  | Chemical potential (Fermi level):    -6.19633877 eV
  Highest occupied state (VBM) at     -6.20670685 eV
  | Occupation number:      1.85742462

  Lowest unoccupied state (CBM) at    -6.18878081 eV
  | Occupation number:      0.28513405

  This system has fractional occupation numbers. Thus, it is a degenerate system
  within the approximate finite broadening function (occupation_type)
  applied to determine the occupation numbers.
  This may not be harmful. However, for some systems (free atoms), a different, non-degenerate
  ground state might exist by using a smaller broadening (see keyword occupation_type).
  Overall HOMO-LUMO gap:      0.00000000 eV.

  Total energy components:
  | Sum of eigenvalues            :        -211.82136698 Ha       -5763.95266220 eV
  | XC energy correction          :         -27.04955919 Ha        -736.05595577 eV
  | XC potential correction       :          36.83813150 Ha        1002.41656047 eV
  | Free-atom electrostatic energy:        -164.89547461 Ha       -4487.03416180 eV
  | Hartree energy correction     :          -0.34151583 Ha          -9.29311849 eV
  | Entropy correction            :          -0.00012932 Ha          -0.00351890 eV
  | ---------------------------
  | Total energy                  :        -367.26978511 Ha       -9993.91933779 eV
  | Total energy, T -> 0          :        -367.26991442 Ha       -9993.92285669 eV  <-- do not rely on this value for anything but (periodic) metals
  | Electronic free energy        :        -367.27004374 Ha       -9993.92637558 eV

  Derived energy quantities:
  | Kinetic energy                :         367.91768291 Ha       10011.54953412 eV
  | Electrostatic energy          :        -708.13790883 Ha      -19269.41291614 eV
  | Energy correction for multipole
  | error in Hartree potential    :          -0.00024046 Ha          -0.00654333 eV
  | Sum of eigenvalues per atom                           :       -2881.97633110 eV
  | Total energy (T->0) per atom                          :       -4996.96142834 eV  <-- do not rely on this value for anything but (periodic) metals
  | Electronic free energy per atom                       :       -4996.96318779 eV
  Evaluating new KS density.
  Integration grid: deviation in total charge (<rho> - N_e) =   4.101430E-10

  Self-consistency convergence accuracy:
  | Change of charge density      :  0.1001E+00
  | Change of unmixed KS density  :  0.1573E-01
  | Change of sum of eigenvalues  :  0.1935E-01 eV
  | Change of total energy        :  0.9943E-02 eV


------------------------------------------------------------
  End self-consistency iteration #    48       :  max(cpu_time)    wall_clock(cpu1)
  | Time for this iteration                     :        0.315 s           0.078 s
  | Charge density update                       :        0.001 s           0.001 s
  | Density mixing                              :        0.308 s           0.072 s
  | Hartree multipole update                    :        0.001 s           0.001 s
  | Hartree multipole summation                 :        0.002 s           0.001 s
  | Integration                                 :        0.002 s           0.002 s
  | Solution of K.-S. eqns.                     :        0.001 s           0.001 s
  | Total energy evaluation                     :        0.000 s           0.000 s

  Partial memory accounting:
  | Current value for overall tracked memory usage:
  |   Minimum:        0.413 MB (on task 58)
  |   Maximum:        0.519 MB (on task 56)
  |   Average:        0.438 MB
  | Peak value for overall tracked memory usage:
  |   Minimum:        0.916 MB (on task 48 after allocating wave)
  |   Maximum:        1.028 MB (on task 56 after allocating wave)
  |   Average:        0.944 MB
  | Largest tracked array allocation so far:
  |   Minimum:        0.161 MB (gradient_basis_wave_store on task  0)
  |   Maximum:        0.164 MB (gradient_basis_wave_store on task  1)
  |   Average:        0.163 MB
  Note:  These values currently only include a subset of arrays which are explicitly tracked.
  The "true" memory usage will be greater.
------------------------------------------------------------

------------------------------------------------------------
          Begin self-consistency iteration #   49

  Date     :  20260724, Time     :  152925.303
------------------------------------------------------------
  SCF convergence analysis is based on: Mixed KS density changes
  Charge density: The charge density seems to be converging.
                  The linear fit of ln(rho_delta) over the last 15 steps has a slope of  -0.0451
  Estimated 108 more steps to reach target accuracy

  Pulay mixing of updated and previous charge densities.
  Available memory per node after mixing [GB]:   1034.05
  Renormalizing the density to the exact electron count on the 3D integration grid.
  | Formal number of electrons (from input files) :      20.0000000000
  | Integrated number of electrons on 3D grid     :      19.9999999999
  | Charge integration error                      :      -0.0000000001
  | Normalization factor for density and gradient :       1.0000000000

  Evaluating partitioned Hartree potential by multipole expansion.
  | Original multipole sum: apparent total charge =   0.439070E-14
  | Sum of charges compensated after spline to logarithmic grids =  -0.111645E-06
  | Analytical far-field extrapolation by fixed multipoles:
  | Hartree multipole sum: apparent total charge =   0.432305E-14
  Summing up the Hartree potential.
  Time summed over all CPUs for potential: real work        0.001 s, elapsed        0.001 s
  | RMS charge density error from multipole expansion :   0.116229E-02

  Integrating Hamiltonian matrix: batch-based integration.
  Time summed over all CPUs for integration: real work        0.094 s, elapsed        0.105 s

  Updating Kohn-Sham eigenvalues and eigenvectors using ELSI and the ELPA eigensolver.
  Starting ELPA eigensolver
  Finished transformation to standard eigenproblem
  | Time :     0.001 s
  Finished solving standard eigenproblem
  | Time :     0.000 s
  Finished back-transformation of eigenvectors
  | Time :     0.000 s

  Obtaining occupation numbers and electronic chemical potential using ELSI.
  | Note that, for insulating systems, the printed 'chemical potential' value is not uniquely defined.
  | It can be anywhere in the energy gap, as long as it correctly separates occupied and unoccupied states.
  | In systems with a gap, the physically relevant chemical potential is the VBM or HOMO.

  | Chemical potential (Fermi level):    -6.19931823 eV
  Highest occupied state (VBM) at     -6.20143778 eV
  | Occupation number:      1.23563271

  Lowest unoccupied state (CBM) at    -2.73541994 eV
  | Occupation number:      0.00000000

  This system has fractional occupation numbers. Thus, it is a degenerate system
  within the approximate finite broadening function (occupation_type)
  applied to determine the occupation numbers.
  This may not be harmful. However, for some systems (free atoms), a different, non-degenerate
  ground state might exist by using a smaller broadening (see keyword occupation_type).
  Overall HOMO-LUMO gap:      0.00000000 eV.

  Total energy components:
  | Sum of eigenvalues            :        -211.82354264 Ha       -5764.01186486 eV
  | XC energy correction          :         -27.04881630 Ha        -736.03574049 eV
  | XC potential correction       :          36.83711949 Ha        1002.38902241 eV
  | Free-atom electrostatic energy:        -164.89547461 Ha       -4487.03416180 eV
  | Hartree energy correction     :          -0.33864990 Ha          -9.21513262 eV
  | Entropy correction            :          -0.00028218 Ha          -0.00767859 eV
  | ---------------------------
  | Total energy                  :        -367.26936394 Ha       -9993.90787735 eV
  | Total energy, T -> 0          :        -367.26964613 Ha       -9993.91555595 eV  <-- do not rely on this value for anything but (periodic) metals
  | Electronic free energy        :        -367.26992831 Ha       -9993.92323454 eV

  Derived energy quantities:
  | Kinetic energy                :         367.91399291 Ha       10011.44912398 eV
  | Electrostatic energy          :        -708.13454056 Ha      -19269.32126085 eV
  | Energy correction for multipole
  | error in Hartree potential    :          -0.00025162 Ha          -0.00684684 eV
  | Sum of eigenvalues per atom                           :       -2882.00593243 eV
  | Total energy (T->0) per atom                          :       -4996.95777797 eV  <-- do not rely on this value for anything but (periodic) metals
  | Electronic free energy per atom                       :       -4996.96161727 eV
  Evaluating new KS density.
  Integration grid: deviation in total charge (<rho> - N_e) =  -3.268177E-10

  Self-consistency convergence accuracy:
  | Change of charge density      :  0.7582E-01
  | Change of unmixed KS density  :  0.2365E-01
  | Change of sum of eigenvalues  : -0.5920E-01 eV
  | Change of total energy        :  0.1146E-01 eV


------------------------------------------------------------
  End self-consistency iteration #    49       :  max(cpu_time)    wall_clock(cpu1)
  | Time for this iteration                     :        0.278 s           0.217 s
  | Charge density update                       :        0.001 s           0.001 s
  | Density mixing                              :        0.271 s           0.210 s
  | Hartree multipole update                    :        0.001 s           0.001 s
  | Hartree multipole summation                 :        0.002 s           0.002 s
  | Integration                                 :        0.002 s           0.001 s
  | Solution of K.-S. eqns.                     :        0.001 s           0.002 s
  | Total energy evaluation                     :        0.000 s           0.000 s

  Partial memory accounting:
  | Current value for overall tracked memory usage:
  |   Minimum:        0.413 MB (on task 58)
  |   Maximum:        0.519 MB (on task 56)
  |   Average:        0.438 MB
  | Peak value for overall tracked memory usage:
  |   Minimum:        0.916 MB (on task 48 after allocating wave)
  |   Maximum:        1.028 MB (on task 56 after allocating wave)
  |   Average:        0.944 MB
  | Largest tracked array allocation so far:
  |   Minimum:        0.161 MB (gradient_basis_wave_store on task  0)
  |   Maximum:        0.164 MB (gradient_basis_wave_store on task  1)
  |   Average:        0.163 MB
  Note:  These values currently only include a subset of arrays which are explicitly tracked.
  The "true" memory usage will be greater.
------------------------------------------------------------

------------------------------------------------------------
          Begin self-consistency iteration #   50

  Date     :  20260724, Time     :  152925.548
------------------------------------------------------------
  SCF convergence analysis is based on: Mixed KS density changes
  Charge density: The charge density seems to be converging.
                  The linear fit of ln(rho_delta) over the last 15 steps has a slope of  -0.0427
  Estimated 108 more steps to reach target accuracy

  Pulay mixing of updated and previous charge densities.
  Available memory per node after mixing [GB]:   1034.05
  Renormalizing the density to the exact electron count on the 3D integration grid.
  | Formal number of electrons (from input files) :      20.0000000000
  | Integrated number of electrons on 3D grid     :      19.9999999992
  | Charge integration error                      :      -0.0000000008
  | Normalization factor for density and gradient :       1.0000000000

  Evaluating partitioned Hartree potential by multipole expansion.
  | Original multipole sum: apparent total charge =   0.174644E-14
  | Sum of charges compensated after spline to logarithmic grids =  -0.109138E-06
  | Analytical far-field extrapolation by fixed multipoles:
  | Hartree multipole sum: apparent total charge =   0.172799E-14
  Summing up the Hartree potential.
  Time summed over all CPUs for potential: real work        0.001 s, elapsed        0.001 s
  | RMS charge density error from multipole expansion :   0.115772E-02

  Integrating Hamiltonian matrix: batch-based integration.
  Time summed over all CPUs for integration: real work        0.094 s, elapsed        0.105 s

  Updating Kohn-Sham eigenvalues and eigenvectors using ELSI and the ELPA eigensolver.
  Starting ELPA eigensolver
  Finished transformation to standard eigenproblem
  | Time :     0.001 s
  Finished solving standard eigenproblem
  | Time :     0.000 s
  Finished back-transformation of eigenvectors
  | Time :     0.000 s

  Obtaining occupation numbers and electronic chemical potential using ELSI.
  | Note that, for insulating systems, the printed 'chemical potential' value is not uniquely defined.
  | It can be anywhere in the energy gap, as long as it correctly separates occupied and unoccupied states.
  | In systems with a gap, the physically relevant chemical potential is the VBM or HOMO.

  | Chemical potential (Fermi level):    -6.19796578 eV
  Highest occupied state (VBM) at     -6.20763413 eV
  | Occupation number:      1.82847221

  Lowest unoccupied state (CBM) at    -6.19126065 eV
  | Occupation number:      0.34300245

  This system has fractional occupation numbers. Thus, it is a degenerate system
  within the approximate finite broadening function (occupation_type)
  applied to determine the occupation numbers.
  This may not be harmful. However, for some systems (free atoms), a different, non-degenerate
  ground state might exist by using a smaller broadening (see keyword occupation_type).
  Overall HOMO-LUMO gap:      0.00000000 eV.

  Total energy components:
  | Sum of eigenvalues            :        -211.82347630 Ha       -5764.01005965 eV
  | XC energy correction          :         -27.04935413 Ha        -736.05037570 eV
  | XC potential correction       :          36.83784688 Ha        1002.40881555 eV
  | Free-atom electrostatic energy:        -164.89547461 Ha       -4487.03416180 eV
  | Hartree energy correction     :          -0.33925667 Ha          -9.23164368 eV
  | Entropy correction            :          -0.00014754 Ha          -0.00401464 eV
  | ---------------------------
  | Total energy                  :        -367.26971482 Ha       -9993.91742528 eV
  | Total energy, T -> 0          :        -367.26986236 Ha       -9993.92143991 eV  <-- do not rely on this value for anything but (periodic) metals
  | Electronic free energy        :        -367.27000989 Ha       -9993.92545455 eV

  Derived energy quantities:
  | Kinetic energy                :         367.91704285 Ha       10011.53211722 eV
  | Electrostatic energy          :        -708.13740355 Ha      -19269.39916679 eV
  | Energy correction for multipole
  | error in Hartree potential    :          -0.00024239 Ha          -0.00659588 eV
  | Sum of eigenvalues per atom                           :       -2882.00502982 eV
  | Total energy (T->0) per atom                          :       -4996.96071996 eV  <-- do not rely on this value for anything but (periodic) metals
  | Electronic free energy per atom                       :       -4996.96272728 eV
  Evaluating new KS density.
  Integration grid: deviation in total charge (<rho> - N_e) =  -8.819896E-10

  Self-consistency convergence accuracy:
  | Change of charge density      :  0.4227E-01
  | Change of unmixed KS density  :  0.1161E+00
  | Change of sum of eigenvalues  :  0.1805E-02 eV
  | Change of total energy        : -0.9548E-02 eV


------------------------------------------------------------
  End self-consistency iteration #    50       :  max(cpu_time)    wall_clock(cpu1)
  | Time for this iteration                     :        0.262 s           0.245 s
  | Charge density update                       :        0.001 s           0.000 s
  | Density mixing                              :        0.255 s           0.239 s
  | Hartree multipole update                    :        0.001 s           0.001 s
  | Hartree multipole summation                 :        0.002 s           0.002 s
  | Integration                                 :        0.002 s           0.001 s
  | Solution of K.-S. eqns.                     :        0.001 s           0.001 s
  | Total energy evaluation                     :        0.000 s           0.001 s

  Partial memory accounting:
  | Current value for overall tracked memory usage:
  |   Minimum:        0.413 MB (on task 58)
  |   Maximum:        0.519 MB (on task 56)
  |   Average:        0.438 MB
  | Peak value for overall tracked memory usage:
  |   Minimum:        0.916 MB (on task 48 after allocating wave)
  |   Maximum:        1.028 MB (on task 56 after allocating wave)
  |   Average:        0.944 MB
  | Largest tracked array allocation so far:
  |   Minimum:        0.161 MB (gradient_basis_wave_store on task  0)
  |   Maximum:        0.164 MB (gradient_basis_wave_store on task  1)
  |   Average:        0.163 MB
  Note:  These values currently only include a subset of arrays which are explicitly tracked.
  The "true" memory usage will be greater.
------------------------------------------------------------

------------------------------------------------------------
          Begin self-consistency iteration #   51

  Date     :  20260724, Time     :  152925.920
------------------------------------------------------------
  SCF convergence analysis is based on: Mixed KS density changes
  Charge density: The charge density seems to be converging.
                  The linear fit of ln(rho_delta) over the last 15 steps has a slope of  -0.0363
  Estimated 133 more steps to reach target accuracy

  Pulay mixing of updated and previous charge densities.
  Available memory per node after mixing [GB]:   1034.05
  Renormalizing the density to the exact electron count on the 3D integration grid.
  | Formal number of electrons (from input files) :      20.0000000000
  | Integrated number of electrons on 3D grid     :      19.9999999997
  | Charge integration error                      :      -0.0000000003
  | Normalization factor for density and gradient :       1.0000000000

  Evaluating partitioned Hartree potential by multipole expansion.
  | Original multipole sum: apparent total charge =  -0.179563E-14
  | Sum of charges compensated after spline to logarithmic grids =  -0.109734E-06
  | Analytical far-field extrapolation by fixed multipoles:
  | Hartree multipole sum: apparent total charge =  -0.174644E-14
  Summing up the Hartree potential.
  Time summed over all CPUs for potential: real work        0.001 s, elapsed        0.001 s
  | RMS charge density error from multipole expansion :   0.115838E-02

  Integrating Hamiltonian matrix: batch-based integration.
  Time summed over all CPUs for integration: real work        0.094 s, elapsed        0.106 s

  Updating Kohn-Sham eigenvalues and eigenvectors using ELSI and the ELPA eigensolver.
  Starting ELPA eigensolver
  Finished transformation to standard eigenproblem
  | Time :     0.000 s
  Finished solving standard eigenproblem
  | Time :     0.000 s
  Finished back-transformation of eigenvectors
  | Time :     0.001 s

  Obtaining occupation numbers and electronic chemical potential using ELSI.
  | Note that, for insulating systems, the printed 'chemical potential' value is not uniquely defined.
  | It can be anywhere in the energy gap, as long as it correctly separates occupied and unoccupied states.
  | In systems with a gap, the physically relevant chemical potential is the VBM or HOMO.

  | Chemical potential (Fermi level):    -6.19852519 eV
  Highest occupied state (VBM) at     -6.20686956 eV
  | Occupation number:      1.76202801

  Lowest unoccupied state (CBM) at    -6.19348331 eV
  | Occupation number:      0.47582673

  This system has fractional occupation numbers. Thus, it is a degenerate system
  within the approximate finite broadening function (occupation_type)
  applied to determine the occupation numbers.
  This may not be harmful. However, for some systems (free atoms), a different, non-degenerate
  ground state might exist by using a smaller broadening (see keyword occupation_type).
  Overall HOMO-LUMO gap:      0.00000000 eV.

  Total energy components:
  | Sum of eigenvalues            :        -211.82369298 Ha       -5764.01595585 eV
  | XC energy correction          :         -27.04923047 Ha        -736.04701088 eV
  | XC potential correction       :          36.83767852 Ha        1002.40423434 eV
  | Free-atom electrostatic energy:        -164.89547461 Ha       -4487.03416180 eV
  | Hartree energy correction     :          -0.33886833 Ha          -9.22107646 eV
  | Entropy correction            :          -0.00018372 Ha          -0.00499936 eV
  | ---------------------------
  | Total energy                  :        -367.26958787 Ha       -9993.91397065 eV
  | Total energy, T -> 0          :        -367.26977159 Ha       -9993.91897001 eV  <-- do not rely on this value for anything but (periodic) metals
  | Electronic free energy        :        -367.26995531 Ha       -9993.92396937 eV

  Derived energy quantities:
  | Kinetic energy                :         367.91649837 Ha       10011.51730102 eV
  | Electrostatic energy          :        -708.13685576 Ha      -19269.38426079 eV
  | Energy correction for multipole
  | error in Hartree potential    :          -0.00024427 Ha          -0.00664689 eV
  | Sum of eigenvalues per atom                           :       -2882.00797793 eV
  | Total energy (T->0) per atom                          :       -4996.95948500 eV  <-- do not rely on this value for anything but (periodic) metals
  | Electronic free energy per atom                       :       -4996.96198468 eV
  Evaluating new KS density.
  Integration grid: deviation in total charge (<rho> - N_e) =  -3.134204E-10

  Self-consistency convergence accuracy:
  | Change of charge density      :  0.6831E-01
  | Change of unmixed KS density  :  0.1090E+00
  | Change of sum of eigenvalues  : -0.5896E-02 eV
  | Change of total energy        :  0.3455E-02 eV


------------------------------------------------------------
  End self-consistency iteration #    51       :  max(cpu_time)    wall_clock(cpu1)
  | Time for this iteration                     :        0.270 s           0.154 s
  | Charge density update                       :        0.001 s           0.001 s
  | Density mixing                              :        0.263 s           0.147 s
  | Hartree multipole update                    :        0.001 s           0.001 s
  | Hartree multipole summation                 :        0.002 s           0.002 s
  | Integration                                 :        0.002 s           0.002 s
  | Solution of K.-S. eqns.                     :        0.001 s           0.001 s
  | Total energy evaluation                     :        0.000 s           0.000 s

  Partial memory accounting:
  | Current value for overall tracked memory usage:
  |   Minimum:        0.413 MB (on task 58)
  |   Maximum:        0.519 MB (on task 56)
  |   Average:        0.438 MB
  | Peak value for overall tracked memory usage:
  |   Minimum:        0.916 MB (on task 48 after allocating wave)
  |   Maximum:        1.028 MB (on task 56 after allocating wave)
  |   Average:        0.944 MB
  | Largest tracked array allocation so far:
  |   Minimum:        0.161 MB (gradient_basis_wave_store on task  0)
  |   Maximum:        0.164 MB (gradient_basis_wave_store on task  1)
  |   Average:        0.163 MB
  Note:  These values currently only include a subset of arrays which are explicitly tracked.
  The "true" memory usage will be greater.
------------------------------------------------------------

------------------------------------------------------------
          Begin self-consistency iteration #   52

  Date     :  20260724, Time     :  152926.101
------------------------------------------------------------
  SCF convergence analysis is based on: Mixed KS density changes
  Charge density: The charge density seems to be converging.
                  The linear fit of ln(rho_delta) over the last 15 steps has a slope of  -0.0307
  Estimated 154 more steps to reach target accuracy

  Pulay mixing of updated and previous charge densities.
  Available memory per node after mixing [GB]:   1034.05
  Renormalizing the density to the exact electron count on the 3D integration grid.
  | Formal number of electrons (from input files) :      20.0000000000
  | Integrated number of electrons on 3D grid     :      19.9999999995
  | Charge integration error                      :      -0.0000000005
  | Normalization factor for density and gradient :       1.0000000000

  Evaluating partitioned Hartree potential by multipole expansion.
  | Original multipole sum: apparent total charge =   0.606949E-14
  | Sum of charges compensated after spline to logarithmic grids =  -0.110679E-06
  | Analytical far-field extrapolation by fixed multipoles:
  | Hartree multipole sum: apparent total charge =   0.602030E-14
  Summing up the Hartree potential.
  Time summed over all CPUs for potential: real work        0.001 s, elapsed        0.001 s
  | RMS charge density error from multipole expansion :   0.115944E-02

  Integrating Hamiltonian matrix: batch-based integration.
  Time summed over all CPUs for integration: real work        0.094 s, elapsed        0.107 s

  Updating Kohn-Sham eigenvalues and eigenvectors using ELSI and the ELPA eigensolver.
  Starting ELPA eigensolver
  Finished transformation to standard eigenproblem
  | Time :     0.000 s
  Finished solving standard eigenproblem
  | Time :     0.001 s
  Finished back-transformation of eigenvectors
  | Time :     0.000 s

  Obtaining occupation numbers and electronic chemical potential using ELSI.
  | Note that, for insulating systems, the printed 'chemical potential' value is not uniquely defined.
  | It can be anywhere in the energy gap, as long as it correctly separates occupied and unoccupied states.
  | In systems with a gap, the physically relevant chemical potential is the VBM or HOMO.

  | Chemical potential (Fermi level):    -6.19937192 eV
  Highest occupied state (VBM) at     -6.20570535 eV
  | Occupation number:      1.62957771

  Lowest unoccupied state (CBM) at    -6.19703162 eV
  | Occupation number:      0.74066877

  This system has fractional occupation numbers. Thus, it is a degenerate system
  within the approximate finite broadening function (occupation_type)
  applied to determine the occupation numbers.
  This may not be harmful. However, for some systems (free atoms), a different, non-degenerate
  ground state might exist by using a smaller broadening (see keyword occupation_type).
  Overall HOMO-LUMO gap:      0.00000000 eV.

  Total energy components:
  | Sum of eigenvalues            :        -211.82415916 Ha       -5764.02864122 eV
  | XC energy correction          :         -27.04902803 Ha        -736.04150219 eV
  | XC potential correction       :          36.83740310 Ha        1002.39673978 eV
  | Free-atom electrostatic energy:        -164.89547461 Ha       -4487.03416180 eV
  | Hartree energy correction     :          -0.33817138 Ha          -9.20211140 eV
  | Entropy correction            :          -0.00023695 Ha          -0.00644767 eV
  | ---------------------------
  | Total energy                  :        -367.26943007 Ha       -9993.90967682 eV
  | Total energy, T -> 0          :        -367.26966702 Ha       -9993.91612449 eV  <-- do not rely on this value for anything but (periodic) metals
  | Electronic free energy        :        -367.26990397 Ha       -9993.92257216 eV

  Derived energy quantities:
  | Kinetic energy                :         367.91555995 Ha       10011.49176546 eV
  | Electrostatic energy          :        -708.13596199 Ha      -19269.35994010 eV
  | Energy correction for multipole
  | error in Hartree potential    :          -0.00024741 Ha          -0.00673230 eV
  | Sum of eigenvalues per atom                           :       -2882.01432061 eV
  | Total energy (T->0) per atom                          :       -4996.95806225 eV  <-- do not rely on this value for anything but (periodic) metals
  | Electronic free energy per atom                       :       -4996.96128608 eV
  Evaluating new KS density.
  Integration grid: deviation in total charge (<rho> - N_e) =  -6.020429E-10

  Self-consistency convergence accuracy:
  | Change of charge density      :  0.5169E-01
  | Change of unmixed KS density  :  0.1627E-01
  | Change of sum of eigenvalues  : -0.1269E-01 eV
  | Change of total energy        :  0.4294E-02 eV


------------------------------------------------------------
  End self-consistency iteration #    52       :  max(cpu_time)    wall_clock(cpu1)
  | Time for this iteration                     :        0.259 s           0.244 s
  | Charge density update                       :        0.001 s           0.001 s
  | Density mixing                              :        0.253 s           0.237 s
  | Hartree multipole update                    :        0.001 s           0.001 s
  | Hartree multipole summation                 :        0.002 s           0.002 s
  | Integration                                 :        0.002 s           0.002 s
  | Solution of K.-S. eqns.                     :        0.001 s           0.001 s
  | Total energy evaluation                     :        0.000 s           0.000 s

  Partial memory accounting:
  | Current value for overall tracked memory usage:
  |   Minimum:        0.413 MB (on task 58)
  |   Maximum:        0.519 MB (on task 56)
  |   Average:        0.438 MB
  | Peak value for overall tracked memory usage:
  |   Minimum:        0.916 MB (on task 48 after allocating wave)
  |   Maximum:        1.028 MB (on task 56 after allocating wave)
  |   Average:        0.944 MB
  | Largest tracked array allocation so far:
  |   Minimum:        0.161 MB (gradient_basis_wave_store on task  0)
  |   Maximum:        0.164 MB (gradient_basis_wave_store on task  1)
  |   Average:        0.163 MB
  Note:  These values currently only include a subset of arrays which are explicitly tracked.
  The "true" memory usage will be greater.
------------------------------------------------------------

------------------------------------------------------------
          Begin self-consistency iteration #   53

  Date     :  20260724, Time     :  152926.526
------------------------------------------------------------
  SCF convergence analysis is based on: Mixed KS density changes
  Charge density: The charge density seems to be converging.
                  The linear fit of ln(rho_delta) over the last 15 steps has a slope of  -0.0297
  Estimated 144 more steps to reach target accuracy

  Pulay mixing of updated and previous charge densities.
  Available memory per node after mixing [GB]:   1034.05
  Renormalizing the density to the exact electron count on the 3D integration grid.
  | Formal number of electrons (from input files) :      20.0000000000
  | Integrated number of electrons on 3D grid     :      20.0000000004
  | Charge integration error                      :       0.0000000004
  | Normalization factor for density and gradient :       1.0000000000

  Evaluating partitioned Hartree potential by multipole expansion.
  | Original multipole sum: apparent total charge =   0.455058E-14
  | Sum of charges compensated after spline to logarithmic grids =  -0.111925E-06
  | Analytical far-field extrapolation by fixed multipoles:
  | Hartree multipole sum: apparent total charge =   0.453213E-14
  Summing up the Hartree potential.
  Time summed over all CPUs for potential: real work        0.001 s, elapsed        0.001 s
  | RMS charge density error from multipole expansion :   0.116163E-02

  Integrating Hamiltonian matrix: batch-based integration.
  Time summed over all CPUs for integration: real work        0.095 s, elapsed        0.107 s

  Updating Kohn-Sham eigenvalues and eigenvectors using ELSI and the ELPA eigensolver.
  Starting ELPA eigensolver
  Finished transformation to standard eigenproblem
  | Time :     0.000 s
  Finished solving standard eigenproblem
  | Time :     0.001 s
  Finished back-transformation of eigenvectors
  | Time :     0.000 s

  Obtaining occupation numbers and electronic chemical potential using ELSI.
  | Note that, for insulating systems, the printed 'chemical potential' value is not uniquely defined.
  | It can be anywhere in the energy gap, as long as it correctly separates occupied and unoccupied states.
  | In systems with a gap, the physically relevant chemical potential is the VBM or HOMO.

  | Chemical potential (Fermi level):    -6.20000240 eV
  Highest occupied state (VBM) at     -6.20205131 eV
  | Occupation number:      1.22800015

  Lowest unoccupied state (CBM) at    -2.73593679 eV
  | Occupation number:      0.00000000

  This system has fractional occupation numbers. Thus, it is a degenerate system
  within the approximate finite broadening function (occupation_type)
  applied to determine the occupation numbers.
  This may not be harmful. However, for some systems (free atoms), a different, non-degenerate
  ground state might exist by using a smaller broadening (see keyword occupation_type).
  Overall HOMO-LUMO gap:      0.00000000 eV.

  Total energy components:
  | Sum of eigenvalues            :        -211.82451758 Ha       -5764.03839447 eV
  | XC energy correction          :         -27.04875534 Ha        -736.03408169 eV
  | XC potential correction       :          36.83703323 Ha        1002.38667494 eV
  | Free-atom electrostatic energy:        -164.89547461 Ha       -4487.03416180 eV
  | Hartree energy correction     :          -0.33764872 Ha          -9.18788923 eV
  | Entropy correction            :          -0.00028198 Ha          -0.00767301 eV
  | ---------------------------
  | Total energy                  :        -367.26936302 Ha       -9993.90785224 eV
  | Total energy, T -> 0          :        -367.26964500 Ha       -9993.91552525 eV  <-- do not rely on this value for anything but (periodic) metals
  | Electronic free energy        :        -367.26992698 Ha       -9993.92319826 eV

  Derived energy quantities:
  | Kinetic energy                :         367.91391903 Ha       10011.44711373 eV
  | Electrostatic energy          :        -708.13452672 Ha      -19269.32088428 eV
  | Energy correction for multipole
  | error in Hartree potential    :          -0.00025196 Ha          -0.00685623 eV
  | Sum of eigenvalues per atom                           :       -2882.01919723 eV
  | Total energy (T->0) per atom                          :       -4996.95776263 eV  <-- do not rely on this value for anything but (periodic) metals
  | Electronic free energy per atom                       :       -4996.96159913 eV
  Evaluating new KS density.
  Integration grid: deviation in total charge (<rho> - N_e) =  -7.507133E-10

  Self-consistency convergence accuracy:
  | Change of charge density      :  0.1876E-01
  | Change of unmixed KS density  :  0.3237E-01
  | Change of sum of eigenvalues  : -0.9753E-02 eV
  | Change of total energy        :  0.1825E-02 eV


------------------------------------------------------------
  End self-consistency iteration #    53       :  max(cpu_time)    wall_clock(cpu1)
  | Time for this iteration                     :        0.267 s           0.096 s
  | Charge density update                       :        0.001 s           0.001 s
  | Density mixing                              :        0.260 s           0.089 s
  | Hartree multipole update                    :        0.001 s           0.001 s
  | Hartree multipole summation                 :        0.002 s           0.002 s
  | Integration                                 :        0.002 s           0.002 s
  | Solution of K.-S. eqns.                     :        0.001 s           0.001 s
  | Total energy evaluation                     :        0.000 s           0.000 s

  Partial memory accounting:
  | Current value for overall tracked memory usage:
  |   Minimum:        0.413 MB (on task 58)
  |   Maximum:        0.519 MB (on task 56)
  |   Average:        0.438 MB
  | Peak value for overall tracked memory usage:
  |   Minimum:        0.916 MB (on task 48 after allocating wave)
  |   Maximum:        1.028 MB (on task 56 after allocating wave)
  |   Average:        0.944 MB
  | Largest tracked array allocation so far:
  |   Minimum:        0.161 MB (gradient_basis_wave_store on task  0)
  |   Maximum:        0.164 MB (gradient_basis_wave_store on task  1)
  |   Average:        0.163 MB
  Note:  These values currently only include a subset of arrays which are explicitly tracked.
  The "true" memory usage will be greater.
------------------------------------------------------------

------------------------------------------------------------
          Begin self-consistency iteration #   54

  Date     :  20260724, Time     :  152926.852
------------------------------------------------------------
  SCF convergence analysis is based on: Mixed KS density changes
  Charge density: The charge density seems to be converging.
                  The linear fit of ln(rho_delta) over the last 15 steps has a slope of  -0.0228
  Estimated 203 more steps to reach target accuracy

  Pulay mixing of updated and previous charge densities.
  Available memory per node after mixing [GB]:   1034.05
  Renormalizing the density to the exact electron count on the 3D integration grid.
  | Formal number of electrons (from input files) :      20.0000000000
  | Integrated number of electrons on 3D grid     :      19.9999999994
  | Charge integration error                      :      -0.0000000006
  | Normalization factor for density and gradient :       1.0000000000

  Evaluating partitioned Hartree potential by multipole expansion.
  | Original multipole sum: apparent total charge =   0.302552E-14
  | Sum of charges compensated after spline to logarithmic grids =  -0.111045E-06
  | Analytical far-field extrapolation by fixed multipoles:
  | Hartree multipole sum: apparent total charge =   0.300092E-14
  Summing up the Hartree potential.
  Time summed over all CPUs for potential: real work        0.001 s, elapsed        0.001 s
  | RMS charge density error from multipole expansion :   0.116083E-02

  Integrating Hamiltonian matrix: batch-based integration.
  Time summed over all CPUs for integration: real work        0.094 s, elapsed        0.107 s

  Updating Kohn-Sham eigenvalues and eigenvectors using ELSI and the ELPA eigensolver.
  Starting ELPA eigensolver
  Finished transformation to standard eigenproblem
  | Time :     0.000 s
  Finished solving standard eigenproblem
  | Time :     0.000 s
  Finished back-transformation of eigenvectors
  | Time :     0.000 s

  Obtaining occupation numbers and electronic chemical potential using ELSI.
  | Note that, for insulating systems, the printed 'chemical potential' value is not uniquely defined.
  | It can be anywhere in the energy gap, as long as it correctly separates occupied and unoccupied states.
  | In systems with a gap, the physically relevant chemical potential is the VBM or HOMO.

  | Chemical potential (Fermi level):    -6.19933714 eV
  Highest occupied state (VBM) at     -6.20416065 eV
  | Occupation number:      1.50485418

  Lowest unoccupied state (CBM) at    -6.19924957 eV
  | Occupation number:      0.99011994

  This system has fractional occupation numbers. Thus, it is a degenerate system
  within the approximate finite broadening function (occupation_type)
  applied to determine the occupation numbers.
  This may not be harmful. However, for some systems (free atoms), a different, non-degenerate
  ground state might exist by using a smaller broadening (see keyword occupation_type).
  Overall HOMO-LUMO gap:      0.00000000 eV.

  Total energy components:
  | Sum of eigenvalues            :        -211.82365385 Ha       -5764.01489098 eV
  | XC energy correction          :         -27.04892960 Ha        -736.03882378 eV
  | XC potential correction       :          36.83727198 Ha        1002.39317166 eV
  | Free-atom electrostatic energy:        -164.89547461 Ha       -4487.03416180 eV
  | Hartree energy correction     :          -0.33857766 Ha          -9.21316701 eV
  | Entropy correction            :          -0.00026794 Ha          -0.00729107 eV
  | ---------------------------
  | Total energy                  :        -367.26936374 Ha       -9993.90787190 eV
  | Total energy, T -> 0          :        -367.26963169 Ha       -9993.91516298 eV  <-- do not rely on this value for anything but (periodic) metals
  | Electronic free energy        :        -367.26989963 Ha       -9993.92245405 eV

  Derived energy quantities:
  | Kinetic energy                :         367.91479481 Ha       10011.47094485 eV
  | Electrostatic energy          :        -708.13522895 Ha      -19269.33999297 eV
  | Energy correction for multipole
  | error in Hartree potential    :          -0.00024947 Ha          -0.00678854 eV
  | Sum of eigenvalues per atom                           :       -2882.00744549 eV
  | Total energy (T->0) per atom                          :       -4996.95758149 eV  <-- do not rely on this value for anything but (periodic) metals
  | Electronic free energy per atom                       :       -4996.96122703 eV
  Evaluating new KS density.
  Integration grid: deviation in total charge (<rho> - N_e) =  -2.861640E-10

  Self-consistency convergence accuracy:
  | Change of charge density      :  0.4146E-01
  | Change of unmixed KS density  :  0.5946E-01
  | Change of sum of eigenvalues  :  0.2350E-01 eV
  | Change of total energy        : -0.1966E-04 eV


------------------------------------------------------------
  End self-consistency iteration #    54       :  max(cpu_time)    wall_clock(cpu1)
  | Time for this iteration                     :        0.325 s           0.107 s
  | Charge density update                       :        0.001 s           0.001 s
  | Density mixing                              :        0.318 s           0.100 s
  | Hartree multipole update                    :        0.001 s           0.001 s
  | Hartree multipole summation                 :        0.002 s           0.002 s
  | Integration                                 :        0.002 s           0.002 s
  | Solution of K.-S. eqns.                     :        0.001 s           0.001 s
  | Total energy evaluation                     :        0.000 s           0.000 s

  Partial memory accounting:
  | Current value for overall tracked memory usage:
  |   Minimum:        0.413 MB (on task 58)
  |   Maximum:        0.519 MB (on task 56)
  |   Average:        0.438 MB
  | Peak value for overall tracked memory usage:
  |   Minimum:        0.916 MB (on task 48 after allocating wave)
  |   Maximum:        1.028 MB (on task 56 after allocating wave)
  |   Average:        0.944 MB
  | Largest tracked array allocation so far:
  |   Minimum:        0.161 MB (gradient_basis_wave_store on task  0)
  |   Maximum:        0.164 MB (gradient_basis_wave_store on task  1)
  |   Average:        0.163 MB
  Note:  These values currently only include a subset of arrays which are explicitly tracked.
  The "true" memory usage will be greater.
------------------------------------------------------------

------------------------------------------------------------
          Begin self-consistency iteration #   55

  Date     :  20260724, Time     :  152927.124
------------------------------------------------------------
  SCF convergence analysis is based on: Mixed KS density changes
  Charge density: The charge density seems to be converging.
                  The linear fit of ln(rho_delta) over the last 15 steps has a slope of  -0.0222
  Estimated 184 more steps to reach target accuracy

  Pulay mixing of updated and previous charge densities.
  Available memory per node after mixing [GB]:   1034.05
  Renormalizing the density to the exact electron count on the 3D integration grid.
  | Formal number of electrons (from input files) :      20.0000000000
  | Integrated number of electrons on 3D grid     :      19.9999999990
  | Charge integration error                      :      -0.0000000010
  | Normalization factor for density and gradient :       1.0000000000

  Evaluating partitioned Hartree potential by multipole expansion.
  | Original multipole sum: apparent total charge =   0.481501E-14
  | Sum of charges compensated after spline to logarithmic grids =  -0.110039E-06
  | Analytical far-field extrapolation by fixed multipoles:
  | Hartree multipole sum: apparent total charge =   0.477811E-14
  Summing up the Hartree potential.
  Time summed over all CPUs for potential: real work        0.001 s, elapsed        0.001 s
  | RMS charge density error from multipole expansion :   0.116029E-02

  Integrating Hamiltonian matrix: batch-based integration.
  Time summed over all CPUs for integration: real work        0.095 s, elapsed        0.105 s

  Updating Kohn-Sham eigenvalues and eigenvectors using ELSI and the ELPA eigensolver.
  Starting ELPA eigensolver
  Finished transformation to standard eigenproblem
  | Time :     0.000 s
  Finished solving standard eigenproblem
  | Time :     0.001 s
  Finished back-transformation of eigenvectors
  | Time :     0.000 s

  Obtaining occupation numbers and electronic chemical potential using ELSI.
  | Note that, for insulating systems, the printed 'chemical potential' value is not uniquely defined.
  | It can be anywhere in the energy gap, as long as it correctly separates occupied and unoccupied states.
  | In systems with a gap, the physically relevant chemical potential is the VBM or HOMO.

  | Chemical potential (Fermi level):    -6.19842001 eV
  Highest occupied state (VBM) at     -6.20456041 eV
  | Occupation number:      1.61481594

  Lowest unoccupied state (CBM) at    -6.19635551 eV
  | Occupation number:      0.77031355

  This system has fractional occupation numbers. Thus, it is a degenerate system
  within the approximate finite broadening function (occupation_type)
  applied to determine the occupation numbers.
  This may not be harmful. However, for some systems (free atoms), a different, non-degenerate
  ground state might exist by using a smaller broadening (see keyword occupation_type).
  Overall HOMO-LUMO gap:      0.00000000 eV.

  Total energy components:
  | Sum of eigenvalues            :        -211.82257295 Ha       -5763.98547828 eV
  | XC energy correction          :         -27.04912389 Ha        -736.04411055 eV
  | XC potential correction       :          36.83753743 Ha        1002.40039497 eV
  | Free-atom electrostatic energy:        -164.89547461 Ha       -4487.03416180 eV
  | Hartree energy correction     :          -0.33978436 Ha          -9.24600286 eV
  | Entropy correction            :          -0.00024154 Ha          -0.00657276 eV
  | ---------------------------
  | Total energy                  :        -367.26941838 Ha       -9993.90935853 eV
  | Total energy, T -> 0          :        -367.26965992 Ha       -9993.91593129 eV  <-- do not rely on this value for anything but (periodic) metals
  | Electronic free energy        :        -367.26990147 Ha       -9993.92250406 eV

  Derived energy quantities:
  | Kinetic energy                :         367.91568166 Ha       10011.49507711 eV
  | Electrostatic energy          :        -708.13597614 Ha      -19269.36032508 eV
  | Energy correction for multipole
  | error in Hartree potential    :          -0.00024689 Ha          -0.00671814 eV
  | Sum of eigenvalues per atom                           :       -2881.99273914 eV
  | Total energy (T->0) per atom                          :       -4996.95796565 eV  <-- do not rely on this value for anything but (periodic) metals
  | Electronic free energy per atom                       :       -4996.96125203 eV
  Evaluating new KS density.
  Integration grid: deviation in total charge (<rho> - N_e) =   7.183694E-10

  Self-consistency convergence accuracy:
  | Change of charge density      :  0.1200E-01
  | Change of unmixed KS density  :  0.2900E-01
  | Change of sum of eigenvalues  :  0.2941E-01 eV
  | Change of total energy        : -0.1487E-02 eV


------------------------------------------------------------
  End self-consistency iteration #    55       :  max(cpu_time)    wall_clock(cpu1)
  | Time for this iteration                     :        0.287 s           0.132 s
  | Charge density update                       :        0.001 s           0.001 s
  | Density mixing                              :        0.281 s           0.125 s
  | Hartree multipole update                    :        0.001 s           0.002 s
  | Hartree multipole summation                 :        0.002 s           0.001 s
  | Integration                                 :        0.002 s           0.002 s
  | Solution of K.-S. eqns.                     :        0.001 s           0.001 s
  | Total energy evaluation                     :        0.000 s           0.000 s

  Partial memory accounting:
  | Current value for overall tracked memory usage:
  |   Minimum:        0.413 MB (on task 58)
  |   Maximum:        0.519 MB (on task 56)
  |   Average:        0.438 MB
  | Peak value for overall tracked memory usage:
  |   Minimum:        0.916 MB (on task 48 after allocating wave)
  |   Maximum:        1.028 MB (on task 56 after allocating wave)
  |   Average:        0.944 MB
  | Largest tracked array allocation so far:
  |   Minimum:        0.161 MB (gradient_basis_wave_store on task  0)
  |   Maximum:        0.164 MB (gradient_basis_wave_store on task  1)
  |   Average:        0.163 MB
  Note:  These values currently only include a subset of arrays which are explicitly tracked.
  The "true" memory usage will be greater.
------------------------------------------------------------

------------------------------------------------------------
          Begin self-consistency iteration #   56

  Date     :  20260724, Time     :  152927.335
------------------------------------------------------------
  SCF convergence analysis is based on: Mixed KS density changes
  Charge density: The charge density seems to be converging.
                  The linear fit of ln(rho_delta) over the last 15 steps has a slope of  -0.0218
  Estimated 192 more steps to reach target accuracy

  Pulay mixing of updated and previous charge densities.
  Available memory per node after mixing [GB]:   1034.05
  Renormalizing the density to the exact electron count on the 3D integration grid.
  | Formal number of electrons (from input files) :      20.0000000000
  | Integrated number of electrons on 3D grid     :      19.9999999994
  | Charge integration error                      :      -0.0000000006
  | Normalization factor for density and gradient :       1.0000000000

  Evaluating partitioned Hartree potential by multipole expansion.
  | Original multipole sum: apparent total charge =  -0.375116E-15
  | Sum of charges compensated after spline to logarithmic grids =  -0.110186E-06
  | Analytical far-field extrapolation by fixed multipoles:
  | Hartree multipole sum: apparent total charge =  -0.362817E-15
  Summing up the Hartree potential.
  Time summed over all CPUs for potential: real work        0.001 s, elapsed        0.001 s
  | RMS charge density error from multipole expansion :   0.116098E-02

  Integrating Hamiltonian matrix: batch-based integration.
  Time summed over all CPUs for integration: real work        0.094 s, elapsed        0.106 s

  Updating Kohn-Sham eigenvalues and eigenvectors using ELSI and the ELPA eigensolver.
  Starting ELPA eigensolver
  Finished transformation to standard eigenproblem
  | Time :     0.000 s
  Finished solving standard eigenproblem
  | Time :     0.001 s
  Finished back-transformation of eigenvectors
  | Time :     0.000 s

  Obtaining occupation numbers and electronic chemical potential using ELSI.
  | Note that, for insulating systems, the printed 'chemical potential' value is not uniquely defined.
  | It can be anywhere in the energy gap, as long as it correctly separates occupied and unoccupied states.
  | In systems with a gap, the physically relevant chemical potential is the VBM or HOMO.

  | Chemical potential (Fermi level):    -6.19851540 eV
  Highest occupied state (VBM) at     -6.20399505 eV
  | Occupation number:      1.56162450

  Lowest unoccupied state (CBM) at    -6.19741815 eV
  | Occupation number:      0.87668278

  This system has fractional occupation numbers. Thus, it is a degenerate system
  within the approximate finite broadening function (occupation_type)
  applied to determine the occupation numbers.
  This may not be harmful. However, for some systems (free atoms), a different, non-degenerate
  ground state might exist by using a smaller broadening (see keyword occupation_type).
  Overall HOMO-LUMO gap:      0.00000000 eV.

  Total energy components:
  | Sum of eigenvalues            :        -211.82249616 Ha       -5763.98338889 eV
  | XC energy correction          :         -27.04907293 Ha        -736.04272374 eV
  | XC potential correction       :          36.83746843 Ha        1002.39851747 eV
  | Free-atom electrostatic energy:        -164.89547461 Ha       -4487.03416180 eV
  | Hartree energy correction     :          -0.33980994 Ha          -9.24669884 eV
  | Entropy correction            :          -0.00025598 Ha          -0.00696551 eV
  | ---------------------------
  | Total energy                  :        -367.26938520 Ha       -9993.90845579 eV
  | Total energy, T -> 0          :        -367.26964118 Ha       -9993.91542130 eV  <-- do not rely on this value for anything but (periodic) metals
  | Electronic free energy        :        -367.26989716 Ha       -9993.92238681 eV

  Derived energy quantities:
  | Kinetic energy                :         367.91538840 Ha       10011.48709729 eV
  | Electrostatic energy          :        -708.13570068 Ha      -19269.35282934 eV
  | Energy correction for multipole
  | error in Hartree potential    :          -0.00024791 Ha          -0.00674587 eV
  | Sum of eigenvalues per atom                           :       -2881.99169444 eV
  | Total energy (T->0) per atom                          :       -4996.95771065 eV  <-- do not rely on this value for anything but (periodic) metals
  | Electronic free energy per atom                       :       -4996.96119340 eV
  Evaluating new KS density.
  Integration grid: deviation in total charge (<rho> - N_e) =  -6.696652E-10

  Self-consistency convergence accuracy:
  | Change of charge density      :  0.1529E-01
  | Change of unmixed KS density  :  0.2680E-01
  | Change of sum of eigenvalues  :  0.2089E-02 eV
  | Change of total energy        :  0.9027E-03 eV


------------------------------------------------------------
  End self-consistency iteration #    56       :  max(cpu_time)    wall_clock(cpu1)
  | Time for this iteration                     :        0.277 s           0.209 s
  | Charge density update                       :        0.001 s           0.001 s
  | Density mixing                              :        0.270 s           0.202 s
  | Hartree multipole update                    :        0.001 s           0.001 s
  | Hartree multipole summation                 :        0.002 s           0.002 s
  | Integration                                 :        0.002 s           0.002 s
  | Solution of K.-S. eqns.                     :        0.001 s           0.001 s
  | Total energy evaluation                     :        0.000 s           0.000 s

  Partial memory accounting:
  | Current value for overall tracked memory usage:
  |   Minimum:        0.413 MB (on task 58)
  |   Maximum:        0.519 MB (on task 56)
  |   Average:        0.438 MB
  | Peak value for overall tracked memory usage:
  |   Minimum:        0.916 MB (on task 48 after allocating wave)
  |   Maximum:        1.028 MB (on task 56 after allocating wave)
  |   Average:        0.944 MB
  | Largest tracked array allocation so far:
  |   Minimum:        0.161 MB (gradient_basis_wave_store on task  0)
  |   Maximum:        0.164 MB (gradient_basis_wave_store on task  1)
  |   Average:        0.163 MB
  Note:  These values currently only include a subset of arrays which are explicitly tracked.
  The "true" memory usage will be greater.
------------------------------------------------------------

------------------------------------------------------------
          Begin self-consistency iteration #   57

  Date     :  20260724, Time     :  152927.715
------------------------------------------------------------
  SCF convergence analysis is based on: Mixed KS density changes
  Charge density: The charge density seems to be converging.
                  The linear fit of ln(rho_delta) over the last 15 steps has a slope of  -0.0331
  Estimated 101 more steps to reach target accuracy

  Pulay mixing of updated and previous charge densities.
  Available memory per node after mixing [GB]:   1034.05
  Renormalizing the density to the exact electron count on the 3D integration grid.
  | Formal number of electrons (from input files) :      20.0000000000
  | Integrated number of electrons on 3D grid     :      19.9999999992
  | Charge integration error                      :      -0.0000000008
  | Normalization factor for density and gradient :       1.0000000000

  Evaluating partitioned Hartree potential by multipole expansion.
  | Original multipole sum: apparent total charge =   0.676438E-15
  | Sum of charges compensated after spline to logarithmic grids =  -0.110605E-06
  | Analytical far-field extrapolation by fixed multipoles:
  | Hartree multipole sum: apparent total charge =   0.664139E-15
  Summing up the Hartree potential.
  Time summed over all CPUs for potential: real work        0.001 s, elapsed        0.001 s
  | RMS charge density error from multipole expansion :   0.116121E-02

  Integrating Hamiltonian matrix: batch-based integration.
  Time summed over all CPUs for integration: real work        0.094 s, elapsed        0.106 s

  Updating Kohn-Sham eigenvalues and eigenvectors using ELSI and the ELPA eigensolver.
  Starting ELPA eigensolver
  Finished transformation to standard eigenproblem
  | Time :     0.000 s
  Finished solving standard eigenproblem
  | Time :     0.001 s
  Finished back-transformation of eigenvectors
  | Time :     0.000 s

  Obtaining occupation numbers and electronic chemical potential using ELSI.
  | Note that, for insulating systems, the printed 'chemical potential' value is not uniquely defined.
  | It can be anywhere in the energy gap, as long as it correctly separates occupied and unoccupied states.
  | In systems with a gap, the physically relevant chemical potential is the VBM or HOMO.

  | Chemical potential (Fermi level):    -6.19901446 eV
  Highest occupied state (VBM) at     -6.20389134 eV
  | Occupation number:      1.50961390

  Lowest unoccupied state (CBM) at    -6.19884174 eV
  | Occupation number:      0.98051319

  This system has fractional occupation numbers. Thus, it is a degenerate system
  within the approximate finite broadening function (occupation_type)
  applied to determine the occupation numbers.
  This may not be harmful. However, for some systems (free atoms), a different, non-degenerate
  ground state might exist by using a smaller broadening (see keyword occupation_type).
  Overall HOMO-LUMO gap:      0.00000000 eV.

  Total energy components:
  | Sum of eigenvalues            :        -211.82311113 Ha       -5764.00012293 eV
  | XC energy correction          :         -27.04897428 Ha        -736.04003941 eV
  | XC potential correction       :          36.83733395 Ha        1002.39485815 eV
  | Free-atom electrostatic energy:        -164.89547461 Ha       -4487.03416180 eV
  | Hartree energy correction     :          -0.33913895 Ha          -9.22844038 eV
  | Entropy correction            :          -0.00026706 Ha          -0.00726715 eV
  | ---------------------------
  | Total energy                  :        -367.26936501 Ha       -9993.90790637 eV
  | Total energy, T -> 0          :        -367.26963207 Ha       -9993.91517352 eV  <-- do not rely on this value for anything but (periodic) metals
  | Electronic free energy        :        -367.26989914 Ha       -9993.92244066 eV

  Derived energy quantities:
  | Kinetic energy                :         367.91498085 Ha       10011.47600731 eV
  | Electrostatic energy          :        -708.13537159 Ha      -19269.34387427 eV
  | Energy correction for multipole
  | error in Hartree potential    :          -0.00024915 Ha          -0.00677977 eV
  | Sum of eigenvalues per atom                           :       -2882.00006147 eV
  | Total energy (T->0) per atom                          :       -4996.95758676 eV  <-- do not rely on this value for anything but (periodic) metals
  | Electronic free energy per atom                       :       -4996.96122033 eV
  Evaluating new KS density.
  Integration grid: deviation in total charge (<rho> - N_e) =  -8.025545E-10

  Self-consistency convergence accuracy:
  | Change of charge density      :  0.2138E-02
  | Change of unmixed KS density  :  0.1299E-01
  | Change of sum of eigenvalues  : -0.1673E-01 eV
  | Change of total energy        :  0.5494E-03 eV


------------------------------------------------------------
  End self-consistency iteration #    57       :  max(cpu_time)    wall_clock(cpu1)
  | Time for this iteration                     :        0.258 s           0.097 s
  | Charge density update                       :        0.001 s           0.001 s
  | Density mixing                              :        0.251 s           0.090 s
  | Hartree multipole update                    :        0.001 s           0.001 s
  | Hartree multipole summation                 :        0.002 s           0.002 s
  | Integration                                 :        0.002 s           0.002 s
  | Solution of K.-S. eqns.                     :        0.001 s           0.001 s
  | Total energy evaluation                     :        0.000 s           0.000 s

  Partial memory accounting:
  | Current value for overall tracked memory usage:
  |   Minimum:        0.413 MB (on task 58)
  |   Maximum:        0.519 MB (on task 56)
  |   Average:        0.438 MB
  | Peak value for overall tracked memory usage:
  |   Minimum:        0.916 MB (on task 48 after allocating wave)
  |   Maximum:        1.028 MB (on task 56 after allocating wave)
  |   Average:        0.944 MB
  | Largest tracked array allocation so far:
  |   Minimum:        0.161 MB (gradient_basis_wave_store on task  0)
  |   Maximum:        0.164 MB (gradient_basis_wave_store on task  1)
  |   Average:        0.163 MB
  Note:  These values currently only include a subset of arrays which are explicitly tracked.
  The "true" memory usage will be greater.
------------------------------------------------------------

------------------------------------------------------------
          Begin self-consistency iteration #   58

  Date     :  20260724, Time     :  152927.824
------------------------------------------------------------
  SCF convergence analysis is based on: Mixed KS density changes
  Charge density: The charge density seems to be converging.
                  The linear fit of ln(rho_delta) over the last 15 steps has a slope of  -0.0497
  Estimated 81 more steps to reach target accuracy

  Pulay mixing of updated and previous charge densities.
  Available memory per node after mixing [GB]:   1034.05
  Renormalizing the density to the exact electron count on the 3D integration grid.
  | Formal number of electrons (from input files) :      20.0000000000
  | Integrated number of electrons on 3D grid     :      19.9999999996
  | Charge integration error                      :      -0.0000000004
  | Normalization factor for density and gradient :       1.0000000000

  Evaluating partitioned Hartree potential by multipole expansion.
  | Original multipole sum: apparent total charge =   0.102081E-14
  | Sum of charges compensated after spline to logarithmic grids =  -0.110618E-06
  | Analytical far-field extrapolation by fixed multipoles:
  | Hartree multipole sum: apparent total charge =   0.106385E-14
  Summing up the Hartree potential.
  Time summed over all CPUs for potential: real work        0.001 s, elapsed        0.001 s
  | RMS charge density error from multipole expansion :   0.116120E-02

  Integrating Hamiltonian matrix: batch-based integration.
  Time summed over all CPUs for integration: real work        0.094 s, elapsed        0.105 s

  Updating Kohn-Sham eigenvalues and eigenvectors using ELSI and the ELPA eigensolver.
  Starting ELPA eigensolver
  Finished transformation to standard eigenproblem
  | Time :     0.000 s
  Finished solving standard eigenproblem
  | Time :     0.001 s
  Finished back-transformation of eigenvectors
  | Time :     0.000 s

  Obtaining occupation numbers and electronic chemical potential using ELSI.
  | Note that, for insulating systems, the printed 'chemical potential' value is not uniquely defined.
  | It can be anywhere in the energy gap, as long as it correctly separates occupied and unoccupied states.
  | In systems with a gap, the physically relevant chemical potential is the VBM or HOMO.

  | Chemical potential (Fermi level):    -6.19904297 eV
  Highest occupied state (VBM) at     -6.20388367 eV
  | Occupation number:      1.50638998

  Lowest unoccupied state (CBM) at    -6.19892779 eV
  | Occupation number:      0.98700359

  This system has fractional occupation numbers. Thus, it is a degenerate system
  within the approximate finite broadening function (occupation_type)
  applied to determine the occupation numbers.
  This may not be harmful. However, for some systems (free atoms), a different, non-degenerate
  ground state might exist by using a smaller broadening (see keyword occupation_type).
  Overall HOMO-LUMO gap:      0.00000000 eV.

  Total energy components:
  | Sum of eigenvalues            :        -211.82315253 Ha       -5764.00124951 eV
  | XC energy correction          :         -27.04896630 Ha        -736.03982245 eV
  | XC potential correction       :          36.83732364 Ha        1002.39457760 eV
  | Free-atom electrostatic energy:        -164.89547461 Ha       -4487.03416180 eV
  | Hartree energy correction     :          -0.33909434 Ha          -9.22722636 eV
  | Entropy correction            :          -0.00026766 Ha          -0.00728339 eV
  | ---------------------------
  | Total energy                  :        -367.26936413 Ha       -9993.90788252 eV
  | Total energy, T -> 0          :        -367.26963179 Ha       -9993.91516590 eV  <-- do not rely on this value for anything but (periodic) metals
  | Electronic free energy        :        -367.26989945 Ha       -9993.92244929 eV

  Derived energy quantities:
  | Kinetic energy                :         367.91493763 Ha       10011.47483126 eV
  | Electrostatic energy          :        -708.13533546 Ha      -19269.34289133 eV
  | Energy correction for multipole
  | error in Hartree potential    :          -0.00024922 Ha          -0.00678168 eV
  | Sum of eigenvalues per atom                           :       -2882.00062476 eV
  | Total energy (T->0) per atom                          :       -4996.95758295 eV  <-- do not rely on this value for anything but (periodic) metals
  | Electronic free energy per atom                       :       -4996.96122465 eV
  Evaluating new KS density.
  Integration grid: deviation in total charge (<rho> - N_e) =  -6.442420E-10

  Self-consistency convergence accuracy:
  | Change of charge density      :  0.1078E-01
  | Change of unmixed KS density  :  0.1265E-01
  | Change of sum of eigenvalues  : -0.1127E-02 eV
  | Change of total energy        :  0.2385E-04 eV


------------------------------------------------------------
  End self-consistency iteration #    58       :  max(cpu_time)    wall_clock(cpu1)
  | Time for this iteration                     :        0.264 s           0.264 s
  | Charge density update                       :        0.001 s           0.001 s
  | Density mixing                              :        0.257 s           0.256 s
  | Hartree multipole update                    :        0.001 s           0.002 s
  | Hartree multipole summation                 :        0.002 s           0.001 s
  | Integration                                 :        0.002 s           0.002 s
  | Solution of K.-S. eqns.                     :        0.001 s           0.001 s
  | Total energy evaluation                     :        0.000 s           0.000 s

  Partial memory accounting:
  | Current value for overall tracked memory usage:
  |   Minimum:        0.413 MB (on task 58)
  |   Maximum:        0.519 MB (on task 56)
  |   Average:        0.438 MB
  | Peak value for overall tracked memory usage:
  |   Minimum:        0.916 MB (on task 48 after allocating wave)
  |   Maximum:        1.028 MB (on task 56 after allocating wave)
  |   Average:        0.944 MB
  | Largest tracked array allocation so far:
  |   Minimum:        0.161 MB (gradient_basis_wave_store on task  0)
  |   Maximum:        0.164 MB (gradient_basis_wave_store on task  1)
  |   Average:        0.163 MB
  Note:  These values currently only include a subset of arrays which are explicitly tracked.
  The "true" memory usage will be greater.
------------------------------------------------------------

------------------------------------------------------------
          Begin self-consistency iteration #   59

  Date     :  20260724, Time     :  152928.215
------------------------------------------------------------
  SCF convergence analysis is based on: Mixed KS density changes
  Charge density: The charge density seems to be converging.
                  The linear fit of ln(rho_delta) over the last 15 steps has a slope of  -0.0569
  Estimated 71 more steps to reach target accuracy

  Pulay mixing of updated and previous charge densities.
  Available memory per node after mixing [GB]:   1034.05
  Renormalizing the density to the exact electron count on the 3D integration grid.
  | Formal number of electrons (from input files) :      20.0000000000
  | Integrated number of electrons on 3D grid     :      19.9999999998
  | Charge integration error                      :      -0.0000000002
  | Normalization factor for density and gradient :       1.0000000000

  Evaluating partitioned Hartree potential by multipole expansion.
  | Original multipole sum: apparent total charge =  -0.282874E-15
  | Sum of charges compensated after spline to logarithmic grids =  -0.110564E-06
  | Analytical far-field extrapolation by fixed multipoles:
  | Hartree multipole sum: apparent total charge =  -0.252127E-15
  Summing up the Hartree potential.
  Time summed over all CPUs for potential: real work        0.001 s, elapsed        0.001 s
  | RMS charge density error from multipole expansion :   0.116111E-02

  Integrating Hamiltonian matrix: batch-based integration.
  Time summed over all CPUs for integration: real work        0.095 s, elapsed        0.107 s

  Updating Kohn-Sham eigenvalues and eigenvectors using ELSI and the ELPA eigensolver.
  Starting ELPA eigensolver
  Finished transformation to standard eigenproblem
  | Time :     0.000 s
  Finished solving standard eigenproblem
  | Time :     0.001 s
  Finished back-transformation of eigenvectors
  | Time :     0.000 s

  Obtaining occupation numbers and electronic chemical potential using ELSI.
  | Note that, for insulating systems, the printed 'chemical potential' value is not uniquely defined.
  | It can be anywhere in the energy gap, as long as it correctly separates occupied and unoccupied states.
  | In systems with a gap, the physically relevant chemical potential is the VBM or HOMO.

  | Chemical potential (Fermi level):    -6.19899634 eV
  Highest occupied state (VBM) at     -6.20390447 eV
  | Occupation number:      1.51238967

  Lowest unoccupied state (CBM) at    -6.19877518 eV
  | Occupation number:      0.97504910

  This system has fractional occupation numbers. Thus, it is a degenerate system
  within the approximate finite broadening function (occupation_type)
  applied to determine the occupation numbers.
  This may not be harmful. However, for some systems (free atoms), a different, non-degenerate
  ground state might exist by using a smaller broadening (see keyword occupation_type).
  Overall HOMO-LUMO gap:      0.00000000 eV.

  Total energy components:
  | Sum of eigenvalues            :        -211.82309724 Ha       -5763.99974506 eV
  | XC energy correction          :         -27.04897522 Ha        -736.04006492 eV
  | XC potential correction       :          36.83733623 Ha        1002.39492003 eV
  | Free-atom electrostatic energy:        -164.89547461 Ha       -4487.03416180 eV
  | Hartree energy correction     :          -0.33915495 Ha          -9.22887567 eV
  | Entropy correction            :          -0.00026655 Ha          -0.00725324 eV
  | ---------------------------
  | Total energy                  :        -367.26936578 Ha       -9993.90792741 eV
  | Total energy, T -> 0          :        -367.26963234 Ha       -9993.91518064 eV  <-- do not rely on this value for anything but (periodic) metals
  | Electronic free energy        :        -367.26989889 Ha       -9993.92243388 eV

  Derived energy quantities:
  | Kinetic energy                :         367.91498163 Ha       10011.47602834 eV
  | Electrostatic energy          :        -708.13537219 Ha      -19269.34389083 eV
  | Energy correction for multipole
  | error in Hartree potential    :          -0.00024910 Ha          -0.00677824 eV
  | Sum of eigenvalues per atom                           :       -2881.99987253 eV
  | Total energy (T->0) per atom                          :       -4996.95759032 eV  <-- do not rely on this value for anything but (periodic) metals
  | Electronic free energy per atom                       :       -4996.96121694 eV
  Evaluating new KS density.
  Integration grid: deviation in total charge (<rho> - N_e) =  -7.421228E-10

  Self-consistency convergence accuracy:
  | Change of charge density      :  0.1159E-01
  | Change of unmixed KS density  :  0.7910E-03
  | Change of sum of eigenvalues  :  0.1504E-02 eV
  | Change of total energy        : -0.4489E-04 eV


------------------------------------------------------------
  End self-consistency iteration #    59       :  max(cpu_time)    wall_clock(cpu1)
  | Time for this iteration                     :        0.295 s           0.179 s
  | Charge density update                       :        0.001 s           0.001 s
  | Density mixing                              :        0.287 s           0.172 s
  | Hartree multipole update                    :        0.001 s           0.001 s
  | Hartree multipole summation                 :        0.002 s           0.002 s
  | Integration                                 :        0.002 s           0.002 s
  | Solution of K.-S. eqns.                     :        0.001 s           0.001 s
  | Total energy evaluation                     :        0.000 s           0.000 s

  Partial memory accounting:
  | Current value for overall tracked memory usage:
  |   Minimum:        0.413 MB (on task 58)
  |   Maximum:        0.519 MB (on task 56)
  |   Average:        0.438 MB
  | Peak value for overall tracked memory usage:
  |   Minimum:        0.916 MB (on task 48 after allocating wave)
  |   Maximum:        1.028 MB (on task 56 after allocating wave)
  |   Average:        0.944 MB
  | Largest tracked array allocation so far:
  |   Minimum:        0.161 MB (gradient_basis_wave_store on task  0)
  |   Maximum:        0.164 MB (gradient_basis_wave_store on task  1)
  |   Average:        0.163 MB
  Note:  These values currently only include a subset of arrays which are explicitly tracked.
  The "true" memory usage will be greater.
------------------------------------------------------------

------------------------------------------------------------
          Begin self-consistency iteration #   60

  Date     :  20260724, Time     :  152928.470
------------------------------------------------------------
  SCF convergence analysis is based on: Mixed KS density changes
  Charge density: The charge density seems to be converging.
                  The linear fit of ln(rho_delta) over the last 15 steps has a slope of  -0.0759
  Estimated 53 more steps to reach target accuracy

  Pulay mixing of updated and previous charge densities.
  Available memory per node after mixing [GB]:   1034.05
  Renormalizing the density to the exact electron count on the 3D integration grid.
  | Formal number of electrons (from input files) :      20.0000000000
  | Integrated number of electrons on 3D grid     :      19.9999999998
  | Charge integration error                      :      -0.0000000002
  | Normalization factor for density and gradient :       1.0000000000

  Evaluating partitioned Hartree potential by multipole expansion.
  | Original multipole sum: apparent total charge =  -0.836323E-15
  | Sum of charges compensated after spline to logarithmic grids =  -0.110380E-06
  | Analytical far-field extrapolation by fixed multipoles:
  | Hartree multipole sum: apparent total charge =  -0.910116E-15
  Summing up the Hartree potential.
  Time summed over all CPUs for potential: real work        0.001 s, elapsed        0.001 s
  | RMS charge density error from multipole expansion :   0.116097E-02

  Integrating Hamiltonian matrix: batch-based integration.
  Time summed over all CPUs for integration: real work        0.094 s, elapsed        0.106 s

  Updating Kohn-Sham eigenvalues and eigenvectors using ELSI and the ELPA eigensolver.
  Starting ELPA eigensolver
  Finished transformation to standard eigenproblem
  | Time :     0.000 s
  Finished solving standard eigenproblem
  | Time :     0.001 s
  Finished back-transformation of eigenvectors
  | Time :     0.000 s

  Obtaining occupation numbers and electronic chemical potential using ELSI.
  | Note that, for insulating systems, the printed 'chemical potential' value is not uniquely defined.
  | It can be anywhere in the energy gap, as long as it correctly separates occupied and unoccupied states.
  | In systems with a gap, the physically relevant chemical potential is the VBM or HOMO.

  | Chemical potential (Fermi level):    -6.19887005 eV
  Highest occupied state (VBM) at     -6.20403329 eV
  | Occupation number:      1.53472739

  Lowest unoccupied state (CBM) at    -6.19825318 eV
  | Occupation number:      0.93048248

  This system has fractional occupation numbers. Thus, it is a degenerate system
  within the approximate finite broadening function (occupation_type)
  applied to determine the occupation numbers.
  This may not be harmful. However, for some systems (free atoms), a different, non-degenerate
  ground state might exist by using a smaller broadening (see keyword occupation_type).
  Overall HOMO-LUMO gap:      0.00000000 eV.

  Total energy components:
  | Sum of eigenvalues            :        -211.82295958 Ha       -5763.99599893 eV
  | XC energy correction          :         -27.04900676 Ha        -736.04092329 eV
  | XC potential correction       :          36.83737949 Ha        1002.39609733 eV
  | Free-atom electrostatic energy:        -164.89547461 Ha       -4487.03416180 eV
  | Hartree energy correction     :          -0.33931183 Ha          -9.23314475 eV
  | Entropy correction            :          -0.00026208 Ha          -0.00713169 eV
  | ---------------------------
  | Total energy                  :        -367.26937328 Ha       -9993.90813143 eV
  | Total energy, T -> 0          :        -367.26963537 Ha       -9993.91526312 eV  <-- do not rely on this value for anything but (periodic) metals
  | Electronic free energy        :        -367.26989745 Ha       -9993.92239481 eV

  Derived energy quantities:
  | Kinetic energy                :         367.91513038 Ha       10011.48007625 eV
  | Electrostatic energy          :        -708.13549691 Ha      -19269.34728439 eV
  | Energy correction for multipole
  | error in Hartree potential    :          -0.00024868 Ha          -0.00676703 eV
  | Sum of eigenvalues per atom                           :       -2881.99799946 eV
  | Total energy (T->0) per atom                          :       -4996.95763156 eV  <-- do not rely on this value for anything but (periodic) metals
  | Electronic free energy per atom                       :       -4996.96119740 eV
  Evaluating new KS density.
  Integration grid: deviation in total charge (<rho> - N_e) =   1.998082E-10

  Self-consistency convergence accuracy:
  | Change of charge density      :  0.1011E-01
  | Change of unmixed KS density  :  0.1458E-02
  | Change of sum of eigenvalues  :  0.3746E-02 eV
  | Change of total energy        : -0.2040E-03 eV


------------------------------------------------------------
  End self-consistency iteration #    60       :  max(cpu_time)    wall_clock(cpu1)
  | Time for this iteration                     :        0.262 s           0.198 s
  | Charge density update                       :        0.001 s           0.001 s
  | Density mixing                              :        0.255 s           0.191 s
  | Hartree multipole update                    :        0.001 s           0.001 s
  | Hartree multipole summation                 :        0.002 s           0.002 s
  | Integration                                 :        0.002 s           0.002 s
  | Solution of K.-S. eqns.                     :        0.001 s           0.001 s
  | Total energy evaluation                     :        0.000 s           0.000 s

  Partial memory accounting:
  | Current value for overall tracked memory usage:
  |   Minimum:        0.413 MB (on task 58)
  |   Maximum:        0.519 MB (on task 56)
  |   Average:        0.438 MB
  | Peak value for overall tracked memory usage:
  |   Minimum:        0.916 MB (on task 48 after allocating wave)
  |   Maximum:        1.028 MB (on task 56 after allocating wave)
  |   Average:        0.944 MB
  | Largest tracked array allocation so far:
  |   Minimum:        0.161 MB (gradient_basis_wave_store on task  0)
  |   Maximum:        0.164 MB (gradient_basis_wave_store on task  1)
  |   Average:        0.163 MB
  Note:  These values currently only include a subset of arrays which are explicitly tracked.
  The "true" memory usage will be greater.
------------------------------------------------------------

------------------------------------------------------------
          Begin self-consistency iteration #   61

  Date     :  20260724, Time     :  152928.791
------------------------------------------------------------
  SCF convergence analysis is based on: Mixed KS density changes
  Charge density: The charge density seems to be converging.
                  The linear fit of ln(rho_delta) over the last 15 steps has a slope of  -0.0897
  Estimated 41 more steps to reach target accuracy

  Pulay mixing of updated and previous charge densities.
  Available memory per node after mixing [GB]:   1034.05
  Renormalizing the density to the exact electron count on the 3D integration grid.
  | Formal number of electrons (from input files) :      20.0000000000
  | Integrated number of electrons on 3D grid     :      20.0000000001
  | Charge integration error                      :       0.0000000001
  | Normalization factor for density and gradient :       1.0000000000

  Evaluating partitioned Hartree potential by multipole expansion.
  | Original multipole sum: apparent total charge =  -0.126063E-14
  | Sum of charges compensated after spline to logarithmic grids =  -0.110324E-06
  | Analytical far-field extrapolation by fixed multipoles:
  | Hartree multipole sum: apparent total charge =  -0.125448E-14
  Summing up the Hartree potential.
  Time summed over all CPUs for potential: real work        0.001 s, elapsed        0.001 s
  | RMS charge density error from multipole expansion :   0.116100E-02

  Integrating Hamiltonian matrix: batch-based integration.
  Time summed over all CPUs for integration: real work        0.095 s, elapsed        0.105 s

  Updating Kohn-Sham eigenvalues and eigenvectors using ELSI and the ELPA eigensolver.
  Starting ELPA eigensolver
  Finished transformation to standard eigenproblem
  | Time :     0.000 s
  Finished solving standard eigenproblem
  | Time :     0.001 s
  Finished back-transformation of eigenvectors
  | Time :     0.000 s

  Obtaining occupation numbers and electronic chemical potential using ELSI.
  | Note that, for insulating systems, the printed 'chemical potential' value is not uniquely defined.
  | It can be anywhere in the energy gap, as long as it correctly separates occupied and unoccupied states.
  | In systems with a gap, the physically relevant chemical potential is the VBM or HOMO.

  | Chemical potential (Fermi level):    -6.19878640 eV
  Highest occupied state (VBM) at     -6.20402796 eV
  | Occupation number:      1.54146958

  Lowest unoccupied state (CBM) at    -6.19804959 eV
  | Occupation number:      0.91701067

  This system has fractional occupation numbers. Thus, it is a degenerate system
  within the approximate finite broadening function (occupation_type)
  applied to determine the occupation numbers.
  This may not be harmful. However, for some systems (free atoms), a different, non-degenerate
  ground state might exist by using a smaller broadening (see keyword occupation_type).
  Overall HOMO-LUMO gap:      0.00000000 eV.

  Total energy components:
  | Sum of eigenvalues            :        -211.82286080 Ha       -5763.99331108 eV
  | XC energy correction          :         -27.04902032 Ha        -736.04129238 eV
  | XC potential correction       :          36.83739815 Ha        1002.39660494 eV
  | Free-atom electrostatic energy:        -164.89547461 Ha       -4487.03416180 eV
  | Hartree energy correction     :          -0.33941839 Ha          -9.23604424 eV
  | Entropy correction            :          -0.00026063 Ha          -0.00709209 eV
  | ---------------------------
  | Total energy                  :        -367.26937597 Ha       -9993.90820456 eV
  | Total energy, T -> 0          :        -367.26963660 Ha       -9993.91529665 eV  <-- do not rely on this value for anything but (periodic) metals
  | Electronic free energy        :        -367.26989723 Ha       -9993.92238874 eV

  Derived energy quantities:
  | Kinetic energy                :         367.91518209 Ha       10011.48148314 eV
  | Electrostatic energy          :        -708.13553773 Ha      -19269.34839533 eV
  | Energy correction for multipole
  | error in Hartree potential    :          -0.00024851 Ha          -0.00676217 eV
  | Sum of eigenvalues per atom                           :       -2881.99665554 eV
  | Total energy (T->0) per atom                          :       -4996.95764832 eV  <-- do not rely on this value for anything but (periodic) metals
  | Electronic free energy per atom                       :       -4996.96119437 eV
  Evaluating new KS density.
  Integration grid: deviation in total charge (<rho> - N_e) =  -6.217284E-10

  Self-consistency convergence accuracy:
  | Change of charge density      :  0.4582E-02
  | Change of unmixed KS density  :  0.5434E-02
  | Change of sum of eigenvalues  :  0.2688E-02 eV
  | Change of total energy        : -0.7313E-04 eV


------------------------------------------------------------
  End self-consistency iteration #    61       :  max(cpu_time)    wall_clock(cpu1)
  | Time for this iteration                     :        0.266 s           0.154 s
  | Charge density update                       :        0.001 s           0.001 s
  | Density mixing                              :        0.260 s           0.147 s
  | Hartree multipole update                    :        0.001 s           0.001 s
  | Hartree multipole summation                 :        0.002 s           0.002 s
  | Integration                                 :        0.002 s           0.002 s
  | Solution of K.-S. eqns.                     :        0.001 s           0.001 s
  | Total energy evaluation                     :        0.000 s           0.000 s

  Partial memory accounting:
  | Current value for overall tracked memory usage:
  |   Minimum:        0.413 MB (on task 58)
  |   Maximum:        0.519 MB (on task 56)
  |   Average:        0.438 MB
  | Peak value for overall tracked memory usage:
  |   Minimum:        0.916 MB (on task 48 after allocating wave)
  |   Maximum:        1.028 MB (on task 56 after allocating wave)
  |   Average:        0.944 MB
  | Largest tracked array allocation so far:
  |   Minimum:        0.161 MB (gradient_basis_wave_store on task  0)
  |   Maximum:        0.164 MB (gradient_basis_wave_store on task  1)
  |   Average:        0.163 MB
  Note:  These values currently only include a subset of arrays which are explicitly tracked.
  The "true" memory usage will be greater.
------------------------------------------------------------

------------------------------------------------------------
          Begin self-consistency iteration #   62

  Date     :  20260724, Time     :  152929.050
------------------------------------------------------------
  SCF convergence analysis is based on: Mixed KS density changes
  Charge density: The charge density seems to be converging.
                  The linear fit of ln(rho_delta) over the last 15 steps has a slope of  -0.0923
  Estimated 38 more steps to reach target accuracy

  Pulay mixing of updated and previous charge densities.
  Available memory per node after mixing [GB]:   1034.05
  Renormalizing the density to the exact electron count on the 3D integration grid.
  | Formal number of electrons (from input files) :      20.0000000000
  | Integrated number of electrons on 3D grid     :      20.0000000000
  | Charge integration error                      :      -0.0000000000
  | Normalization factor for density and gradient :       1.0000000000

  Evaluating partitioned Hartree potential by multipole expansion.
  | Original multipole sum: apparent total charge =  -0.418162E-15
  | Sum of charges compensated after spline to logarithmic grids =  -0.110316E-06
  | Analytical far-field extrapolation by fixed multipoles:
  | Hartree multipole sum: apparent total charge =  -0.467357E-15
  Summing up the Hartree potential.
  Time summed over all CPUs for potential: real work        0.001 s, elapsed        0.001 s
  | RMS charge density error from multipole expansion :   0.116097E-02

  Integrating Hamiltonian matrix: batch-based integration.
  Time summed over all CPUs for integration: real work        0.095 s, elapsed        0.107 s

  Updating Kohn-Sham eigenvalues and eigenvectors using ELSI and the ELPA eigensolver.
  Starting ELPA eigensolver
  Finished transformation to standard eigenproblem
  | Time :     0.000 s
  Finished solving standard eigenproblem
  | Time :     0.009 s
  Finished back-transformation of eigenvectors
  | Time :     0.000 s

  Obtaining occupation numbers and electronic chemical potential using ELSI.
  | Note that, for insulating systems, the printed 'chemical potential' value is not uniquely defined.
  | It can be anywhere in the energy gap, as long as it correctly separates occupied and unoccupied states.
  | In systems with a gap, the physically relevant chemical potential is the VBM or HOMO.

  | Chemical potential (Fermi level):    -6.19878071 eV
  Highest occupied state (VBM) at     -6.20403142 eV
  | Occupation number:      1.54225366

  Lowest unoccupied state (CBM) at    -6.19802999 eV
  | Occupation number:      0.91544964

  This system has fractional occupation numbers. Thus, it is a degenerate system
  within the approximate finite broadening function (occupation_type)
  applied to determine the occupation numbers.
  This may not be harmful. However, for some systems (free atoms), a different, non-degenerate
  ground state might exist by using a smaller broadening (see keyword occupation_type).
  Overall HOMO-LUMO gap:      0.00000000 eV.

  Total energy components:
  | Sum of eigenvalues            :        -211.82285493 Ha       -5763.99315144 eV
  | XC energy correction          :         -27.04902097 Ha        -736.04131003 eV
  | XC potential correction       :          36.83739921 Ha        1002.39663385 eV
  | Free-atom electrostatic energy:        -164.89547461 Ha       -4487.03416180 eV
  | Hartree energy correction     :          -0.33942499 Ha          -9.23622396 eV
  | Entropy correction            :          -0.00026046 Ha          -0.00708741 eV
  | ---------------------------
  | Total energy                  :        -367.26937629 Ha       -9993.90821338 eV
  | Total energy, T -> 0          :        -367.26963675 Ha       -9993.91530079 eV  <-- do not rely on this value for anything but (periodic) metals
  | Electronic free energy        :        -367.26989721 Ha       -9993.92238820 eV

  Derived energy quantities:
  | Kinetic energy                :         367.91517769 Ha       10011.48136346 eV
  | Electrostatic energy          :        -708.13553301 Ha      -19269.34826681 eV
  | Energy correction for multipole
  | error in Hartree potential    :          -0.00024849 Ha          -0.00676166 eV
  | Sum of eigenvalues per atom                           :       -2881.99657572 eV
  | Total energy (T->0) per atom                          :       -4996.95765040 eV  <-- do not rely on this value for anything but (periodic) metals
  | Electronic free energy per atom                       :       -4996.96119410 eV
  Evaluating new KS density.
  Integration grid: deviation in total charge (<rho> - N_e) =   4.516920E-11

  Self-consistency convergence accuracy:
  | Change of charge density      :  0.2907E-02
  | Change of unmixed KS density  :  0.1642E-02
  | Change of sum of eigenvalues  :  0.1596E-03 eV
  | Change of total energy        : -0.8816E-05 eV


------------------------------------------------------------
  End self-consistency iteration #    62       :  max(cpu_time)    wall_clock(cpu1)
  | Time for this iteration                     :        0.292 s           0.199 s
  | Charge density update                       :        0.001 s           0.001 s
  | Density mixing                              :        0.278 s           0.185 s
  | Hartree multipole update                    :        0.001 s           0.001 s
  | Hartree multipole summation                 :        0.002 s           0.001 s
  | Integration                                 :        0.002 s           0.002 s
  | Solution of K.-S. eqns.                     :        0.009 s           0.009 s
  | Total energy evaluation                     :        0.000 s           0.000 s

  Partial memory accounting:
  | Current value for overall tracked memory usage:
  |   Minimum:        0.413 MB (on task 58)
  |   Maximum:        0.519 MB (on task 56)
  |   Average:        0.438 MB
  | Peak value for overall tracked memory usage:
  |   Minimum:        0.916 MB (on task 48 after allocating wave)
  |   Maximum:        1.028 MB (on task 56 after allocating wave)
  |   Average:        0.944 MB
  | Largest tracked array allocation so far:
  |   Minimum:        0.161 MB (gradient_basis_wave_store on task  0)
  |   Maximum:        0.164 MB (gradient_basis_wave_store on task  1)
  |   Average:        0.163 MB
  Note:  These values currently only include a subset of arrays which are explicitly tracked.
  The "true" memory usage will be greater.
------------------------------------------------------------

------------------------------------------------------------
          Begin self-consistency iteration #   63

  Date     :  20260724, Time     :  152929.263
------------------------------------------------------------
  SCF convergence analysis is based on: Mixed KS density changes
  Charge density: The charge density seems to be converging.
                  The linear fit of ln(rho_delta) over the last 15 steps has a slope of  -0.0945
  Estimated 36 more steps to reach target accuracy

  Pulay mixing of updated and previous charge densities.
  Available memory per node after mixing [GB]:   1034.05
  Renormalizing the density to the exact electron count on the 3D integration grid.
  | Formal number of electrons (from input files) :      20.0000000000
  | Integrated number of electrons on 3D grid     :      20.0000000001
  | Charge integration error                      :       0.0000000001
  | Normalization factor for density and gradient :       1.0000000000

  Evaluating partitioned Hartree potential by multipole expansion.
  | Original multipole sum: apparent total charge =   0.867070E-15
  | Sum of charges compensated after spline to logarithmic grids =  -0.110157E-06
  | Analytical far-field extrapolation by fixed multipoles:
  | Hartree multipole sum: apparent total charge =   0.903967E-15
  Summing up the Hartree potential.
  Time summed over all CPUs for potential: real work        0.001 s, elapsed        0.001 s
  | RMS charge density error from multipole expansion :   0.116100E-02

  Integrating Hamiltonian matrix: batch-based integration.
  Time summed over all CPUs for integration: real work        0.094 s, elapsed        0.107 s

  Updating Kohn-Sham eigenvalues and eigenvectors using ELSI and the ELPA eigensolver.
  Starting ELPA eigensolver
  Finished transformation to standard eigenproblem
  | Time :     0.001 s
  Finished solving standard eigenproblem
  | Time :     0.000 s
  Finished back-transformation of eigenvectors
  | Time :     0.000 s

  Obtaining occupation numbers and electronic chemical potential using ELSI.
  | Note that, for insulating systems, the printed 'chemical potential' value is not uniquely defined.
  | It can be anywhere in the energy gap, as long as it correctly separates occupied and unoccupied states.
  | In systems with a gap, the physically relevant chemical potential is the VBM or HOMO.

  | Chemical potential (Fermi level):    -6.19855733 eV
  Highest occupied state (VBM) at     -6.20392731 eV
  | Occupation number:      1.55240432

  Lowest unoccupied state (CBM) at    -6.19762511 eV
  | Occupation number:      0.89511381

  This system has fractional occupation numbers. Thus, it is a degenerate system
  within the approximate finite broadening function (occupation_type)
  applied to determine the occupation numbers.
  This may not be harmful. However, for some systems (free atoms), a different, non-degenerate
  ground state might exist by using a smaller broadening (see keyword occupation_type).
  Overall HOMO-LUMO gap:      0.00000000 eV.

  Total energy components:
  | Sum of eigenvalues            :        -211.82253611 Ha       -5763.98447576 eV
  | XC energy correction          :         -27.04905473 Ha        -736.04222857 eV
  | XC potential correction       :          36.83744550 Ha        1002.39789337 eV
  | Free-atom electrostatic energy:        -164.89547461 Ha       -4487.03416180 eV
  | Hartree energy correction     :          -0.33976081 Ha          -9.24536216 eV
  | Entropy correction            :          -0.00025816 Ha          -0.00702486 eV
  | ---------------------------
  | Total energy                  :        -367.26938076 Ha       -9993.90833491 eV
  | Total energy, T -> 0          :        -367.26963892 Ha       -9993.91535977 eV  <-- do not rely on this value for anything but (periodic) metals
  | Electronic free energy        :        -367.26989708 Ha       -9993.92238463 eV

  Derived energy quantities:
  | Kinetic energy                :         367.91529902 Ha       10011.48466502 eV
  | Electrostatic energy          :        -708.13562505 Ha      -19269.35077136 eV
  | Energy correction for multipole
  | error in Hartree potential    :          -0.00024814 Ha          -0.00675228 eV
  | Sum of eigenvalues per atom                           :       -2881.99223788 eV
  | Total energy (T->0) per atom                          :       -4996.95767989 eV  <-- do not rely on this value for anything but (periodic) metals
  | Electronic free energy per atom                       :       -4996.96119231 eV
  Evaluating new KS density.
  Integration grid: deviation in total charge (<rho> - N_e) =  -1.188916E-10

  Self-consistency convergence accuracy:
  | Change of charge density      :  0.2711E-02
  | Change of unmixed KS density  :  0.1900E-03
  | Change of sum of eigenvalues  :  0.8676E-02 eV
  | Change of total energy        : -0.1215E-03 eV


------------------------------------------------------------
  End self-consistency iteration #    63       :  max(cpu_time)    wall_clock(cpu1)
  | Time for this iteration                     :        0.262 s           0.261 s
  | Charge density update                       :        0.001 s           0.000 s
  | Density mixing                              :        0.255 s           0.255 s
  | Hartree multipole update                    :        0.001 s           0.001 s
  | Hartree multipole summation                 :        0.002 s           0.002 s
  | Integration                                 :        0.002 s           0.001 s
  | Solution of K.-S. eqns.                     :        0.001 s           0.001 s
  | Total energy evaluation                     :        0.000 s           0.001 s

  Partial memory accounting:
  | Current value for overall tracked memory usage:
  |   Minimum:        0.413 MB (on task 58)
  |   Maximum:        0.519 MB (on task 56)
  |   Average:        0.438 MB
  | Peak value for overall tracked memory usage:
  |   Minimum:        0.916 MB (on task 48 after allocating wave)
  |   Maximum:        1.028 MB (on task 56 after allocating wave)
  |   Average:        0.944 MB
  | Largest tracked array allocation so far:
  |   Minimum:        0.161 MB (gradient_basis_wave_store on task  0)
  |   Maximum:        0.164 MB (gradient_basis_wave_store on task  1)
  |   Average:        0.163 MB
  Note:  These values currently only include a subset of arrays which are explicitly tracked.
  The "true" memory usage will be greater.
------------------------------------------------------------

------------------------------------------------------------
          Begin self-consistency iteration #   64

  Date     :  20260724, Time     :  152929.637
------------------------------------------------------------
  SCF convergence analysis is based on: Mixed KS density changes
  Charge density: The charge density seems to be converging.
                  The linear fit of ln(rho_delta) over the last 15 steps has a slope of  -0.1146
  Estimated 19 more steps to reach target accuracy

  Pulay mixing of updated and previous charge densities.
  Available memory per node after mixing [GB]:   1034.05
  Renormalizing the density to the exact electron count on the 3D integration grid.
  | Formal number of electrons (from input files) :      20.0000000000
  | Integrated number of electrons on 3D grid     :      19.9999999995
  | Charge integration error                      :      -0.0000000005
  | Normalization factor for density and gradient :       1.0000000000

  Evaluating partitioned Hartree potential by multipole expansion.
  | Original multipole sum: apparent total charge =  -0.922415E-16
  | Sum of charges compensated after spline to logarithmic grids =  -0.110105E-06
  | Analytical far-field extrapolation by fixed multipoles:
  | Hartree multipole sum: apparent total charge =   0.307472E-16
  Summing up the Hartree potential.
  Time summed over all CPUs for potential: real work        0.001 s, elapsed        0.001 s
  | RMS charge density error from multipole expansion :   0.116097E-02

  Integrating Hamiltonian matrix: batch-based integration.
  Time summed over all CPUs for integration: real work        0.094 s, elapsed        0.108 s

  Updating Kohn-Sham eigenvalues and eigenvectors using ELSI and the ELPA eigensolver.
  Starting ELPA eigensolver
  Finished transformation to standard eigenproblem
  | Time :     0.000 s
  Finished solving standard eigenproblem
  | Time :     0.001 s
  Finished back-transformation of eigenvectors
  | Time :     0.000 s

  Obtaining occupation numbers and electronic chemical potential using ELSI.
  | Note that, for insulating systems, the printed 'chemical potential' value is not uniquely defined.
  | It can be anywhere in the energy gap, as long as it correctly separates occupied and unoccupied states.
  | In systems with a gap, the physically relevant chemical potential is the VBM or HOMO.

  | Chemical potential (Fermi level):    -6.19854208 eV
  Highest occupied state (VBM) at     -6.20391633 eV
  | Occupation number:      1.55276615

  Lowest unoccupied state (CBM) at    -6.19760364 eV
  | Occupation number:      0.89441848

  This system has fractional occupation numbers. Thus, it is a degenerate system
  within the approximate finite broadening function (occupation_type)
  applied to determine the occupation numbers.
  This may not be harmful. However, for some systems (free atoms), a different, non-degenerate
  ground state might exist by using a smaller broadening (see keyword occupation_type).
  Overall HOMO-LUMO gap:      0.00000000 eV.

  Total energy components:
  | Sum of eigenvalues            :        -211.82250735 Ha       -5763.98369339 eV
  | XC energy correction          :         -27.04905550 Ha        -736.04224944 eV
  | XC potential correction       :          36.83744710 Ha        1002.39793704 eV
  | Free-atom electrostatic energy:        -164.89547461 Ha       -4487.03416180 eV
  | Hartree energy correction     :          -0.33979057 Ha          -9.24617172 eV
  | Entropy correction            :          -0.00025808 Ha          -0.00702266 eV
  | ---------------------------
  | Total energy                  :        -367.26938092 Ha       -9993.90833930 eV
  | Total energy, T -> 0          :        -367.26963900 Ha       -9993.91536196 eV  <-- do not rely on this value for anything but (periodic) metals
  | Electronic free energy        :        -367.26989708 Ha       -9993.92238463 eV

  Derived energy quantities:
  | Kinetic energy                :         367.91530303 Ha       10011.48477425 eV
  | Electrostatic energy          :        -708.13562846 Ha      -19269.35086411 eV
  | Energy correction for multipole
  | error in Hartree potential    :          -0.00024815 Ha          -0.00675244 eV
  | Sum of eigenvalues per atom                           :       -2881.99184669 eV
  | Total energy (T->0) per atom                          :       -4996.95768098 eV  <-- do not rely on this value for anything but (periodic) metals
  | Electronic free energy per atom                       :       -4996.96119231 eV
  Evaluating new KS density.
  Integration grid: deviation in total charge (<rho> - N_e) =   4.003944E-10

  Self-consistency convergence accuracy:
  | Change of charge density      :  0.1570E-03
  | Change of unmixed KS density  :  0.2474E-02
  | Change of sum of eigenvalues  :  0.7824E-03 eV
  | Change of total energy        : -0.4385E-05 eV


------------------------------------------------------------
  End self-consistency iteration #    64       :  max(cpu_time)    wall_clock(cpu1)
  | Time for this iteration                     :        0.278 s           0.175 s
  | Charge density update                       :        0.001 s           0.001 s
  | Density mixing                              :        0.271 s           0.168 s
  | Hartree multipole update                    :        0.001 s           0.001 s
  | Hartree multipole summation                 :        0.002 s           0.001 s
  | Integration                                 :        0.002 s           0.002 s
  | Solution of K.-S. eqns.                     :        0.001 s           0.001 s
  | Total energy evaluation                     :        0.000 s           0.000 s

  Partial memory accounting:
  | Current value for overall tracked memory usage:
  |   Minimum:        0.413 MB (on task 58)
  |   Maximum:        0.519 MB (on task 56)
  |   Average:        0.438 MB
  | Peak value for overall tracked memory usage:
  |   Minimum:        0.916 MB (on task 48 after allocating wave)
  |   Maximum:        1.028 MB (on task 56 after allocating wave)
  |   Average:        0.944 MB
  | Largest tracked array allocation so far:
  |   Minimum:        0.161 MB (gradient_basis_wave_store on task  0)
  |   Maximum:        0.164 MB (gradient_basis_wave_store on task  1)
  |   Average:        0.163 MB
  Note:  These values currently only include a subset of arrays which are explicitly tracked.
  The "true" memory usage will be greater.
------------------------------------------------------------

------------------------------------------------------------
          Begin self-consistency iteration #   65

  Date     :  20260724, Time     :  152929.824
------------------------------------------------------------
  SCF convergence analysis is based on: Mixed KS density changes
  Charge density: The charge density seems to be converging.
                  The linear fit of ln(rho_delta) over the last 15 steps has a slope of  -0.1417
  Estimated 13 more steps to reach target accuracy

  Pulay mixing of updated and previous charge densities.
  Available memory per node after mixing [GB]:   1034.05
  Renormalizing the density to the exact electron count on the 3D integration grid.
  | Formal number of electrons (from input files) :      20.0000000000
  | Integrated number of electrons on 3D grid     :      19.9999999999
  | Charge integration error                      :      -0.0000000001
  | Normalization factor for density and gradient :       1.0000000000

  Evaluating partitioned Hartree potential by multipole expansion.
  | Original multipole sum: apparent total charge =  -0.614943E-15
  | Sum of charges compensated after spline to logarithmic grids =  -0.110090E-06
  | Analytical far-field extrapolation by fixed multipoles:
  | Hartree multipole sum: apparent total charge =  -0.633392E-15
  Summing up the Hartree potential.
  Time summed over all CPUs for potential: real work        0.001 s, elapsed        0.001 s
  | RMS charge density error from multipole expansion :   0.116099E-02

  Integrating Hamiltonian matrix: batch-based integration.
  Time summed over all CPUs for integration: real work        0.095 s, elapsed        0.110 s

  Updating Kohn-Sham eigenvalues and eigenvectors using ELSI and the ELPA eigensolver.
  Starting ELPA eigensolver
  Finished transformation to standard eigenproblem
  | Time :     0.000 s
  Finished solving standard eigenproblem
  | Time :     0.001 s
  Finished back-transformation of eigenvectors
  | Time :     0.000 s

  Obtaining occupation numbers and electronic chemical potential using ELSI.
  | Note that, for insulating systems, the printed 'chemical potential' value is not uniquely defined.
  | It can be anywhere in the energy gap, as long as it correctly separates occupied and unoccupied states.
  | In systems with a gap, the physically relevant chemical potential is the VBM or HOMO.

  | Chemical potential (Fermi level):    -6.19853515 eV
  Highest occupied state (VBM) at     -6.20391245 eV
  | Occupation number:      1.55302386

  Lowest unoccupied state (CBM) at    -6.19759235 eV
  | Occupation number:      0.89393118

  This system has fractional occupation numbers. Thus, it is a degenerate system
  within the approximate finite broadening function (occupation_type)
  applied to determine the occupation numbers.
  This may not be harmful. However, for some systems (free atoms), a different, non-degenerate
  ground state might exist by using a smaller broadening (see keyword occupation_type).
  Overall HOMO-LUMO gap:      0.00000000 eV.

  Total energy components:
  | Sum of eigenvalues            :        -211.82249143 Ha       -5763.98326013 eV
  | XC energy correction          :         -27.04905727 Ha        -736.04229773 eV
  | XC potential correction       :          36.83744934 Ha        1002.39799788 eV
  | Free-atom electrostatic energy:        -164.89547461 Ha       -4487.03416180 eV
  | Hartree energy correction     :          -0.33980706 Ha          -9.24662060 eV
  | Entropy correction            :          -0.00025802 Ha          -0.00702113 eV
  | ---------------------------
  | Total energy                  :        -367.26938103 Ha       -9993.90834238 eV
  | Total energy, T -> 0          :        -367.26963906 Ha       -9993.91536350 eV  <-- do not rely on this value for anything but (periodic) metals
  | Electronic free energy        :        -367.26989708 Ha       -9993.92238463 eV

  Derived energy quantities:
  | Kinetic energy                :         367.91531710 Ha       10011.48515708 eV
  | Electrostatic energy          :        -708.13564086 Ha      -19269.35120173 eV
  | Energy correction for multipole
  | error in Hartree potential    :          -0.00024814 Ha          -0.00675222 eV
  | Sum of eigenvalues per atom                           :       -2881.99163007 eV
  | Total energy (T->0) per atom                          :       -4996.95768175 eV  <-- do not rely on this value for anything but (periodic) metals
  | Electronic free energy per atom                       :       -4996.96119231 eV
  Evaluating new KS density.
  Integration grid: deviation in total charge (<rho> - N_e) =  -2.021032E-10

  Self-consistency convergence accuracy:
  | Change of charge density      :  0.7145E-04
  | Change of unmixed KS density  :  0.8488E-04
  | Change of sum of eigenvalues  :  0.4333E-03 eV
  | Change of total energy        : -0.3079E-05 eV


------------------------------------------------------------
  End self-consistency iteration #    65       :  max(cpu_time)    wall_clock(cpu1)
  | Time for this iteration                     :        0.270 s           0.270 s
  | Charge density update                       :        0.001 s           0.001 s
  | Density mixing                              :        0.263 s           0.263 s
  | Hartree multipole update                    :        0.001 s           0.001 s
  | Hartree multipole summation                 :        0.002 s           0.002 s
  | Integration                                 :        0.002 s           0.002 s
  | Solution of K.-S. eqns.                     :        0.001 s           0.001 s
  | Total energy evaluation                     :        0.000 s           0.000 s

  Partial memory accounting:
  | Current value for overall tracked memory usage:
  |   Minimum:        0.413 MB (on task 58)
  |   Maximum:        0.519 MB (on task 56)
  |   Average:        0.438 MB
  | Peak value for overall tracked memory usage:
  |   Minimum:        0.916 MB (on task 48 after allocating wave)
  |   Maximum:        1.028 MB (on task 56 after allocating wave)
  |   Average:        0.944 MB
  | Largest tracked array allocation so far:
  |   Minimum:        0.161 MB (gradient_basis_wave_store on task  0)
  |   Maximum:        0.164 MB (gradient_basis_wave_store on task  1)
  |   Average:        0.163 MB
  Note:  These values currently only include a subset of arrays which are explicitly tracked.
  The "true" memory usage will be greater.
------------------------------------------------------------

------------------------------------------------------------
          Begin self-consistency iteration #   66

  Date     :  20260724, Time     :  152930.105
------------------------------------------------------------
  SCF convergence analysis is based on: Mixed KS density changes
  Charge density: The charge density seems to be converging.
                  The linear fit of ln(rho_delta) over the last 15 steps has a slope of  -0.1797
  Estimated 6 more steps to reach target accuracy

  Pulay mixing of updated and previous charge densities.
  Available memory per node after mixing [GB]:   1034.05
  Renormalizing the density to the exact electron count on the 3D integration grid.
  | Formal number of electrons (from input files) :      20.0000000000
  | Integrated number of electrons on 3D grid     :      19.9999999998
  | Charge integration error                      :      -0.0000000002
  | Normalization factor for density and gradient :       1.0000000000

  Evaluating partitioned Hartree potential by multipole expansion.
  | Original multipole sum: apparent total charge =  -0.154351E-14
  | Sum of charges compensated after spline to logarithmic grids =  -0.110061E-06
  | Analytical far-field extrapolation by fixed multipoles:
  | Hartree multipole sum: apparent total charge =  -0.154966E-14
  Summing up the Hartree potential.
  Time summed over all CPUs for potential: real work        0.002 s, elapsed        0.003 s
  | RMS charge density error from multipole expansion :   0.116101E-02

  Integrating Hamiltonian matrix: batch-based integration.
  Time summed over all CPUs for integration: real work        0.096 s, elapsed        0.112 s

  Updating Kohn-Sham eigenvalues and eigenvectors using ELSI and the ELPA eigensolver.
  Starting ELPA eigensolver
  Finished transformation to standard eigenproblem
  | Time :     0.000 s
  Finished solving standard eigenproblem
  | Time :     0.001 s
  Finished back-transformation of eigenvectors
  | Time :     0.000 s

  Obtaining occupation numbers and electronic chemical potential using ELSI.
  | Note that, for insulating systems, the printed 'chemical potential' value is not uniquely defined.
  | It can be anywhere in the energy gap, as long as it correctly separates occupied and unoccupied states.
  | In systems with a gap, the physically relevant chemical potential is the VBM or HOMO.

  | Chemical potential (Fermi level):    -6.19853395 eV
  Highest occupied state (VBM) at     -6.20391274 eV
  | Occupation number:      1.55314947

  Lowest unoccupied state (CBM) at    -6.19758877 eV
  | Occupation number:      0.89366476

  This system has fractional occupation numbers. Thus, it is a degenerate system
  within the approximate finite broadening function (occupation_type)
  applied to determine the occupation numbers.
  This may not be harmful. However, for some systems (free atoms), a different, non-degenerate
  ground state might exist by using a smaller broadening (see keyword occupation_type).
  Overall HOMO-LUMO gap:      0.00000000 eV.

  Total energy components:
  | Sum of eigenvalues            :        -211.82248710 Ha       -5763.98314231 eV
  | XC energy correction          :         -27.04905596 Ha        -736.04226208 eV
  | XC potential correction       :          36.83744777 Ha        1002.39795524 eV
  | Free-atom electrostatic energy:        -164.89547461 Ha       -4487.03416180 eV
  | Hartree energy correction     :          -0.33981120 Ha          -9.24673313 eV
  | Entropy correction            :          -0.00025799 Ha          -0.00702028 eV
  | ---------------------------
  | Total energy                  :        -367.26938110 Ha       -9993.90834408 eV
  | Total energy, T -> 0          :        -367.26963909 Ha       -9993.91536436 eV  <-- do not rely on this value for anything but (periodic) metals
  | Electronic free energy        :        -367.26989708 Ha       -9993.92238464 eV

  Derived energy quantities:
  | Kinetic energy                :         367.91530192 Ha       10011.48474409 eV
  | Electrostatic energy          :        -708.13562706 Ha      -19269.35082608 eV
  | Energy correction for multipole
  | error in Hartree potential    :          -0.00024813 Ha          -0.00675199 eV
  | Sum of eigenvalues per atom                           :       -2881.99157116 eV
  | Total energy (T->0) per atom                          :       -4996.95768218 eV  <-- do not rely on this value for anything but (periodic) metals
  | Electronic free energy per atom                       :       -4996.96119232 eV
  Evaluating new KS density.
  Integration grid: deviation in total charge (<rho> - N_e) =   7.599574E-10

  Self-consistency convergence accuracy:
  | Change of charge density      :  0.1371E-04
  | Change of unmixed KS density  :  0.5942E-04
  | Change of sum of eigenvalues  :  0.1178E-03 eV
  | Change of total energy        : -0.1699E-05 eV


------------------------------------------------------------
  End self-consistency iteration #    66       :  max(cpu_time)    wall_clock(cpu1)
  | Time for this iteration                     :        0.292 s           0.291 s
  | Charge density update                       :        0.001 s           0.001 s
  | Density mixing                              :        0.284 s           0.283 s
  | Hartree multipole update                    :        0.001 s           0.001 s
  | Hartree multipole summation                 :        0.003 s           0.003 s
  | Integration                                 :        0.002 s           0.002 s
  | Solution of K.-S. eqns.                     :        0.001 s           0.001 s
  | Total energy evaluation                     :        0.000 s           0.000 s

  Partial memory accounting:
  | Current value for overall tracked memory usage:
  |   Minimum:        0.413 MB (on task 58)
  |   Maximum:        0.519 MB (on task 56)
  |   Average:        0.438 MB
  | Peak value for overall tracked memory usage:
  |   Minimum:        0.916 MB (on task 48 after allocating wave)
  |   Maximum:        1.028 MB (on task 56 after allocating wave)
  |   Average:        0.944 MB
  | Largest tracked array allocation so far:
  |   Minimum:        0.161 MB (gradient_basis_wave_store on task  0)
  |   Maximum:        0.164 MB (gradient_basis_wave_store on task  1)
  |   Average:        0.163 MB
  Note:  These values currently only include a subset of arrays which are explicitly tracked.
  The "true" memory usage will be greater.
------------------------------------------------------------

------------------------------------------------------------
          Begin self-consistency iteration #   67

  Date     :  20260724, Time     :  152930.416
------------------------------------------------------------
  SCF convergence analysis is based on: Mixed KS density changes
  Charge density: The charge density seems to be converging.
                  The linear fit of ln(rho_delta) over the last 15 steps has a slope of  -0.2049
  Estimated 7 more steps to reach target accuracy

  Pulay mixing of updated and previous charge densities.
  Available memory per node after mixing [GB]:   1034.05
  Renormalizing the density to the exact electron count on the 3D integration grid.
  | Formal number of electrons (from input files) :      20.0000000000
  | Integrated number of electrons on 3D grid     :      20.0000000007
  | Charge integration error                      :       0.0000000007
  | Normalization factor for density and gradient :       1.0000000000

  Evaluating partitioned Hartree potential by multipole expansion.
  | Original multipole sum: apparent total charge =  -0.161115E-14
  | Sum of charges compensated after spline to logarithmic grids =  -0.110102E-06
  | Analytical far-field extrapolation by fixed multipoles:
  | Hartree multipole sum: apparent total charge =  -0.159270E-14
  Summing up the Hartree potential.
  Time summed over all CPUs for potential: real work        0.001 s, elapsed        0.001 s
  | RMS charge density error from multipole expansion :   0.116102E-02

  Integrating Hamiltonian matrix: batch-based integration.
  Time summed over all CPUs for integration: real work        0.094 s, elapsed        0.106 s

  Updating Kohn-Sham eigenvalues and eigenvectors using ELSI and the ELPA eigensolver.
  Starting ELPA eigensolver
  Finished transformation to standard eigenproblem
  | Time :     0.000 s
  Finished solving standard eigenproblem
  | Time :     0.000 s
  Finished back-transformation of eigenvectors
  | Time :     0.001 s

  Obtaining occupation numbers and electronic chemical potential using ELSI.
  | Note that, for insulating systems, the printed 'chemical potential' value is not uniquely defined.
  | It can be anywhere in the energy gap, as long as it correctly separates occupied and unoccupied states.
  | In systems with a gap, the physically relevant chemical potential is the VBM or HOMO.

  | Chemical potential (Fermi level):    -6.19855066 eV
  Highest occupied state (VBM) at     -6.20392671 eV
  | Occupation number:      1.55291784

  Lowest unoccupied state (CBM) at    -6.19760974 eV
  | Occupation number:      0.89414131

  This system has fractional occupation numbers. Thus, it is a degenerate system
  within the approximate finite broadening function (occupation_type)
  applied to determine the occupation numbers.
  This may not be harmful. However, for some systems (free atoms), a different, non-degenerate
  ground state might exist by using a smaller broadening (see keyword occupation_type).
  Overall HOMO-LUMO gap:      0.00000000 eV.

  Total energy components:
  | Sum of eigenvalues            :        -211.82251136 Ha       -5763.98380242 eV
  | XC energy correction          :         -27.04905452 Ha        -736.04222298 eV
  | XC potential correction       :          36.83744511 Ha        1002.39788281 eV
  | Free-atom electrostatic energy:        -164.89547461 Ha       -4487.03416180 eV
  | Hartree energy correction     :          -0.33978560 Ha          -9.24603667 eV
  | Entropy correction            :          -0.00025805 Ha          -0.00702179 eV
  | ---------------------------
  | Total energy                  :        -367.26938098 Ha       -9993.90834105 eV
  | Total energy, T -> 0          :        -367.26963903 Ha       -9993.91536284 eV  <-- do not rely on this value for anything but (periodic) metals
  | Electronic free energy        :        -367.26989708 Ha       -9993.92238463 eV

  Derived energy quantities:
  | Kinetic energy                :         367.91529485 Ha       10011.48455150 eV
  | Electrostatic energy          :        -708.13562131 Ha      -19269.35066958 eV
  | Energy correction for multipole
  | error in Hartree potential    :          -0.00024809 Ha          -0.00675081 eV
  | Sum of eigenvalues per atom                           :       -2881.99190121 eV
  | Total energy (T->0) per atom                          :       -4996.95768142 eV  <-- do not rely on this value for anything but (periodic) metals
  | Electronic free energy per atom                       :       -4996.96119231 eV
  Evaluating new KS density.
  Integration grid: deviation in total charge (<rho> - N_e) =  -6.518590E-10

  Self-consistency convergence accuracy:
  | Change of charge density      :  0.2244E-04
  | Change of unmixed KS density  :  0.3227E-04
  | Change of sum of eigenvalues  : -0.6601E-03 eV
  | Change of total energy        :  0.3026E-05 eV


------------------------------------------------------------
  End self-consistency iteration #    67       :  max(cpu_time)    wall_clock(cpu1)
  | Time for this iteration                     :        0.268 s           0.260 s
  | Charge density update                       :        0.001 s           0.001 s
  | Density mixing                              :        0.261 s           0.253 s
  | Hartree multipole update                    :        0.001 s           0.001 s
  | Hartree multipole summation                 :        0.002 s           0.002 s
  | Integration                                 :        0.002 s           0.002 s
  | Solution of K.-S. eqns.                     :        0.001 s           0.001 s
  | Total energy evaluation                     :        0.000 s           0.000 s

  Partial memory accounting:
  | Current value for overall tracked memory usage:
  |   Minimum:        0.413 MB (on task 58)
  |   Maximum:        0.519 MB (on task 56)
  |   Average:        0.438 MB
  | Peak value for overall tracked memory usage:
  |   Minimum:        0.916 MB (on task 48 after allocating wave)
  |   Maximum:        1.028 MB (on task 56 after allocating wave)
  |   Average:        0.944 MB
  | Largest tracked array allocation so far:
  |   Minimum:        0.161 MB (gradient_basis_wave_store on task  0)
  |   Maximum:        0.164 MB (gradient_basis_wave_store on task  1)
  |   Average:        0.163 MB
  Note:  These values currently only include a subset of arrays which are explicitly tracked.
  The "true" memory usage will be greater.
------------------------------------------------------------

------------------------------------------------------------
          Begin self-consistency iteration #   68

  Date     :  20260724, Time     :  152930.803
------------------------------------------------------------
  SCF convergence analysis is based on: Mixed KS density changes
  Charge density: The charge density seems to be converging.
                  The linear fit of ln(rho_delta) over the last 15 steps has a slope of  -0.2239
  Estimated 7 more steps to reach target accuracy

  Pulay mixing of updated and previous charge densities.
  Available memory per node after mixing [GB]:   1034.05
  Renormalizing the density to the exact electron count on the 3D integration grid.
  | Formal number of electrons (from input files) :      20.0000000000
  | Integrated number of electrons on 3D grid     :      19.9999999998
  | Charge integration error                      :      -0.0000000002
  | Normalization factor for density and gradient :       1.0000000000

  Evaluating partitioned Hartree potential by multipole expansion.
  | Original multipole sum: apparent total charge =   0.138977E-14
  | Sum of charges compensated after spline to logarithmic grids =  -0.110097E-06
  | Analytical far-field extrapolation by fixed multipoles:
  | Hartree multipole sum: apparent total charge =   0.135903E-14
  Summing up the Hartree potential.
  Time summed over all CPUs for potential: real work        0.001 s, elapsed        0.001 s
  | RMS charge density error from multipole expansion :   0.116100E-02

  Integrating Hamiltonian matrix: batch-based integration.
  Time summed over all CPUs for integration: real work        0.094 s, elapsed        0.106 s

  Updating Kohn-Sham eigenvalues and eigenvectors using ELSI and the ELPA eigensolver.
  Starting ELPA eigensolver
  Finished transformation to standard eigenproblem
  | Time :     0.000 s
  Finished solving standard eigenproblem
  | Time :     0.001 s
  Finished back-transformation of eigenvectors
  | Time :     0.000 s

  Obtaining occupation numbers and electronic chemical potential using ELSI.
  | Note that, for insulating systems, the printed 'chemical potential' value is not uniquely defined.
  | It can be anywhere in the energy gap, as long as it correctly separates occupied and unoccupied states.
  | In systems with a gap, the physically relevant chemical potential is the VBM or HOMO.

  | Chemical potential (Fermi level):    -6.19854334 eV
  Highest occupied state (VBM) at     -6.20392138 eV
  | Occupation number:      1.55308625

  Lowest unoccupied state (CBM) at    -6.19759940 eV
  | Occupation number:      0.89380385

  This system has fractional occupation numbers. Thus, it is a degenerate system
  within the approximate finite broadening function (occupation_type)
  applied to determine the occupation numbers.
  This may not be harmful. However, for some systems (free atoms), a different, non-degenerate
  ground state might exist by using a smaller broadening (see keyword occupation_type).
  Overall HOMO-LUMO gap:      0.00000000 eV.

  Total energy components:
  | Sum of eigenvalues            :        -211.82249772 Ha       -5763.98343110 eV
  | XC energy correction          :         -27.04905581 Ha        -736.04225814 eV
  | XC potential correction       :          36.83744689 Ha        1002.39793143 eV
  | Free-atom electrostatic energy:        -164.89547461 Ha       -4487.03416180 eV
  | Hartree energy correction     :          -0.33979982 Ha          -9.24642357 eV
  | Entropy correction            :          -0.00025801 Ha          -0.00702072 eV
  | ---------------------------
  | Total energy                  :        -367.26938106 Ha       -9993.90834319 eV
  | Total energy, T -> 0          :        -367.26963907 Ha       -9993.91536391 eV  <-- do not rely on this value for anything but (periodic) metals
  | Electronic free energy        :        -367.26989708 Ha       -9993.92238463 eV

  Derived energy quantities:
  | Kinetic energy                :         367.91530621 Ha       10011.48486073 eV
  | Electrostatic energy          :        -708.13563146 Ha      -19269.35094578 eV
  | Energy correction for multipole
  | error in Hartree potential    :          -0.00024807 Ha          -0.00675042 eV
  | Sum of eigenvalues per atom                           :       -2881.99171555 eV
  | Total energy (T->0) per atom                          :       -4996.95768195 eV  <-- do not rely on this value for anything but (periodic) metals
  | Electronic free energy per atom                       :       -4996.96119232 eV
  Evaluating new KS density.
  Integration grid: deviation in total charge (<rho> - N_e) =   1.692797E-10

  Self-consistency convergence accuracy:
  | Change of charge density      :  0.3843E-04
  | Change of unmixed KS density  :  0.5828E-04
  | Change of sum of eigenvalues  :  0.3713E-03 eV
  | Change of total energy        : -0.2135E-05 eV


------------------------------------------------------------
  End self-consistency iteration #    68       :  max(cpu_time)    wall_clock(cpu1)
  | Time for this iteration                     :        0.284 s           0.167 s
  | Charge density update                       :        0.001 s           0.001 s
  | Density mixing                              :        0.277 s           0.160 s
  | Hartree multipole update                    :        0.001 s           0.002 s
  | Hartree multipole summation                 :        0.002 s           0.001 s
  | Integration                                 :        0.002 s           0.002 s
  | Solution of K.-S. eqns.                     :        0.001 s           0.001 s
  | Total energy evaluation                     :        0.000 s           0.000 s

  Partial memory accounting:
  | Current value for overall tracked memory usage:
  |   Minimum:        0.413 MB (on task 58)
  |   Maximum:        0.519 MB (on task 56)
  |   Average:        0.438 MB
  | Peak value for overall tracked memory usage:
  |   Minimum:        0.916 MB (on task 48 after allocating wave)
  |   Maximum:        1.028 MB (on task 56 after allocating wave)
  |   Average:        0.944 MB
  | Largest tracked array allocation so far:
  |   Minimum:        0.161 MB (gradient_basis_wave_store on task  0)
  |   Maximum:        0.164 MB (gradient_basis_wave_store on task  1)
  |   Average:        0.163 MB
  Note:  These values currently only include a subset of arrays which are explicitly tracked.
  The "true" memory usage will be greater.
------------------------------------------------------------

------------------------------------------------------------
          Begin self-consistency iteration #   69

  Date     :  20260724, Time     :  152931.092
------------------------------------------------------------
  SCF convergence analysis is based on: Mixed KS density changes
  Charge density: The charge density seems to be converging.
                  The linear fit of ln(rho_delta) over the last 15 steps has a slope of  -0.2375
  Estimated 3 more steps to reach target accuracy

  Pulay mixing of updated and previous charge densities.
  Available memory per node after mixing [GB]:   1034.05
  Renormalizing the density to the exact electron count on the 3D integration grid.
  | Formal number of electrons (from input files) :      20.0000000000
  | Integrated number of electrons on 3D grid     :      20.0000000001
  | Charge integration error                      :       0.0000000001
  | Normalization factor for density and gradient :       1.0000000000

  Evaluating partitioned Hartree potential by multipole expansion.
  | Original multipole sum: apparent total charge =   0.287794E-14
  | Sum of charges compensated after spline to logarithmic grids =  -0.110099E-06
  | Analytical far-field extrapolation by fixed multipoles:
  | Hartree multipole sum: apparent total charge =   0.285334E-14
  Summing up the Hartree potential.
  Time summed over all CPUs for potential: real work        0.001 s, elapsed        0.001 s
  | RMS charge density error from multipole expansion :   0.116100E-02

  Integrating Hamiltonian matrix: batch-based integration.
  Time summed over all CPUs for integration: real work        0.094 s, elapsed        0.106 s

  Updating Kohn-Sham eigenvalues and eigenvectors using ELSI and the ELPA eigensolver.
  Starting ELPA eigensolver
  Finished transformation to standard eigenproblem
  | Time :     0.000 s
  Finished solving standard eigenproblem
  | Time :     0.001 s
  Finished back-transformation of eigenvectors
  | Time :     0.000 s

  Obtaining occupation numbers and electronic chemical potential using ELSI.
  | Note that, for insulating systems, the printed 'chemical potential' value is not uniquely defined.
  | It can be anywhere in the energy gap, as long as it correctly separates occupied and unoccupied states.
  | In systems with a gap, the physically relevant chemical potential is the VBM or HOMO.

  | Chemical potential (Fermi level):    -6.19854587 eV
  Highest occupied state (VBM) at     -6.20392397 eV
  | Occupation number:      1.55309051

  Lowest unoccupied state (CBM) at    -6.19760203 eV
  | Occupation number:      0.89381454

  This system has fractional occupation numbers. Thus, it is a degenerate system
  within the approximate finite broadening function (occupation_type)
  applied to determine the occupation numbers.
  This may not be harmful. However, for some systems (free atoms), a different, non-degenerate
  ground state might exist by using a smaller broadening (see keyword occupation_type).
  Overall HOMO-LUMO gap:      0.00000000 eV.

  Total energy components:
  | Sum of eigenvalues            :        -211.82250209 Ha       -5763.98355014 eV
  | XC energy correction          :         -27.04905550 Ha        -736.04224967 eV
  | XC potential correction       :          36.83744643 Ha        1002.39791886 eV
  | Free-atom electrostatic energy:        -164.89547461 Ha       -4487.03416180 eV
  | Hartree energy correction     :          -0.33979529 Ha          -9.24630037 eV
  | Entropy correction            :          -0.00025801 Ha          -0.00702076 eV
  | ---------------------------
  | Total energy                  :        -367.26938106 Ha       -9993.90834312 eV
  | Total energy, T -> 0          :        -367.26963907 Ha       -9993.91536388 eV  <-- do not rely on this value for anything but (periodic) metals
  | Electronic free energy        :        -367.26989708 Ha       -9993.92238463 eV

  Derived energy quantities:
  | Kinetic energy                :         367.91530285 Ha       10011.48476938 eV
  | Electrostatic energy          :        -708.13562841 Ha      -19269.35086282 eV
  | Energy correction for multipole
  | error in Hartree potential    :          -0.00024807 Ha          -0.00675042 eV
  | Sum of eigenvalues per atom                           :       -2881.99177507 eV
  | Total energy (T->0) per atom                          :       -4996.95768194 eV  <-- do not rely on this value for anything but (periodic) metals
  | Electronic free energy per atom                       :       -4996.96119232 eV
  Evaluating new KS density.
  Integration grid: deviation in total charge (<rho> - N_e) =   2.947580E-10

  Self-consistency convergence accuracy:
  | Change of charge density      :  0.4449E-05
  | Change of unmixed KS density  :  0.4116E-04
  | Change of sum of eigenvalues  : -0.1190E-03 eV
  | Change of total energy        :  0.6662E-07 eV


------------------------------------------------------------
  End self-consistency iteration #    69       :  max(cpu_time)    wall_clock(cpu1)
  | Time for this iteration                     :        0.283 s           0.172 s
  | Charge density update                       :        0.001 s           0.001 s
  | Density mixing                              :        0.277 s           0.165 s
  | Hartree multipole update                    :        0.001 s           0.001 s
  | Hartree multipole summation                 :        0.002 s           0.002 s
  | Integration                                 :        0.002 s           0.002 s
  | Solution of K.-S. eqns.                     :        0.001 s           0.001 s
  | Total energy evaluation                     :        0.000 s           0.000 s

  Partial memory accounting:
  | Current value for overall tracked memory usage:
  |   Minimum:        0.413 MB (on task 58)
  |   Maximum:        0.519 MB (on task 56)
  |   Average:        0.438 MB
  | Peak value for overall tracked memory usage:
  |   Minimum:        0.916 MB (on task 48 after allocating wave)
  |   Maximum:        1.028 MB (on task 56 after allocating wave)
  |   Average:        0.944 MB
  | Largest tracked array allocation so far:
  |   Minimum:        0.161 MB (gradient_basis_wave_store on task  0)
  |   Maximum:        0.164 MB (gradient_basis_wave_store on task  1)
  |   Average:        0.163 MB
  Note:  These values currently only include a subset of arrays which are explicitly tracked.
  The "true" memory usage will be greater.
------------------------------------------------------------

------------------------------------------------------------
          Begin self-consistency iteration #   70

  Date     :  20260724, Time     :  152931.382
------------------------------------------------------------
  SCF convergence analysis is based on: Mixed KS density changes
  Charge density: The charge density seems to be converging.
                  The linear fit of ln(rho_delta) over the last 15 steps has a slope of  -0.2627
  Estimated 2 more steps to reach target accuracy

  Pulay mixing of updated and previous charge densities.
  Available memory per node after mixing [GB]:   1034.05
  Renormalizing the density to the exact electron count on the 3D integration grid.
  | Formal number of electrons (from input files) :      20.0000000000
  | Integrated number of electrons on 3D grid     :      20.0000000001
  | Charge integration error                      :       0.0000000001
  | Normalization factor for density and gradient :       1.0000000000

  Evaluating partitioned Hartree potential by multipole expansion.
  | Original multipole sum: apparent total charge =   0.731783E-15
  | Sum of charges compensated after spline to logarithmic grids =  -0.110098E-06
  | Analytical far-field extrapolation by fixed multipoles:
  | Hartree multipole sum: apparent total charge =   0.707185E-15
  Summing up the Hartree potential.
  Time summed over all CPUs for potential: real work        0.001 s, elapsed        0.001 s
  | RMS charge density error from multipole expansion :   0.116098E-02

  Integrating Hamiltonian matrix: batch-based integration.
  Time summed over all CPUs for integration: real work        0.095 s, elapsed        0.107 s

  Updating Kohn-Sham eigenvalues and eigenvectors using ELSI and the ELPA eigensolver.
  Starting ELPA eigensolver
  Finished transformation to standard eigenproblem
  | Time :     0.000 s
  Finished solving standard eigenproblem
  | Time :     0.001 s
  Finished back-transformation of eigenvectors
  | Time :     0.000 s

  Obtaining occupation numbers and electronic chemical potential using ELSI.
  | Note that, for insulating systems, the printed 'chemical potential' value is not uniquely defined.
  | It can be anywhere in the energy gap, as long as it correctly separates occupied and unoccupied states.
  | In systems with a gap, the physically relevant chemical potential is the VBM or HOMO.

  | Chemical potential (Fermi level):    -6.19854485 eV
  Highest occupied state (VBM) at     -6.20392284 eV
  | Occupation number:      1.55308172

  Lowest unoccupied state (CBM) at    -6.19760120 eV
  | Occupation number:      0.89383621

  This system has fractional occupation numbers. Thus, it is a degenerate system
  within the approximate finite broadening function (occupation_type)
  applied to determine the occupation numbers.
  This may not be harmful. However, for some systems (free atoms), a different, non-degenerate
  ground state might exist by using a smaller broadening (see keyword occupation_type).
  Overall HOMO-LUMO gap:      0.00000000 eV.

  Total energy components:
  | Sum of eigenvalues            :        -211.82249561 Ha       -5763.98337387 eV
  | XC energy correction          :         -27.04905630 Ha        -736.04227140 eV
  | XC potential correction       :          36.83744748 Ha        1002.39794739 eV
  | Free-atom electrostatic energy:        -164.89547461 Ha       -4487.03416180 eV
  | Hartree energy correction     :          -0.33980202 Ha          -9.24648330 eV
  | Entropy correction            :          -0.00025801 Ha          -0.00702082 eV
  | ---------------------------
  | Total energy                  :        -367.26938106 Ha       -9993.90834298 eV
  | Total energy, T -> 0          :        -367.26963907 Ha       -9993.91536380 eV  <-- do not rely on this value for anything but (periodic) metals
  | Electronic free energy        :        -367.26989708 Ha       -9993.92238463 eV

  Derived energy quantities:
  | Kinetic energy                :         367.91531334 Ha       10011.48505487 eV
  | Electrostatic energy          :        -708.13563810 Ha      -19269.35112645 eV
  | Energy correction for multipole
  | error in Hartree potential    :          -0.00024806 Ha          -0.00674994 eV
  | Sum of eigenvalues per atom                           :       -2881.99168694 eV
  | Total energy (T->0) per atom                          :       -4996.95768190 eV  <-- do not rely on this value for anything but (periodic) metals
  | Electronic free energy per atom                       :       -4996.96119231 eV
  Evaluating new KS density.
  Integration grid: deviation in total charge (<rho> - N_e) =   2.723297E-10

  Self-consistency convergence accuracy:
  | Change of charge density      :  0.2843E-05
  | Change of unmixed KS density  :  0.2109E-05
  | Change of sum of eigenvalues  :  0.1763E-03 eV
  | Change of total energy        :  0.1417E-06 eV


------------------------------------------------------------
  End self-consistency iteration #    70       :  max(cpu_time)    wall_clock(cpu1)
  | Time for this iteration                     :        0.269 s           0.163 s
  | Charge density update                       :        0.001 s           0.001 s
  | Density mixing                              :        0.263 s           0.156 s
  | Hartree multipole update                    :        0.001 s           0.001 s
  | Hartree multipole summation                 :        0.002 s           0.002 s
  | Integration                                 :        0.002 s           0.002 s
  | Solution of K.-S. eqns.                     :        0.001 s           0.001 s
  | Total energy evaluation                     :        0.000 s           0.000 s

  Partial memory accounting:
  | Current value for overall tracked memory usage:
  |   Minimum:        0.413 MB (on task 58)
  |   Maximum:        0.519 MB (on task 56)
  |   Average:        0.438 MB
  | Peak value for overall tracked memory usage:
  |   Minimum:        0.916 MB (on task 48 after allocating wave)
  |   Maximum:        1.028 MB (on task 56 after allocating wave)
  |   Average:        0.944 MB
  | Largest tracked array allocation so far:
  |   Minimum:        0.161 MB (gradient_basis_wave_store on task  0)
  |   Maximum:        0.164 MB (gradient_basis_wave_store on task  1)
  |   Average:        0.163 MB
  Note:  These values currently only include a subset of arrays which are explicitly tracked.
  The "true" memory usage will be greater.
------------------------------------------------------------

------------------------------------------------------------
          Begin self-consistency iteration #   71

  Date     :  20260724, Time     :  152931.557
------------------------------------------------------------
  SCF convergence analysis is based on: Mixed KS density changes
  Charge density: The charge density has already converged to the target accuracy.

  Pulay mixing of updated and previous charge densities.
  Available memory per node after mixing [GB]:   1034.05
  Renormalizing the density to the exact electron count on the 3D integration grid.
  | Formal number of electrons (from input files) :      20.0000000000
  | Integrated number of electrons on 3D grid     :      20.0000000000
  | Charge integration error                      :       0.0000000000
  | Normalization factor for density and gradient :       1.0000000000

  Evaluating partitioned Hartree potential by multipole expansion.
  | Original multipole sum: apparent total charge =  -0.479656E-15
  | Sum of charges compensated after spline to logarithmic grids =  -0.110097E-06
  | Analytical far-field extrapolation by fixed multipoles:
  | Hartree multipole sum: apparent total charge =  -0.461208E-15
  Summing up the Hartree potential.
  Time summed over all CPUs for potential: real work        0.001 s, elapsed        0.001 s
  | RMS charge density error from multipole expansion :   0.116098E-02

  Integrating Hamiltonian matrix: batch-based integration.
  Time summed over all CPUs for integration: real work        0.094 s, elapsed        0.105 s

  Updating Kohn-Sham eigenvalues and eigenvectors using ELSI and the ELPA eigensolver.
  Starting ELPA eigensolver
  Finished transformation to standard eigenproblem
  | Time :     0.000 s
  Finished solving standard eigenproblem
  | Time :     0.001 s
  Finished back-transformation of eigenvectors
  | Time :     0.000 s

  Obtaining occupation numbers and electronic chemical potential using ELSI.
  | Note that, for insulating systems, the printed 'chemical potential' value is not uniquely defined.
  | It can be anywhere in the energy gap, as long as it correctly separates occupied and unoccupied states.
  | In systems with a gap, the physically relevant chemical potential is the VBM or HOMO.

  | Chemical potential (Fermi level):    -6.19854513 eV
  Highest occupied state (VBM) at     -6.20392311 eV
  | Occupation number:      1.55308080

  Lowest unoccupied state (CBM) at    -6.19760149 eV
  | Occupation number:      0.89383791

  This system has fractional occupation numbers. Thus, it is a degenerate system
  within the approximate finite broadening function (occupation_type)
  applied to determine the occupation numbers.
  This may not be harmful. However, for some systems (free atoms), a different, non-degenerate
  ground state might exist by using a smaller broadening (see keyword occupation_type).
  Overall HOMO-LUMO gap:      0.00000000 eV.

  Total energy components:
  | Sum of eigenvalues            :        -211.82249588 Ha       -5763.98338105 eV
  | XC energy correction          :         -27.04905629 Ha        -736.04227099 eV
  | XC potential correction       :          36.83744746 Ha        1002.39794679 eV
  | Free-atom electrostatic energy:        -164.89547461 Ha       -4487.03416180 eV
  | Hartree energy correction     :          -0.33980174 Ha          -9.24647591 eV
  | Entropy correction            :          -0.00025801 Ha          -0.00702083 eV
  | ---------------------------
  | Total energy                  :        -367.26938105 Ha       -9993.90834296 eV
  | Total energy, T -> 0          :        -367.26963907 Ha       -9993.91536379 eV  <-- do not rely on this value for anything but (periodic) metals
  | Electronic free energy        :        -367.26989708 Ha       -9993.92238462 eV

  Derived energy quantities:
  | Kinetic energy                :         367.91531331 Ha       10011.48505387 eV
  | Electrostatic energy          :        -708.13563808 Ha      -19269.35112584 eV
  | Energy correction for multipole
  | error in Hartree potential    :          -0.00024806 Ha          -0.00674993 eV
  | Sum of eigenvalues per atom                           :       -2881.99169052 eV
  | Total energy (T->0) per atom                          :       -4996.95768190 eV  <-- do not rely on this value for anything but (periodic) metals
  | Electronic free energy per atom                       :       -4996.96119231 eV

  Self-consistency convergence accuracy:
  | Change of charge density      :  0.9027E-06
  | Change of unmixed KS density  :  0.2773E-05
  | Change of sum of eigenvalues  : -0.7176E-05 eV
  | Change of total energy        :  0.1719E-07 eV

  Writing Kohn-Sham eigenvalues.

  State    Occupation    Eigenvalue [Ha]    Eigenvalue [eV]
      1       2.00000         -77.234675        -2101.66243
      2       2.00000          -6.768659         -184.18459
      3       2.00000          -6.547018         -178.15342
      4       2.00000          -4.654880         -126.66574
      5       2.00000          -4.653638         -126.63194
      6       2.00000          -4.653638         -126.63194
      7       2.00000          -0.570530          -15.52491
      8       2.00000          -0.372333          -10.13169
      9       1.55308          -0.227990           -6.20392
     10       1.55308          -0.227990           -6.20392
     11       0.89384          -0.227758           -6.19760
     12       0.00000          -0.100464           -2.73377
     13       0.00000          -0.100464           -2.73377
     14       0.00000           0.038756            1.05461
     15       0.00000           0.173724            4.72727
     16       0.00000           0.210265            5.72161

  Highest occupied state (VBM) at     -6.20392311 eV
  | Occupation number:      1.55308080

  Lowest unoccupied state (CBM) at    -6.19760149 eV
  | Occupation number:      0.89383791

  This system has fractional occupation numbers. Thus, it is a degenerate system
  within the approximate finite broadening function (occupation_type)
  applied to determine the occupation numbers.
  This may not be harmful. However, for some systems (free atoms), a different, non-degenerate
  ground state might exist by using a smaller broadening (see keyword occupation_type).
  Overall HOMO-LUMO gap:      0.00000000 eV.

  | Chemical Potential                          :    -6.19854513 eV
  | Note that, for insulating systems, the printed 'chemical potential' value is not uniquely defined.
  | It can be anywhere in the energy gap, as long as it correctly separates occupied and unoccupied states.
  | In systems with a gap, the physically relevant chemical potential is the VBM or HOMO.

  Self-consistency cycle converged.


------------------------------------------------------------
  End self-consistency iteration #    71       :  max(cpu_time)    wall_clock(cpu1)
  | Time for this iteration                     :        0.272 s           0.270 s
  | Charge density update                       :        0.000 s           0.000 s
  | Density mixing                              :        0.267 s           0.264 s
  | Hartree multipole update                    :        0.001 s           0.001 s
  | Hartree multipole summation                 :        0.002 s           0.001 s
  | Integration                                 :        0.002 s           0.002 s
  | Solution of K.-S. eqns.                     :        0.001 s           0.001 s
  | Total energy evaluation                     :        0.000 s           0.000 s

  Partial memory accounting:
  | Current value for overall tracked memory usage:
  |   Minimum:        0.413 MB (on task 58)
  |   Maximum:        0.519 MB (on task 56)
  |   Average:        0.438 MB
  | Peak value for overall tracked memory usage:
  |   Minimum:        0.916 MB (on task 48 after allocating wave)
  |   Maximum:        1.028 MB (on task 56 after allocating wave)
  |   Average:        0.944 MB
  | Largest tracked array allocation so far:
  |   Minimum:        0.161 MB (gradient_basis_wave_store on task  0)
  |   Maximum:        0.164 MB (gradient_basis_wave_store on task  1)
  |   Average:        0.163 MB
  Note:  These values currently only include a subset of arrays which are explicitly tracked.
  The "true" memory usage will be greater.
------------------------------------------------------------

  Energy and forces in a compact form:
  | Total energy uncorrected      :         -0.999390834295969E+04 eV
  | Total energy corrected        :         -0.999391536379007E+04 eV  <-- do not rely on this value for anything but (periodic) metals
  | Electronic free energy        :         -0.999392238462045E+04 eV

  ------------------------------------ 
  Start decomposition of the XC Energy 
  ------------------------------------ 
  X and C from original XC functional choice 
  Hartree-Fock Energy :          0.000000000 Ha              0.000000000 eV
  X Energy            :        -26.354744428 Ha           -717.149084020 eV
  C Energy            :         -0.694311860 Ha            -18.893186975 eV
  XC Energy w/o HF    :        -27.049056287 Ha           -736.042270995 eV
  Total XC Energy     :        -27.049056287 Ha           -736.042270995 eV
  ------------------------------------ 
  LDA X and C from self-consistent density 
  X Energy LDA        :        -24.109366268 Ha           -656.049235579 eV
  C Energy LDA        :         -1.443953601 Ha            -39.291976626 eV
  ------------------------------------ 
  End decomposition of the XC Energy 
  ------------------------------------ 

------------------------------------------------------------

------------------------------------------------------------------------------
  Final output of selected total energy values:

  The following output summarizes some interesting total energy values
  at the end of a run (AFTER all relaxation, molecular dynamics, etc.).

  | Total energy of the DFT / Hartree-Fock s.c.f. calculation      :          -9993.908342960 eV
  | Final zero-broadening corrected energy (caution - metals only) :          -9993.915363790 eV
  | For reference only, the value of 1 Hartree used in FHI-aims is :             27.211384500 eV

  Before relying on these values, please be sure to understand exactly which
  total energy value is referred to by a given number. Different objects may
  all carry the same name 'total energy'. Definitions:

  Total energy of the DFT / Hartree-Fock s.c.f. calculation:
  | Note that this energy does not include ANY quantities calculated after the
  | s.c.f. cycle, in particular not ANY RPA, MP2, etc. many-body perturbation terms.

  Final zero-broadening corrected energy:
  | For metallic systems only, a broadening of the occupation numbers at the Fermi
  | level can be extrapolated back to zero broadening by an electron-gas inspired
  | formula. For all systems that are not real metals, this value can be
  | meaningless and should be avoided.

------------------------------------------------------------------------------
  Methods described in the following list of references were used in this FHI-aims run.
  If you publish the results, please make sure to cite these reference if they apply.
  FHI-aims is an academic code, and for our developers (often, Ph.D. students
  and postdocs), scientific credit in the community is essential.
  Thank you for helping us!

  For any use of FHI-aims, please cite:

    Volker Blum, Ralf Gehrke, Felix Hanke, Paula Havu, Ville Havu,
    Xinguo Ren, Karsten Reuter, and Matthias Scheffler
    'Ab initio molecular simulations with numeric atom-centered orbitals'
    Computer Physics Communications 180, 2175-2196 (2009)
    http://doi.org/10.1016/j.cpc.2009.06.022


  The ELSI infrastructure was used in your run to solve the Kohn-Sham electronic structure.
  Please check out https://wordpress.elsi-interchange.org to learn more.
  If scalability is important for your project, please acknowledge ELSI by citing:

    V. W-z. Yu, F. Corsetti, A. Garcia, W. P. Huhn, M. Jacquelin, W. Jia,
    B. Lange, L. Lin, J. Lu, W. Mi, A. Seifitokaldani, A. Vazquez-Mayagoitia,
    C. Yang, H. Yang, and V. Blum
    'ELSI: A unified software interface for Kohn-Sham electronic structure solvers'
    Computer Physics Communications 222, 267-285 (2018).
    http://doi.org/10.1016/j.cpc.2017.09.007


  For the real-space grid partitioning and parallelization used in this calculation, please cite:

    Ville Havu, Volker Blum, Paula Havu, and Matthias Scheffler,
    'Efficient O(N) integration for all-electron electronic structure calculation'
    'using numerically tabulated basis functions'
    Journal of Computational Physics 228, 8367-8379 (2009).
    http://doi.org/10.1016/j.jcp.2009.08.008

  Of course, there are many other important community references, e.g., those cited in the
  above references. Our list is limited to references that describe implementations in the
  FHI-aims code. The reason is purely practical (length of this list) - please credit others as well.
------------------------------------------------------------
Warnings summary:

At least    2 warnings were raised during execution.
** WARNING:
 * A warning was issued further up regarding the speed of the s.c.f. convergence.
   One or more s.c.f. cycles took more than 50 s.c.f. iterations.
   It might be worth adjusting your convergence settings. For example,
   metals need a larger broadening and a smaller "charge_mix_param" value than semiconduct
ors.
** END OF WARNING

------------------------------------------------------------
          Leaving FHI-aims.
          Date     :  20260724, Time     :  152932.106

          Computational steps:
          | Number of self-consistency cycles          :           71
          | Number of SCF (re)initializations          :            1

          Detailed time accounting                     :  max(cpu_time)    wall_clock(cpu1)
          | Total time                                  :       18.246 s          21.403 s
          | Preparation time                            :        0.167 s           0.605 s
          | Boundary condition initalization            :        0.002 s           0.001 s
          | Grid partitioning                           :        0.014 s           0.014 s
          | Preloading free-atom quantities on grid     :        0.005 s           0.004 s
          | Free-atom superposition energy              :        0.001 s           0.001 s
          | Total time for integrations                 :        0.143 s           0.147 s
          | Total time for solution of K.-S. equations  :        0.339 s           0.368 s
          | Total time for density update               :        0.063 s           0.061 s
          | Total time for mixing                       :       18.531 s          12.621 s
          | Total time for Hartree multipole update     :        0.079 s           0.082 s
          | Total time for Hartree multipole sum        :        0.128 s           0.129 s
          | Total time for total energy evaluation      :        0.006 s           0.004 s
          | Total time for scaled ZORA corrections      :        0.000 s           0.000 s

          Partial memory accounting:
          | Residual value for overall tracked memory usage across tasks:     0.000000 MB (should be 0.000000 MB)
          | Peak values for overall tracked memory usage:
          |   Minimum:        0.916 MB (on task 48 after allocating wave)
          |   Maximum:        1.028 MB (on task 56 after allocating wave)
          |   Average:        0.944 MB
          | Largest tracked array allocation:
          |   Minimum:        0.161 MB (gradient_basis_wave_store on task  0)
          |   Maximum:        0.164 MB (gradient_basis_wave_store on task  1)
          |   Average:        0.163 MB
          Note:  These values currently only include a subset of arrays which are explicitly tracked.
          The "true" memory usage will be greater.

          Have a nice day.
------------------------------------------------------------
