8
Lattice="4.67414 0.0 0.0 0.0 4.67414 0.0 0.0 0.0 4.67414" Properties=species:S:1:pos:R:3:forces:R:3 energy=-2.885211814574173 free_energy=-2.885211814574173 stress="0.028721221996494677 -2.4704616118077167e-18 -2.515602978520371e-18 -2.4704616118077167e-18 0.02872122199615945 5.8748442970647405e-18 -2.515602978520371e-18 5.8748442970647405e-18 0.028721221995824064" pbc="T T T"
B        0.00000000       0.00000000       0.00000000       0.00000000      -0.00000000      -0.00000000
P        1.16853500       1.16853500       1.16853500       0.00000000       0.00000000      -0.00000000
B        0.00000000       2.33707000       2.33707000       0.00000000       0.00000000       0.00000000
P        1.16853500       3.50560500       3.50560500       0.00000000      -0.00000000       0.00000000
B        2.33707000       0.00000000       2.33707000      -0.00000000      -0.00000000       0.00000000
P        3.50560500       1.16853500       3.50560500      -0.00000000       0.00000000       0.00000000
B        2.33707000       2.33707000       0.00000000      -0.00000000       0.00000000      -0.00000000
P        3.50560500       3.50560500       1.16853500      -0.00000000      -0.00000000      -0.00000000
