8
Lattice="4.469930000000001 0.0 0.0 0.0 4.469930000000001 0.0 0.0 0.0 4.469930000000001" Properties=species:S:1:pos:R:3:forces:R:3 energy=-3.3091815663834994 free_energy=-3.3091815663834994 stress="0.037827279617831784 -2.400224059495699e-19 1.7033300950980928e-19 -2.400224059495699e-19 0.037827279613923265 -6.627883766895993e-18 1.7033300950980928e-19 -6.627883766895993e-18 0.037827279610014926" pbc="T T T"
B        0.00000000       0.00000000       0.00000000       0.00000000       0.00000000      -0.00000000
P        1.11748250       1.11748250       1.11748250       0.00000000      -0.00000000       0.00000000
B        0.00000000       2.23496500       2.23496500       0.00000000      -0.00000000       0.00000000
P        1.11748250       3.35244750       3.35244750      -0.00000000       0.00000000      -0.00000000
B        2.23496500       0.00000000       2.23496500      -0.00000000       0.00000000       0.00000000
P        3.35244750       1.11748250       3.35244750       0.00000000      -0.00000000      -0.00000000
B        2.23496500       2.23496500       0.00000000      -0.00000000      -0.00000000      -0.00000000
P        3.35244750       3.35244750       1.11748250      -0.00000000       0.00000000       0.00000000
