8
Lattice="3.567 0.0 0.0 0.0 3.567 0.0 0.0 0.0 3.567" Properties=species:S:1:pos:R:3:forces:R:3 energy=-2.0823802216412726 free_energy=-2.0823802216412726 stress="0.039533394838145754 2.9878232423779503e-18 1.660081820939511e-18 2.9878232423779503e-18 0.03953339483814644 7.742802366362787e-18 1.660081820939511e-18 7.742802366362787e-18 0.03953339483814686" pbc="T T T"
C        0.00000000       0.00000000       0.00000000       0.00000000       0.00000000      -0.00000000
C        0.89175000       0.89175000       0.89175000      -0.00000000      -0.00000000       0.00000000
C        0.00000000       1.78350000       1.78350000       0.00000000      -0.00000000       0.00000000
C        0.89175000       2.67525000       2.67525000       0.00000000       0.00000000      -0.00000000
C        1.78350000       0.00000000       1.78350000      -0.00000000       0.00000000       0.00000000
C        2.67525000       0.89175000       2.67525000       0.00000000      -0.00000000      -0.00000000
C        1.78350000       1.78350000       0.00000000      -0.00000000      -0.00000000      -0.00000000
C        2.67525000       2.67525000       0.89175000       0.00000000       0.00000000       0.00000000
