8
Lattice="4.190449999999999 0.0 0.0 0.0 4.190449999999999 0.0 0.0 0.0 4.190449999999999" Properties=species:S:1:pos:R:3:forces:R:3 energy=-0.5313415279161992 free_energy=-0.5313415279161992 stress="0.007749161378000484 3.5526311963200433e-20 -1.6382215557996937e-20 3.5526311963200433e-20 0.007749161378000375 3.343886532329567e-20 -1.6382215557996937e-20 3.343886532329567e-20 0.007749161378000372" pbc="T T T"
Li       0.00000000       0.00000000       0.00000000       0.00000000       0.00000000       0.00000000
F        2.09522500       0.00000000       0.00000000      -0.00000000       0.00000000       0.00000000
Li       0.00000000       2.09522500       2.09522500       0.00000000      -0.00000000      -0.00000000
F        2.09522500       2.09522500       2.09522500      -0.00000000      -0.00000000       0.00000000
Li       2.09522500       0.00000000       2.09522500      -0.00000000       0.00000000      -0.00000000
F        0.00000000       0.00000000       2.09522500       0.00000000       0.00000000      -0.00000000
Li       2.09522500       2.09522500       0.00000000      -0.00000000      -0.00000000       0.00000000
F        0.00000000       2.09522500       0.00000000       0.00000000      -0.00000000       0.00000000
