8
Lattice="4.270105 0.0 0.0 0.0 4.270105 0.0 0.0 0.0 4.270105" Properties=species:S:1:pos:R:3:forces:R:3 energy=-1.444479500033819 free_energy=-1.444479500033819 stress="0.021171832553461913 1.577247364978505e-20 -3.236951607911396e-20 1.577247364978505e-20 0.021171832553461944 9.164543928235594e-21 -3.236951607911396e-20 9.164543928235594e-21 0.02117183255346177" pbc="T T T"
Mg       0.00000000       0.00000000       0.00000000      -0.00000000       0.00000000      -0.00000000
O        2.13505250       0.00000000       0.00000000      -0.00000000       0.00000000       0.00000000
Mg       0.00000000       2.13505250       2.13505250      -0.00000000      -0.00000000      -0.00000000
O        2.13505250       2.13505250       2.13505250       0.00000000      -0.00000000       0.00000000
Mg       2.13505250       0.00000000       2.13505250       0.00000000      -0.00000000       0.00000000
O        0.00000000       0.00000000       2.13505250      -0.00000000       0.00000000       0.00000000
Mg       2.13505250       2.13505250       0.00000000       0.00000000       0.00000000      -0.00000000
O        0.00000000       2.13505250       0.00000000      -0.00000000      -0.00000000       0.00000000
