8
Lattice="4.33321 0.0 0.0 0.0 4.33321 0.0 0.0 0.0 4.33321" Properties=species:S:1:pos:R:3:forces:R:3 energy=-1.3741199385755851 free_energy=-1.3741199385755851 stress="0.019031830930632595 8.435098158802269e-20 3.782619537004365e-20 8.435098158802269e-20 0.019031830930632626 2.2227698840145673e-20 3.782619537004365e-20 2.2227698840145673e-20 0.019031830930632834" pbc="T T T"
Mg       0.00000000       0.00000000       0.00000000       0.00000000       0.00000000       0.00000000
O        2.16660500       0.00000000       0.00000000      -0.00000000       0.00000000       0.00000000
Mg       0.00000000       2.16660500       2.16660500       0.00000000      -0.00000000      -0.00000000
O        2.16660500       2.16660500       2.16660500      -0.00000000      -0.00000000      -0.00000000
Mg       2.16660500       0.00000000       2.16660500      -0.00000000       0.00000000      -0.00000000
O        0.00000000       0.00000000       2.16660500       0.00000000       0.00000000      -0.00000000
Mg       2.16660500       2.16660500       0.00000000      -0.00000000      -0.00000000       0.00000000
O        0.00000000       2.16660500       0.00000000       0.00000000      -0.00000000       0.00000000
