8
Lattice="4.88988 0.0 0.0 0.0 4.88988 0.0 0.0 0.0 4.88988" Properties=species:S:1:pos:R:3:forces:R:3 energy=-2.4194403578736834 free_energy=-2.4194403578736834 stress="0.02150968719610227 -8.037378392703641e-20 3.268921776749894e-20 -8.037378392703641e-20 0.021509687196102606 -6.490041564724912e-20 3.268921776749894e-20 -6.490041564724912e-20 0.021509687196102748" pbc="T T T"
Mg       0.00000000       0.00000000       0.00000000       0.00000000       0.00000000       0.00000000
S        2.44494000       0.00000000       0.00000000       0.00000000       0.00000000      -0.00000000
Mg       0.00000000       2.44494000       2.44494000       0.00000000      -0.00000000      -0.00000000
S        2.44494000       2.44494000       2.44494000       0.00000000      -0.00000000      -0.00000000
Mg       2.44494000       0.00000000       2.44494000      -0.00000000       0.00000000       0.00000000
S        0.00000000       0.00000000       2.44494000      -0.00000000       0.00000000       0.00000000
Mg       2.44494000       2.44494000       0.00000000      -0.00000000       0.00000000      -0.00000000
S        0.00000000       2.44494000       0.00000000      -0.00000000       0.00000000       0.00000000
