8
Lattice="5.846774999999999 0.0 0.0 0.0 5.846774999999999 0.0 0.0 0.0 5.846774999999999" Properties=species:S:1:pos:R:3:forces:R:3 energy=-0.7145298332500543 free_energy=-0.7145298332500543 stress="0.00429692193277108 1.5380420651630305e-20 -8.537573925403642e-22 1.5380420651630305e-20 0.00429692193278114 1.308578661046466e-20 -8.537573925403642e-22 1.308578661046466e-20 0.004296921932791126" pbc="T T T"
Na       0.00000000       0.00000000       0.00000000       0.00000000      -0.00000000       0.00000000
Cl       2.92338750       0.00000000       0.00000000       0.00000000       0.00000000      -0.00000000
Na       0.00000000       2.92338750       2.92338750      -0.00000000      -0.00000000      -0.00000000
Cl       2.92338750       2.92338750       2.92338750       0.00000000      -0.00000000       0.00000000
Na       2.92338750       0.00000000       2.92338750      -0.00000000      -0.00000000       0.00000000
Cl       0.00000000       0.00000000       2.92338750      -0.00000000       0.00000000       0.00000000
Na       2.92338750       2.92338750       0.00000000       0.00000000       0.00000000       0.00000000
Cl       0.00000000       2.92338750       0.00000000      -0.00000000      -0.00000000       0.00000000
