8
Lattice="4.539865 0.0 0.0 0.0 4.539865 0.0 0.0 0.0 4.539865" Properties=species:S:1:pos:R:3:forces:R:3 energy=-0.49718343043680524 free_energy=-0.49718343043680524 stress="0.006061332582150775 -1.5833616795284618e-20 -5.572422978641598e-21 -1.5833616795284618e-20 0.00606133258215081 -3.015392102176213e-21 -5.572422978641598e-21 -3.015392102176213e-21 0.006061332582150807" pbc="T T T"
Na       0.00000000       0.00000000       0.00000000       0.00000000      -0.00000000       0.00000000
F        2.26993250       0.00000000       0.00000000      -0.00000000      -0.00000000       0.00000000
Na       0.00000000       2.26993250       2.26993250       0.00000000       0.00000000       0.00000000
F        2.26993250       2.26993250       2.26993250      -0.00000000       0.00000000       0.00000000
Na       2.26993250       0.00000000       2.26993250      -0.00000000      -0.00000000       0.00000000
F        0.00000000       0.00000000       2.26993250       0.00000000       0.00000000      -0.00000000
Na       2.26993250       2.26993250       0.00000000      -0.00000000       0.00000000      -0.00000000
F        0.00000000       2.26993250       0.00000000       0.00000000       0.00000000      -0.00000000
