8
Lattice="4.4015949999999995 0.0 0.0 0.0 4.4015949999999995 0.0 0.0 0.0 4.4015949999999995" Properties=species:S:1:pos:R:3:forces:R:3 energy=-0.5528723300096694 free_energy=-0.5528723300096694 stress="0.007421906971342761 -2.2462112002521388e-20 -4.186408032504764e-21 -2.2462112002521388e-20 0.007421906971342799 4.3579130958656013e-20 -4.186408032504764e-21 4.3579130958656013e-20 0.007421906971342798" pbc="T T T"
Na       0.00000000       0.00000000       0.00000000      -0.00000000       0.00000000       0.00000000
F        2.20079750       0.00000000       0.00000000       0.00000000       0.00000000       0.00000000
Na       0.00000000       2.20079750       2.20079750      -0.00000000      -0.00000000      -0.00000000
F        2.20079750       2.20079750       2.20079750       0.00000000      -0.00000000      -0.00000000
Na       2.20079750       0.00000000       2.20079750       0.00000000       0.00000000      -0.00000000
F        0.00000000       0.00000000       2.20079750      -0.00000000       0.00000000      -0.00000000
Na       2.20079750       2.20079750       0.00000000       0.00000000      -0.00000000       0.00000000
F        0.00000000       2.20079750       0.00000000      -0.00000000      -0.00000000       0.00000000
