8
Lattice="5.43 0.0 0.0 0.0 5.43 0.0 0.0 0.0 5.43" Properties=species:S:1:pos:R:3:forces:R:3 energy=-2.7498770621670268 free_energy=-2.7498770621670268 stress="0.01759071811023001 9.028474503396332e-19 8.5908264107537375e-19 9.028474503396332e-19 0.017590718110229824 -3.3400358464009653e-18 8.5908264107537375e-19 -3.3400358464009653e-18 0.017590718110229837" pbc="T T T"
Si       0.00000000       0.00000000       0.00000000       0.00000000       0.00000000      -0.00000000
Si       1.35750000       1.35750000       1.35750000      -0.00000000      -0.00000000       0.00000000
Si       0.00000000       2.71500000       2.71500000       0.00000000      -0.00000000       0.00000000
Si       1.35750000       4.07250000       4.07250000      -0.00000000       0.00000000       0.00000000
Si       2.71500000       0.00000000       2.71500000      -0.00000000       0.00000000       0.00000000
Si       4.07250000       1.35750000       4.07250000       0.00000000      -0.00000000       0.00000000
Si       2.71500000       2.71500000       0.00000000      -0.00000000      -0.00000000      -0.00000000
Si       4.07250000       4.07250000       1.35750000       0.00000000       0.00000000      -0.00000000
