8
Lattice="5.67435 0.0 0.0 0.0 5.67435 0.0 0.0 0.0 5.67435" Properties=species:S:1:pos:R:3:forces:R:3 energy=-2.4448433074138385 free_energy=-2.4448433074138385 stress="0.006334905601984609 2.937159799258371e-18 2.9976100592939594e-18 2.937159799258371e-18 0.006334905601984566 4.229622968998051e-18 2.9976100592939594e-18 4.229622968998051e-18 0.006334905601984587" pbc="T T T"
Si       0.00000000       0.00000000       0.00000000       0.00000000       0.00000000      -0.00000000
Si       1.41858750       1.41858750       1.41858750       0.00000000       0.00000000      -0.00000000
Si       0.00000000       2.83717500       2.83717500       0.00000000      -0.00000000       0.00000000
Si       1.41858750       4.25576250       4.25576250       0.00000000      -0.00000000       0.00000000
Si       2.83717500       0.00000000       2.83717500      -0.00000000       0.00000000       0.00000000
Si       4.25576250       1.41858750       4.25576250      -0.00000000       0.00000000       0.00000000
Si       2.83717500       2.83717500       0.00000000      -0.00000000      -0.00000000      -0.00000000
Si       4.25576250       4.25576250       1.41858750      -0.00000000      -0.00000000      -0.00000000
