8
Lattice="4.227259999999999 0.0 0.0 0.0 4.227259999999999 0.0 0.0 0.0 4.227259999999999" Properties=species:S:1:pos:R:3:forces:R:3 energy=-3.13477076550251 free_energy=-3.13477076550251 stress="0.035104864347836384 -1.7100481341716354e-18 3.2554219304027927e-19 -1.7100481341716354e-18 0.03510486434783623 6.293078840607198e-18 3.2554219304027927e-19 6.293078840607198e-18 0.035104864347836384" pbc="T T T"
Si       0.00000000       0.00000000       0.00000000       0.00000000       0.00000000      -0.00000000
C        1.05681500       1.05681500       1.05681500      -0.00000000      -0.00000000       0.00000000
Si       0.00000000       2.11363000       2.11363000       0.00000000      -0.00000000       0.00000000
C        1.05681500       3.17044500       3.17044500      -0.00000000       0.00000000      -0.00000000
Si       2.11363000       0.00000000       2.11363000      -0.00000000       0.00000000       0.00000000
C        3.17044500       1.05681500       3.17044500       0.00000000      -0.00000000      -0.00000000
Si       2.11363000       2.11363000       0.00000000      -0.00000000      -0.00000000      -0.00000000
C        3.17044500       3.17044500       1.05681500       0.00000000       0.00000000       0.00000000
