8
Lattice="3.49879 0.0 0.0 0.0 3.49879 0.0 0.0 0.0 3.49879" Properties=species:S:1:pos:R:3:forces:R:3 energy=-2.5012140353415253 free_energy=-2.5012140353415253 stress="0.03779855274953607 3.447751544634334e-19 1.1362207158491584e-20 3.447751544634334e-19 0.03779855186657437 9.255572537592643e-15 1.1362207158491584e-20 9.255572537592643e-15 0.037798550983604504" pbc="T T T"
B        0.00000000       0.00000000       0.00000000      -0.00000000      -0.00000000      -0.00000000
N        0.87469750       0.87469750       0.87469750       0.00000000       0.00000000      -0.00000000
B        0.00000000       1.74939500       1.74939500      -0.00000000       0.00000000       0.00000000
N        0.87469750       2.62409250       2.62409250       0.00000000      -0.00000000       0.00000000
B        1.74939500       0.00000000       1.74939500       0.00000000      -0.00000000       0.00000000
N        2.62409250       0.87469750       2.62409250      -0.00000000       0.00000000       0.00000000
B        1.74939500       1.74939500       0.00000000       0.00000000       0.00000000      -0.00000000
N        2.62409250       2.62409250       0.87469750      -0.00000000      -0.00000000      -0.00000000
