8
Lattice="3.607 0.0 0.0 0.0 3.607 0.0 0.0 0.0 3.607" Properties=species:S:1:pos:R:3:forces:R:3 energy=-2.3254198452894816 free_energy=-2.3254198452894816 stress="0.04241584108771028 -4.2754498016519416e-18 -3.4444290505038547e-18 -4.2754498016519416e-18 0.04241584074833155 1.8292789373213575e-15 -3.4444290505038547e-18 1.8292789373213575e-15 0.042415840408950335" pbc="T T T"
B        0.00000000       0.00000000       0.00000000      -0.00000000       0.00000000      -0.00000000
N        0.90175000       0.90175000       0.90175000      -0.00000000       0.00000000       0.00000000
B        0.00000000       1.80350000       1.80350000      -0.00000000      -0.00000000      -0.00000000
N        0.90175000       2.70525000       2.70525000       0.00000000      -0.00000000      -0.00000000
B        1.80350000       0.00000000       1.80350000       0.00000000      -0.00000000      -0.00000000
N        2.70525000       0.90175000       2.70525000       0.00000000       0.00000000      -0.00000000
B        1.80350000       1.80350000       0.00000000       0.00000000       0.00000000       0.00000000
N        2.70525000       2.70525000       0.90175000       0.00000000      -0.00000000       0.00000000
