8
Lattice="3.6205050000000005 0.0 0.0 0.0 3.6205050000000005 0.0 0.0 0.0 3.6205050000000005" Properties=species:S:1:pos:R:3:forces:R:3 energy=-2.0034486340903968 free_energy=-2.0034486340903968 stress="0.03664769598741064 -3.5375882374263964e-18 1.9238298453929048e-19 -3.5375882374263964e-18 0.03664769598741106 -1.8998941419011964e-18 1.9238298453929048e-19 -1.8998941419011964e-18 0.03664769598741084" pbc="T T T"
C        0.00000000       0.00000000       0.00000000       0.00000000      -0.00000000       0.00000000
C        0.90512625       0.90512625       0.90512625      -0.00000000      -0.00000000       0.00000000
C        0.00000000       1.81025250       1.81025250       0.00000000       0.00000000      -0.00000000
C        0.90512625       2.71537875       2.71537875      -0.00000000      -0.00000000      -0.00000000
C        1.81025250       0.00000000       1.81025250      -0.00000000       0.00000000      -0.00000000
C        2.71537875       0.90512625       2.71537875       0.00000000       0.00000000      -0.00000000
C        1.81025250       1.81025250       0.00000000      -0.00000000      -0.00000000      -0.00000000
C        2.71537875       2.71537875       0.90512625      -0.00000000      -0.00000000       0.00000000
