8
Lattice="3.406485 0.0 0.0 0.0 3.406485 0.0 0.0 0.0 3.406485" Properties=species:S:1:pos:R:3:forces:R:3 energy=-2.342772399611718 free_energy=-2.342772399611718 stress="0.05012838879981548 -1.7830151818671055e-18 -2.876632990123775e-18 -1.7830151818671055e-18 0.050128388799816216 -3.584573861623878e-18 -2.876632990123775e-18 -3.584573861623878e-18 0.05012838879981619" pbc="T T T"
C        0.00000000       0.00000000       0.00000000       0.00000000       0.00000000       0.00000000
C        0.85162125       0.85162125       0.85162125       0.00000000       0.00000000       0.00000000
C        0.00000000       1.70324250       1.70324250       0.00000000       0.00000000       0.00000000
C        0.85162125       2.55486375       2.55486375      -0.00000000      -0.00000000       0.00000000
C        1.70324250       0.00000000       1.70324250      -0.00000000       0.00000000       0.00000000
C        2.55486375       0.85162125       2.55486375       0.00000000       0.00000000      -0.00000000
C        1.70324250       1.70324250       0.00000000       0.00000000       0.00000000      -0.00000000
C        2.55486375       2.55486375       0.85162125       0.00000000      -0.00000000      -0.00000000
