8
Lattice="3.5134950000000003 0.0 0.0 0.0 3.5134950000000003 0.0 0.0 0.0 3.5134950000000003" Properties=species:S:1:pos:R:3:forces:R:3 energy=-2.165054609425295 free_energy=-2.165054609425295 stress="0.04270020514087367 1.0603349916536254e-18 -4.504749860265862e-19 1.0603349916536254e-18 0.04270020514087795 3.829001486461226e-18 -4.504749860265862e-19 3.829001486461226e-18 0.04270020514087777" pbc="T T T"
C        0.00000000       0.00000000       0.00000000       0.00000000       0.00000000       0.00000000
C        0.87837375       0.87837375       0.87837375      -0.00000000       0.00000000      -0.00000000
C        0.00000000       1.75674750       1.75674750       0.00000000      -0.00000000      -0.00000000
C        0.87837375       2.63512125       2.63512125       0.00000000      -0.00000000       0.00000000
C        1.75674750       0.00000000       1.75674750       0.00000000       0.00000000      -0.00000000
C        2.63512125       0.87837375       2.63512125      -0.00000000       0.00000000       0.00000000
C        1.75674750       1.75674750       0.00000000      -0.00000000      -0.00000000      -0.00000000
C        2.63512125       2.63512125       0.87837375       0.00000000       0.00000000      -0.00000000
