8
Lattice="4.95282 0.0 0.0 0.0 4.95282 0.0 0.0 0.0 4.95282" Properties=species:S:1:pos:R:3:forces:R:3 energy=-1.1994878563164972 free_energy=-1.1994878563164972 stress="0.010793254799445758 -7.548366400382268e-20 -3.386124172681321e-20 -7.548366400382268e-20 0.010793254799446279 7.990028183968787e-20 -3.386124172681321e-20 7.990028183968787e-20 0.010793254799446317" pbc="T T T"
Li       0.00000000       0.00000000       0.00000000      -0.00000000       0.00000000      -0.00000000
Cl       2.47641000       0.00000000       0.00000000      -0.00000000       0.00000000       0.00000000
Li       0.00000000       2.47641000       2.47641000       0.00000000       0.00000000       0.00000000
Cl       2.47641000       2.47641000       2.47641000      -0.00000000       0.00000000       0.00000000
Li       2.47641000       0.00000000       2.47641000      -0.00000000      -0.00000000      -0.00000000
Cl       0.00000000       0.00000000       2.47641000       0.00000000       0.00000000      -0.00000000
Li       2.47641000       2.47641000       0.00000000       0.00000000      -0.00000000       0.00000000
Cl       0.00000000       2.47641000       0.00000000       0.00000000      -0.00000000       0.00000000
