8
Lattice="5.4123600000000005 0.0 0.0 0.0 5.4123600000000005 0.0 0.0 0.0 5.4123600000000005" Properties=species:S:1:pos:R:3:forces:R:3 energy=-0.8840485590059401 free_energy=-0.8840485590059401 stress="0.006671593765334802 3.0800532995675515e-20 1.7693342738561568e-20 3.0800532995675515e-20 0.006671593765334856 -1.8231336007939203e-20 1.7693342738561568e-20 -1.8231336007939203e-20 0.0066715937653348606" pbc="T T T"
Li       0.00000000       0.00000000       0.00000000       0.00000000       0.00000000       0.00000000
Cl       2.70618000       0.00000000       0.00000000       0.00000000       0.00000000       0.00000000
Li       0.00000000       2.70618000       2.70618000       0.00000000       0.00000000      -0.00000000
Cl       2.70618000       2.70618000       2.70618000       0.00000000      -0.00000000      -0.00000000
Li       2.70618000       0.00000000       2.70618000       0.00000000      -0.00000000      -0.00000000
Cl       0.00000000       0.00000000       2.70618000      -0.00000000       0.00000000      -0.00000000
Li       2.70618000       2.70618000       0.00000000       0.00000000       0.00000000      -0.00000000
Cl       0.00000000       2.70618000       0.00000000      -0.00000000      -0.00000000       0.00000000
