8
Lattice="4.87623 0.0 0.0 0.0 4.87623 0.0 0.0 0.0 4.87623" Properties=species:S:1:pos:R:3:forces:R:3 energy=-1.2619081483281926 free_energy=-1.2619081483281926 stress="0.01172133807592051 1.0086607481306965e-19 1.4485822648519863e-20 1.0086607481306965e-19 0.011721338075920703 -3.550903095040168e-20 1.4485822648519863e-20 -3.550903095040168e-20 0.011721338075920712" pbc="T T T"
Li       0.00000000       0.00000000       0.00000000      -0.00000000       0.00000000       0.00000000
Cl       2.43811500       0.00000000       0.00000000       0.00000000       0.00000000       0.00000000
Li       0.00000000       2.43811500       2.43811500      -0.00000000      -0.00000000      -0.00000000
Cl       2.43811500       2.43811500       2.43811500      -0.00000000      -0.00000000      -0.00000000
Li       2.43811500       0.00000000       2.43811500       0.00000000       0.00000000      -0.00000000
Cl       0.00000000       0.00000000       2.43811500       0.00000000       0.00000000       0.00000000
Li       2.43811500       2.43811500       0.00000000       0.00000000       0.00000000       0.00000000
Cl       0.00000000       2.43811500       0.00000000       0.00000000      -0.00000000       0.00000000
