8
Lattice="4.799639999999999 0.0 0.0 0.0 4.799639999999999 0.0 0.0 0.0 4.799639999999999" Properties=species:S:1:pos:R:3:forces:R:3 energy=-1.3276829249555528 free_energy=-1.3276829249555528 stress="0.012743198863388299 -8.584152956503754e-20 -1.726119853631914e-19 -8.584152956503754e-20 0.012743198863388702 -9.996770035856258e-20 -1.726119853631914e-19 -9.996770035856258e-20 0.012743198863388719" pbc="T T T"
Li       0.00000000       0.00000000       0.00000000      -0.00000000      -0.00000000      -0.00000000
Cl       2.39982000       0.00000000       0.00000000       0.00000000       0.00000000       0.00000000
Li       0.00000000       2.39982000       2.39982000      -0.00000000       0.00000000       0.00000000
Cl       2.39982000       2.39982000       2.39982000       0.00000000      -0.00000000       0.00000000
Li       2.39982000       0.00000000       2.39982000       0.00000000      -0.00000000       0.00000000
Cl       0.00000000       0.00000000       2.39982000      -0.00000000       0.00000000      -0.00000000
Li       2.39982000       2.39982000       0.00000000       0.00000000       0.00000000      -0.00000000
Cl       0.00000000       2.39982000       0.00000000      -0.00000000      -0.00000000      -0.00000000
