8
Lattice="3.9545799999999995 0.0 0.0 0.0 3.9545799999999995 0.0 0.0 0.0 3.9545799999999995" Properties=species:S:1:pos:R:3:forces:R:3 energy=-1.8927172197608844 free_energy=-1.8927172197608844 stress="0.0368446693167409 -2.0864869745506183e-19 -1.327829455383067e-19 -2.0864869745506183e-19 0.036844669316740436 -1.785833461798082e-19 -1.327829455383067e-19 -1.785833461798082e-19 0.03684466931674045" pbc="T T T"
Mg       0.00000000       0.00000000       0.00000000       0.00000000       0.00000000      -0.00000000
O        1.97729000       0.00000000       0.00000000       0.00000000      -0.00000000      -0.00000000
Mg       0.00000000       1.97729000       1.97729000      -0.00000000      -0.00000000       0.00000000
O        1.97729000       1.97729000       1.97729000       0.00000000       0.00000000      -0.00000000
Mg       1.97729000       0.00000000       1.97729000       0.00000000      -0.00000000      -0.00000000
O        0.00000000       0.00000000       1.97729000      -0.00000000      -0.00000000       0.00000000
Mg       1.97729000       1.97729000       0.00000000       0.00000000       0.00000000       0.00000000
O        0.00000000       1.97729000       0.00000000      -0.00000000       0.00000000       0.00000000
