8
Lattice="5.35806 0.0 0.0 0.0 5.35806 0.0 0.0 0.0 5.35806" Properties=species:S:1:pos:R:3:forces:R:3 energy=-2.260139593807292 free_energy=-2.260139593807292 stress="0.015032468237993944 -1.0731081481228218e-19 -3.4574416358949364e-20 -1.0731081481228218e-19 0.015032468237994184 7.299566132184524e-20 -3.4574416358949364e-20 7.299566132184524e-20 0.015032468237994192" pbc="T T T"
Mg       0.00000000       0.00000000       0.00000000      -0.00000000      -0.00000000      -0.00000000
S        2.67903000       0.00000000       0.00000000      -0.00000000       0.00000000       0.00000000
Mg       0.00000000       2.67903000       2.67903000      -0.00000000       0.00000000       0.00000000
S        2.67903000       2.67903000       2.67903000      -0.00000000      -0.00000000      -0.00000000
Mg       2.67903000       0.00000000       2.67903000       0.00000000      -0.00000000       0.00000000
S        0.00000000       0.00000000       2.67903000       0.00000000       0.00000000      -0.00000000
Mg       2.67903000       2.67903000       0.00000000       0.00000000       0.00000000      -0.00000000
S        0.00000000       2.67903000       0.00000000       0.00000000      -0.00000000       0.00000000
