8
Lattice="5.12397 0.0 0.0 0.0 5.12397 0.0 0.0 0.0 5.12397" Properties=species:S:1:pos:R:3:forces:R:3 energy=-2.5894815389988457 free_energy=-2.5894815389988457 stress="0.019409079583560435 3.5855646576296353e-19 1.660908713423634e-19 3.5855646576296353e-19 0.01940907958356033 1.6606950216072684e-19 1.660908713423634e-19 1.6606950216072684e-19 0.019409079583560335" pbc="T T T"
Mg       0.00000000       0.00000000       0.00000000       0.00000000       0.00000000       0.00000000
S        2.56198500       0.00000000       0.00000000      -0.00000000       0.00000000       0.00000000
Mg       0.00000000       2.56198500       2.56198500       0.00000000      -0.00000000      -0.00000000
S        2.56198500       2.56198500       2.56198500      -0.00000000      -0.00000000      -0.00000000
Mg       2.56198500       0.00000000       2.56198500      -0.00000000       0.00000000      -0.00000000
S        0.00000000       0.00000000       2.56198500       0.00000000      -0.00000000      -0.00000000
Mg       2.56198500       2.56198500       0.00000000      -0.00000000      -0.00000000       0.00000000
S        0.00000000       2.56198500       0.00000000       0.00000000      -0.00000000       0.00000000
