8
Lattice="5.427149999999999 0.0 0.0 0.0 5.427149999999999 0.0 0.0 0.0 5.427149999999999" Properties=species:S:1:pos:R:3:forces:R:3 energy=-0.9372862805281941 free_energy=-0.9372862805281941 stress="0.0071658438057981035 2.0152752399255122e-20 -1.5540229443886258e-20 2.0152752399255122e-20 0.007165843805798078 -1.6628600295749907e-20 -1.5540229443886258e-20 -1.6628600295749907e-20 0.007165843805798067" pbc="T T T"
Na       0.00000000       0.00000000       0.00000000       0.00000000       0.00000000       0.00000000
Cl       2.71357500       0.00000000       0.00000000      -0.00000000       0.00000000       0.00000000
Na       0.00000000       2.71357500       2.71357500       0.00000000      -0.00000000       0.00000000
Cl       2.71357500       2.71357500       2.71357500      -0.00000000      -0.00000000      -0.00000000
Na       2.71357500       0.00000000       2.71357500      -0.00000000       0.00000000      -0.00000000
Cl       0.00000000       0.00000000       2.71357500       0.00000000       0.00000000       0.00000000
Na       2.71357500       2.71357500       0.00000000      -0.00000000      -0.00000000       0.00000000
Cl       0.00000000       2.71357500       0.00000000       0.00000000      -0.00000000       0.00000000
