8
Lattice="4.816405 0.0 0.0 0.0 4.816405 0.0 0.0 0.0 4.816405" Properties=species:S:1:pos:R:3:forces:R:3 energy=-0.4071599411557135 free_energy=-0.4071599411557135 stress="0.004015763462899206 -2.3874181049024078e-20 -2.1084052040001337e-20 -2.3874181049024078e-20 0.004015763462899251 -1.1174800857498992e-20 -2.1084052040001337e-20 -1.1174800857498992e-20 0.004015763462899285" pbc="T T T"
Na       0.00000000       0.00000000       0.00000000      -0.00000000      -0.00000000      -0.00000000
F        2.40820250       0.00000000       0.00000000      -0.00000000      -0.00000000      -0.00000000
Na       0.00000000       2.40820250       2.40820250      -0.00000000       0.00000000       0.00000000
F        2.40820250       2.40820250       2.40820250      -0.00000000       0.00000000       0.00000000
Na       2.40820250       0.00000000       2.40820250      -0.00000000      -0.00000000       0.00000000
F        0.00000000       0.00000000       2.40820250       0.00000000      -0.00000000       0.00000000
Na       2.40820250       2.40820250       0.00000000      -0.00000000       0.00000000      -0.00000000
F        0.00000000       2.40820250       0.00000000       0.00000000       0.00000000      -0.00000000
