8
Lattice="5.3485499999999995 0.0 0.0 0.0 5.3485499999999995 0.0 0.0 0.0 5.3485499999999995" Properties=species:S:1:pos:R:3:forces:R:3 energy=-2.880960335753971 free_energy=-2.880960335753971 stress="0.01931713557966121 -2.0396823152523483e-18 6.989685209025603e-19 -2.0396823152523483e-18 0.019317135579661297 -1.3287030843795814e-19 6.989685209025603e-19 -1.3287030843795814e-19 0.019317135579661037" pbc="T T T"
Si       0.00000000       0.00000000       0.00000000      -0.00000000      -0.00000000       0.00000000
Si       1.33713750       1.33713750       1.33713750       0.00000000       0.00000000      -0.00000000
Si       0.00000000       2.67427500       2.67427500      -0.00000000       0.00000000      -0.00000000
Si       1.33713750       4.01141250       4.01141250       0.00000000      -0.00000000       0.00000000
Si       2.67427500       0.00000000       2.67427500       0.00000000      -0.00000000      -0.00000000
Si       4.01141250       1.33713750       4.01141250      -0.00000000       0.00000000       0.00000000
Si       2.67427500       2.67427500       0.00000000       0.00000000       0.00000000       0.00000000
Si       4.01141250       4.01141250       1.33713750      -0.00000000      -0.00000000      -0.00000000
