8
Lattice="5.7558 0.0 0.0 0.0 5.7558 0.0 0.0 0.0 5.7558" Properties=species:S:1:pos:R:3:forces:R:3 energy=-2.4441684469552865 free_energy=-2.4441684469552865 stress="-0.007846972324577617 3.064706270703586e-18 1.98239801216247e-18 3.064706270703586e-18 -0.007846972324577692 9.27649088326164e-19 1.98239801216247e-18 9.27649088326164e-19 -0.007846972324577697" pbc="T T T"
Si       0.00000000       0.00000000       0.00000000       0.00000000       0.00000000       0.00000000
Si       1.43895000       1.43895000       1.43895000      -0.00000000       0.00000000       0.00000000
Si       0.00000000       2.87790000       2.87790000       0.00000000      -0.00000000       0.00000000
Si       1.43895000       4.31685000       4.31685000      -0.00000000      -0.00000000      -0.00000000
Si       2.87790000       0.00000000       2.87790000      -0.00000000       0.00000000       0.00000000
Si       4.31685000       1.43895000       4.31685000       0.00000000       0.00000000      -0.00000000
Si       2.87790000       2.87790000       0.00000000      -0.00000000      -0.00000000       0.00000000
Si       4.31685000       4.31685000       1.43895000       0.00000000      -0.00000000       0.00000000
