8
Lattice="4.61948 0.0 0.0 0.0 4.61948 0.0 0.0 0.0 4.61948" Properties=species:S:1:pos:R:3:forces:R:3 energy=-2.5358331655356836 free_energy=-2.5358331655356836 stress="0.01638712044915454 -1.3835710491424279e-18 4.456868161988304e-20 -1.3835710491424279e-18 0.016387120449155097 -8.636501129679567e-18 4.456868161988304e-20 -8.636501129679567e-18 0.016387120449155527" pbc="T T T"
Si       0.00000000       0.00000000       0.00000000      -0.00000000       0.00000000       0.00000000
C        1.15487000       1.15487000       1.15487000       0.00000000       0.00000000      -0.00000000
Si       0.00000000       2.30974000       2.30974000      -0.00000000      -0.00000000      -0.00000000
C        1.15487000       3.46461000       3.46461000       0.00000000      -0.00000000       0.00000000
Si       2.30974000       0.00000000       2.30974000       0.00000000       0.00000000      -0.00000000
C        3.46461000       1.15487000       3.46461000      -0.00000000       0.00000000       0.00000000
Si       2.30974000       2.30974000       0.00000000       0.00000000      -0.00000000       0.00000000
C        3.46461000       3.46461000       1.15487000      -0.00000000      -0.00000000      -0.00000000
