8
Lattice="4.42337 0.0 0.0 0.0 4.42337 0.0 0.0 0.0 4.42337" Properties=species:S:1:pos:R:3:forces:R:3 energy=-2.797186169890096 free_energy=-2.797186169890096 stress="0.02645209510262697 6.6537170866524705e-18 7.696864685061241e-18 6.6537170866524705e-18 0.026452095102626524 -1.4190040371530838e-18 7.696864685061241e-18 -1.4190040371530838e-18 0.0264520951026265" pbc="T T T"
Si       0.00000000       0.00000000       0.00000000      -0.00000000       0.00000000      -0.00000000
C        1.10584250       1.10584250       1.10584250       0.00000000      -0.00000000      -0.00000000
Si       0.00000000       2.21168500       2.21168500      -0.00000000      -0.00000000       0.00000000
C        1.10584250       3.31752750       3.31752750      -0.00000000      -0.00000000      -0.00000000
Si       2.21168500       0.00000000       2.21168500       0.00000000       0.00000000       0.00000000
C        3.31752750       1.10584250       3.31752750      -0.00000000      -0.00000000      -0.00000000
Si       2.21168500       2.21168500       0.00000000       0.00000000      -0.00000000      -0.00000000
C        3.31752750       3.31752750       1.10584250      -0.00000000      -0.00000000      -0.00000000
