8
Lattice="4.469930000000001 0.0 0.0 0.0 4.469930000000001 0.0 0.0 0.0 4.469930000000001" Properties=species:S:1:pos:R:3:forces:R:3 energy=-2.9582614912897447 free_energy=-2.9582614912897447 stress="0.03292095136390892 -5.905437771661181e-19 1.9543660841734745e-18 -5.905437771661181e-19 0.032920951360569155 4.782757701991586e-18 1.9543660841734745e-18 4.782757701991586e-18 0.03292095135722846" pbc="T T T"
B        0.00000000       0.00000000       0.00000000       0.00000000       0.00000000       0.00000000
P        1.11748250       1.11748250       1.11748250      -0.00000000       0.00000000       0.00000000
B        0.00000000       2.23496500       2.23496500       0.00000000      -0.00000000       0.00000000
P        1.11748250       3.35244750       3.35244750      -0.00000000      -0.00000000      -0.00000000
B        2.23496500       0.00000000       2.23496500      -0.00000000       0.00000000      -0.00000000
P        3.35244750       1.11748250       3.35244750       0.00000000       0.00000000      -0.00000000
B        2.23496500       2.23496500       0.00000000      -0.00000000      -0.00000000      -0.00000000
P        3.35244750       3.35244750       1.11748250       0.00000000       0.00000000       0.00000000
