8
Lattice="4.67414 0.0 0.0 0.0 4.67414 0.0 0.0 0.0 4.67414" Properties=species:S:1:pos:R:3:forces:R:3 energy=-2.591185301910836 free_energy=-2.591185301910836 stress="0.02474514729891918 -5.19758879073396e-19 5.840633132669979e-19 -5.19758879073396e-19 0.024745147298631386 1.0286504854083813e-18 5.840633132669979e-19 1.0286504854083813e-18 0.02474514729834344" pbc="T T T"
B        0.00000000       0.00000000       0.00000000       0.00000000      -0.00000000      -0.00000000
P        1.16853500       1.16853500       1.16853500       0.00000000       0.00000000      -0.00000000
B        0.00000000       2.33707000       2.33707000       0.00000000       0.00000000       0.00000000
P        1.16853500       3.50560500       3.50560500       0.00000000      -0.00000000       0.00000000
B        2.33707000       0.00000000       2.33707000      -0.00000000      -0.00000000       0.00000000
P        3.50560500       1.16853500       3.50560500      -0.00000000       0.00000000       0.00000000
B        2.33707000       2.33707000       0.00000000      -0.00000000       0.00000000      -0.00000000
P        3.50560500       3.50560500       1.16853500      -0.00000000      -0.00000000      -0.00000000
