8
Lattice="4.8102800000000006 0.0 0.0 0.0 4.8102800000000006 0.0 0.0 0.0 4.8102800000000006" Properties=species:S:1:pos:R:3:forces:R:3 energy=-2.3871051509854406 free_energy=-2.3871051509854406 stress="0.019617731676530196 4.657480824656363e-19 4.537373690637124e-19 4.657480824656363e-19 0.019617731676473144 -9.635755996676063e-19 4.537373690637124e-19 -9.635755996676063e-19 0.019617731676416037" pbc="T T T"
B        0.00000000       0.00000000       0.00000000      -0.00000000      -0.00000000       0.00000000
P        1.20257000       1.20257000       1.20257000       0.00000000       0.00000000      -0.00000000
B        0.00000000       2.40514000       2.40514000      -0.00000000       0.00000000      -0.00000000
P        1.20257000       3.60771000       3.60771000       0.00000000      -0.00000000       0.00000000
B        2.40514000       0.00000000       2.40514000       0.00000000      -0.00000000      -0.00000000
P        3.60771000       1.20257000       3.60771000      -0.00000000       0.00000000       0.00000000
B        2.40514000       2.40514000       0.00000000       0.00000000       0.00000000       0.00000000
P        3.60771000       3.60771000       1.20257000      -0.00000000      -0.00000000      -0.00000000
