8
Lattice="4.606070000000001 0.0 0.0 0.0 4.606070000000001 0.0 0.0 0.0 4.606070000000001" Properties=species:S:1:pos:R:3:forces:R:3 energy=-2.705572324589467 free_energy=-2.705572324589467 stress="0.027292925415203086 -4.714331020056174e-19 2.2530656424981216e-19 -4.714331020056174e-19 0.02729292541454919 2.0342559572794437e-18 2.2530656424981216e-19 2.0342559572794437e-18 0.027292925413895462" pbc="T T T"
B        0.00000000       0.00000000       0.00000000      -0.00000000      -0.00000000       0.00000000
P        1.15151750       1.15151750       1.15151750       0.00000000      -0.00000000       0.00000000
B        0.00000000       2.30303500       2.30303500      -0.00000000       0.00000000      -0.00000000
P        1.15151750       3.45455250       3.45455250       0.00000000       0.00000000      -0.00000000
B        2.30303500       0.00000000       2.30303500       0.00000000      -0.00000000      -0.00000000
P        3.45455250       1.15151750       3.45455250       0.00000000      -0.00000000      -0.00000000
B        2.30303500       2.30303500       0.00000000       0.00000000       0.00000000       0.00000000
P        3.45455250       3.45455250       1.15151750       0.00000000       0.00000000       0.00000000
