8
Lattice="5.335769999999999 0.0 0.0 0.0 5.335769999999999 0.0 0.0 0.0 5.335769999999999" Properties=species:S:1:pos:R:3:forces:R:3 energy=-0.8591503425590793 free_energy=-0.8591503425590793 stress="0.006146214693321057 -4.714436230997933e-20 6.17402553912473e-20 -4.714436230997933e-20 0.006146214693320997 4.814557139194265e-20 6.17402553912473e-20 4.814557139194265e-20 0.006146214693320997" pbc="T T T"
Li       0.00000000       0.00000000       0.00000000      -0.00000000       0.00000000       0.00000000
Cl       2.66788500       0.00000000       0.00000000      -0.00000000       0.00000000      -0.00000000
Li       0.00000000       2.66788500       2.66788500      -0.00000000      -0.00000000       0.00000000
Cl       2.66788500       2.66788500       2.66788500      -0.00000000      -0.00000000      -0.00000000
Li       2.66788500       0.00000000       2.66788500       0.00000000       0.00000000       0.00000000
Cl       0.00000000       0.00000000       2.66788500       0.00000000      -0.00000000      -0.00000000
Li       2.66788500       2.66788500       0.00000000       0.00000000      -0.00000000       0.00000000
Cl       0.00000000       2.66788500       0.00000000       0.00000000      -0.00000000       0.00000000
