8
Lattice="4.799639999999999 0.0 0.0 0.0 4.799639999999999 0.0 0.0 0.0 4.799639999999999" Properties=species:S:1:pos:R:3:forces:R:3 energy=-1.1898078046710252 free_energy=-1.1898078046710252 stress="0.010482816234223471 1.1642412812281862e-19 -4.277431582897618e-21 1.1642412812281862e-19 0.01048281623422349 -5.90460123649356e-20 -4.277431582897618e-21 -5.90460123649356e-20 0.010482816234223527" pbc="T T T"
Li       0.00000000       0.00000000       0.00000000       0.00000000      -0.00000000      -0.00000000
Cl       2.39982000       0.00000000       0.00000000      -0.00000000      -0.00000000       0.00000000
Li       0.00000000       2.39982000       2.39982000       0.00000000       0.00000000       0.00000000
Cl       2.39982000       2.39982000       2.39982000       0.00000000       0.00000000       0.00000000
Li       2.39982000       0.00000000       2.39982000      -0.00000000       0.00000000      -0.00000000
Cl       0.00000000       0.00000000       2.39982000       0.00000000       0.00000000      -0.00000000
Li       2.39982000       2.39982000       0.00000000      -0.00000000       0.00000000      -0.00000000
Cl       0.00000000       2.39982000       0.00000000       0.00000000      -0.00000000      -0.00000000
