8
Lattice="4.45942 0.0 0.0 0.0 4.45942 0.0 0.0 0.0 4.45942" Properties=species:S:1:pos:R:3:forces:R:3 energy=-1.09900766258049 free_energy=-1.09900766258049 stress="0.013139178648983656 -2.2533526171848734e-19 -2.401592441926646e-21 -2.2533526171848734e-19 0.01313917864898377 -5.029364774129148e-21 -2.401592441926646e-21 -5.029364774129148e-21 0.013139178648983748" pbc="T T T"
Mg       0.00000000       0.00000000       0.00000000      -0.00000000      -0.00000000       0.00000000
O        2.22971000       0.00000000       0.00000000       0.00000000      -0.00000000      -0.00000000
Mg       0.00000000       2.22971000       2.22971000      -0.00000000       0.00000000      -0.00000000
O        2.22971000       2.22971000       2.22971000       0.00000000       0.00000000      -0.00000000
Mg       2.22971000       0.00000000       2.22971000       0.00000000      -0.00000000       0.00000000
O        0.00000000       0.00000000       2.22971000      -0.00000000      -0.00000000      -0.00000000
Mg       2.22971000       2.22971000       0.00000000       0.00000000       0.00000000       0.00000000
O        0.00000000       2.22971000       0.00000000      -0.00000000       0.00000000       0.00000000
