8
Lattice="5.846774999999999 0.0 0.0 0.0 5.846774999999999 0.0 0.0 0.0 5.846774999999999" Properties=species:S:1:pos:R:3:forces:R:3 energy=-0.6897715721556044 free_energy=-0.6897715721556044 stress="0.003971352159543762 -2.6555846656541258e-20 -1.9922348085361682e-21 -2.6555846656541258e-20 0.00397135215955342 -6.778189612763738e-21 -1.9922348085361682e-21 -6.778189612763738e-21 0.003971352159563112" pbc="T T T"
Na       0.00000000       0.00000000       0.00000000      -0.00000000      -0.00000000       0.00000000
Cl       2.92338750       0.00000000       0.00000000       0.00000000       0.00000000       0.00000000
Na       0.00000000       2.92338750       2.92338750      -0.00000000      -0.00000000      -0.00000000
Cl       2.92338750       2.92338750       2.92338750       0.00000000      -0.00000000      -0.00000000
Na       2.92338750       0.00000000       2.92338750       0.00000000      -0.00000000      -0.00000000
Cl       0.00000000       0.00000000       2.92338750      -0.00000000      -0.00000000       0.00000000
Na       2.92338750       2.92338750       0.00000000       0.00000000       0.00000000      -0.00000000
Cl       0.00000000       2.92338750       0.00000000      -0.00000000       0.00000000       0.00000000
