8
Lattice="4.47073 0.0 0.0 0.0 4.47073 0.0 0.0 0.0 4.47073" Properties=species:S:1:pos:R:3:forces:R:3 energy=-0.4649649576133471 free_energy=-0.4649649576133471 stress="0.005619934292393736 3.212811278942193e-21 2.0523510934397793e-20 3.212811278942193e-21 0.00561993429239384 -1.1314169167640136e-21 2.0523510934397793e-20 -1.1314169167640136e-21 0.005619934292393834" pbc="T T T"
Na       0.00000000       0.00000000       0.00000000      -0.00000000       0.00000000       0.00000000
F        2.23536500       0.00000000       0.00000000      -0.00000000      -0.00000000      -0.00000000
Na       0.00000000       2.23536500       2.23536500      -0.00000000      -0.00000000      -0.00000000
F        2.23536500       2.23536500       2.23536500      -0.00000000      -0.00000000      -0.00000000
Na       2.23536500       0.00000000       2.23536500       0.00000000       0.00000000       0.00000000
F        0.00000000       0.00000000       2.23536500       0.00000000       0.00000000       0.00000000
Na       2.23536500       2.23536500       0.00000000       0.00000000       0.00000000       0.00000000
F        0.00000000       2.23536500       0.00000000       0.00000000       0.00000000      -0.00000000
