8
Lattice="4.61948 0.0 0.0 0.0 4.61948 0.0 0.0 0.0 4.61948" Properties=species:S:1:pos:R:3:forces:R:3 energy=-2.306005789857273 free_energy=-2.306005789857273 stress="0.014548246050932924 -8.766946454690705e-19 -7.670356408700974e-19 -8.766946454690705e-19 0.01454824605093347 1.6707157559432864e-18 -7.670356408700974e-19 1.6707157559432864e-18 0.014548246050933846" pbc="T T T"
Si       0.00000000       0.00000000       0.00000000      -0.00000000       0.00000000      -0.00000000
C        1.15487000       1.15487000       1.15487000      -0.00000000      -0.00000000       0.00000000
Si       0.00000000       2.30974000       2.30974000      -0.00000000      -0.00000000       0.00000000
C        1.15487000       3.46461000       3.46461000      -0.00000000       0.00000000      -0.00000000
Si       2.30974000       0.00000000       2.30974000       0.00000000       0.00000000       0.00000000
C        3.46461000       1.15487000       3.46461000       0.00000000      -0.00000000      -0.00000000
Si       2.30974000       2.30974000       0.00000000       0.00000000      -0.00000000      -0.00000000
C        3.46461000       3.46461000       1.15487000       0.00000000       0.00000000       0.00000000
