8
Properties=species:S:1:pos:R:3:forces:R:3 calculation_type=dimer_refinement calculation_label=AlH3PH3/refinement_41/point_007_distance_2.420000 d4_functional=PBE d4_method=pbe d4_energy_eV=-0.13254007484263342 source_geometry=/mnt/ceph/users/cwoodson/dft_calc/diatomics/dimer_jobs/AlH3PH3/refinement_41/point_007_distance_2.420000/geometry.in energy=-0.13254007484263342 free_energy=-0.13254007484263342 pbc="F F F"
Al      -0.00000095       0.00000331       1.21000000      -0.00000000       0.00000007      -0.01139919
P        0.00000095      -0.00000331      -1.21000000      -0.00000000      -0.00000028       0.01439360
H        0.00000305       1.57524831       1.38799000      -0.00000001      -0.00394568      -0.00504496
H       -1.36418895      -0.78760269       1.38817600       0.00341707       0.00197288      -0.00504533
H        1.36418205      -0.78761069       1.38818100      -0.00341705       0.00197289      -0.00504534
H        0.00000495      -1.22538031      -1.89230200      -0.00000001       0.00139809       0.00404706
H       -1.06124405       0.61274869      -1.89218100       0.00121077      -0.00069898       0.00404708
H        1.06123495       0.61276069      -1.89218700      -0.00121077      -0.00069899       0.00404708
