8
Properties=species:S:1:pos:R:3:forces:R:3 calculation_type=dimer_refinement calculation_label=AlH3PH3/refinement_41/point_002_distance_2.370000 d4_functional=PBE d4_method=pbe d4_energy_eV=-0.13384843880819874 source_geometry=/mnt/ceph/users/cwoodson/dft_calc/diatomics/dimer_jobs/AlH3PH3/refinement_41/point_002_distance_2.370000/geometry.in energy=-0.13384843880819874 free_energy=-0.13384843880819874 pbc="F F F"
Al      -0.00000093       0.00000324       1.18500000       0.00000000       0.00000006      -0.01091779
P        0.00000093      -0.00000324      -1.18500000      -0.00000000      -0.00000030       0.01369544
H        0.00000307       1.57524824       1.36299000      -0.00000001      -0.00392785      -0.00495985
H       -1.36418893      -0.78760276       1.36317600       0.00340164       0.00196397      -0.00496025
H        1.36418207      -0.78761076       1.36318100      -0.00340163       0.00196399      -0.00496026
H        0.00000493      -1.22538024      -1.86730200      -0.00000001       0.00140418       0.00403424
H       -1.06124407       0.61274876      -1.86718100       0.00121604      -0.00070202       0.00403423
H        1.06123493       0.61276076      -1.86718700      -0.00121604      -0.00070203       0.00403423
