8
Properties=species:S:1:pos:R:3:forces:R:3 calculation_type=dimer_refinement calculation_label=AlH3PH3/refinement_41/point_016_distance_2.510000 d4_functional=PBE d4_method=pbe d4_energy_eV=-0.13009324458799987 source_geometry=/mnt/ceph/users/cwoodson/dft_calc/diatomics/dimer_jobs/AlH3PH3/refinement_41/point_016_distance_2.510000/geometry.in energy=-0.13009324458799987 free_energy=-0.13009324458799987 pbc="F F F"
Al      -0.00000098       0.00000343       1.25500000      -0.00000000       0.00000008      -0.01231376
P        0.00000098      -0.00000343      -1.25500000      -0.00000000      -0.00000023       0.01573012
H        0.00000302       1.57524843       1.43299000      -0.00000001      -0.00396489      -0.00517247
H       -1.36418898      -0.78760257       1.43317600       0.00343367       0.00198246      -0.00517278
H        1.36418202      -0.78761057       1.43318100      -0.00343365       0.00198247      -0.00517278
H        0.00000498      -1.22538043      -1.93730200      -0.00000001       0.00137229       0.00403384
H       -1.06124402       0.61274857      -1.93718100       0.00118845      -0.00068609       0.00403392
H        1.06123498       0.61276057      -1.93718700      -0.00118844      -0.00068610       0.00403391
