8
Properties=species:S:1:pos:R:3:forces:R:3 calculation_type=dimer_refinement calculation_label=AlH3PH3/refinement_41/point_001_distance_2.360000 d4_functional=PBE d4_method=pbe d4_energy_eV=-0.13410567838560242 source_geometry=/mnt/ceph/users/cwoodson/dft_calc/diatomics/dimer_jobs/AlH3PH3/refinement_41/point_001_distance_2.360000/geometry.in energy=-0.13410567838560242 free_energy=-0.13410567838560242 pbc="F F F"
Al      -0.00000092       0.00000323       1.18000000       0.00000000       0.00000006      -0.01082372
P        0.00000092      -0.00000323      -1.18000000      -0.00000000      -0.00000031       0.01355962
H        0.00000308       1.57524823       1.35799000      -0.00000001      -0.00392371      -0.00494172
H       -1.36418892      -0.78760277       1.35817600       0.00339807       0.00196191      -0.00494213
H        1.36418208      -0.78761077       1.35818100      -0.00339805       0.00196192      -0.00494214
H        0.00000492      -1.22538023      -1.86230200      -0.00000001       0.00140476       0.00403004
H       -1.06124408       0.61274877      -1.86218100       0.00121654      -0.00070231       0.00403003
H        1.06123492       0.61276077      -1.86218700      -0.00121654      -0.00070232       0.00403003
