8
Properties=species:S:1:pos:R:3:forces:R:3 calculation_type=dimer_refinement calculation_label=AlH3PH3/refinement_41/point_020_distance_2.550000 d4_functional=PBE d4_method=pbe d4_energy_eV=-0.1289687490569622 source_geometry=/mnt/ceph/users/cwoodson/dft_calc/diatomics/dimer_jobs/AlH3PH3/refinement_41/point_020_distance_2.550000/geometry.in energy=-0.1289687490569622 free_energy=-0.1289687490569622 pbc="F F F"
Al      -0.00000100       0.00000349       1.27500000      -0.00000000       0.00000009      -0.01273825
P        0.00000100      -0.00000349      -1.27500000      -0.00000000      -0.00000021       0.01635391
H        0.00000300       1.57524849       1.45299000      -0.00000001      -0.00396768      -0.00521729
H       -1.36418900      -0.78760251       1.45317600       0.00343607       0.00198384      -0.00521756
H        1.36418200      -0.78761051       1.45318100      -0.00343605       0.00198386      -0.00521757
H        0.00000500      -1.22538049      -1.95730200      -0.00000001       0.00135408       0.00401219
H       -1.06124400       0.61274851      -1.95718100       0.00117268      -0.00067698       0.00401229
H        1.06123500       0.61276051      -1.95718700      -0.00117267      -0.00067699       0.00401228
