8
Properties=species:S:1:pos:R:3:forces:R:3 calculation_type=dimer_refinement calculation_label=AlH3PH3/refinement_41/point_025_distance_2.600000 d4_functional=PBE d4_method=pbe d4_energy_eV=-0.12753221420445726 source_geometry=/mnt/ceph/users/cwoodson/dft_calc/diatomics/dimer_jobs/AlH3PH3/refinement_41/point_025_distance_2.600000/geometry.in energy=-0.12753221420445726 free_energy=-0.12753221420445726 pbc="F F F"
Al      -0.00000102       0.00000356       1.30000000      -0.00000000       0.00000009      -0.01327907
P        0.00000102      -0.00000356      -1.30000000      -0.00000000      -0.00000018       0.01715232
H        0.00000298       1.57524856       1.47799000      -0.00000001      -0.00396590      -0.00526202
H       -1.36418902      -0.78760244       1.47817600       0.00343450       0.00198293      -0.00526225
H        1.36418198      -0.78761044       1.47818100      -0.00343448       0.00198295      -0.00526225
H        0.00000502      -1.22538056      -1.98230200      -0.00000001       0.00132504       0.00397101
H       -1.06124398       0.61274844      -1.98218100       0.00114753      -0.00066247       0.00397113
H        1.06123502       0.61276044      -1.98218700      -0.00114753      -0.00066248       0.00397113
