8
Properties=species:S:1:pos:R:3:forces:R:3 calculation_type=dimer_refinement calculation_label=AlH3PH3/refinement_41/point_006_distance_2.410000 d4_functional=PBE d4_method=pbe d4_energy_eV=-0.1328046906249284 source_geometry=/mnt/ceph/users/cwoodson/dft_calc/diatomics/dimer_jobs/AlH3PH3/refinement_41/point_006_distance_2.410000/geometry.in energy=-0.1328046906249284 free_energy=-0.1328046906249284 pbc="F F F"
Al      -0.00000094       0.00000330       1.20500000      -0.00000000       0.00000006      -0.01130140
P        0.00000094      -0.00000330      -1.20500000      -0.00000000      -0.00000028       0.01425140
H        0.00000306       1.57524830       1.38299000      -0.00000001      -0.00394250      -0.00502870
H       -1.36418894      -0.78760270       1.38317600       0.00341432       0.00197129      -0.00502908
H        1.36418206      -0.78761070       1.38318100      -0.00341430       0.00197131      -0.00502909
H        0.00000494      -1.22538030      -1.88730200      -0.00000001       0.00139975       0.00404561
H       -1.06124406       0.61274870      -1.88718100       0.00121221      -0.00069980       0.00404563
H        1.06123494       0.61276070      -1.88718700      -0.00121221      -0.00069982       0.00404563
