2
Properties=species:S:1:pos:R:3:forces:R:3 calculation_type=dimer_refinement calculation_label=AlP/refinement_100/point_074_distance_2.27 d4_functional=PBE d4_method=pbe d4_energy_eV=-0.05471618676809189 source_geometry=/mnt/ceph/users/cwoodson/dft_calc/diatomics/dimer_jobs/AlP/refinement_100/point_074_distance_2.27/geometry.in energy=-0.05471618676809189 free_energy=-0.05471618676809189 pbc="F F F"
Al       0.00000000       0.00000000      -1.13500000      -0.00000000      -0.00000000       0.00205897
P        0.00000000       0.00000000       1.13500000      -0.00000000      -0.00000000      -0.00205897
