2
Properties=species:S:1:pos:R:3:forces:R:3 calculation_type=dimer_refinement calculation_label=AlP/refinement_100/point_004_distance_1.57 d4_functional=PBE d4_method=pbe d4_energy_eV=-0.05547940761435784 source_geometry=/mnt/ceph/users/cwoodson/dft_calc/diatomics/dimer_jobs/AlP/refinement_100/point_004_distance_1.57/geometry.in energy=-0.05547940761435784 free_energy=-0.05547940761435784 pbc="F F F"
Al       0.00000000       0.00000000      -0.78500000      -0.00000000      -0.00000000       0.00050985
P        0.00000000       0.00000000       0.78500000      -0.00000000      -0.00000000      -0.00050985
