2
Properties=species:S:1:pos:R:3:forces:R:3 calculation_type=dimer_refinement calculation_label=AlP/refinement_100/point_061_distance_2.14 d4_functional=PBE d4_method=pbe d4_energy_eV=-0.05495330858275648 source_geometry=/mnt/ceph/users/cwoodson/dft_calc/diatomics/dimer_jobs/AlP/refinement_100/point_061_distance_2.14/geometry.in energy=-0.05495330858275648 free_energy=-0.05495330858275648 pbc="F F F"
Al       0.00000000       0.00000000      -1.07000000      -0.00000000      -0.00000000       0.00159736
P        0.00000000       0.00000000       1.07000000      -0.00000000      -0.00000000      -0.00159736
