2
Properties=species:S:1:pos:R:3:forces:R:3 calculation_type=dimer_refinement calculation_label=AlP/refinement_100/point_018_distance_1.71 d4_functional=PBE d4_method=pbe d4_energy_eV=-0.055399886646652685 source_geometry=/mnt/ceph/users/cwoodson/dft_calc/diatomics/dimer_jobs/AlP/refinement_100/point_018_distance_1.71/geometry.in energy=-0.055399886646652685 free_energy=-0.055399886646652685 pbc="F F F"
Al       0.00000000       0.00000000      -0.85500000      -0.00000000      -0.00000000       0.00063819
P        0.00000000       0.00000000       0.85500000      -0.00000000      -0.00000000      -0.00063819
