2
Properties=species:S:1:pos:R:3:forces:R:3 calculation_type=dimer_refinement calculation_label=AlP/refinement_100/point_032_distance_1.85 d4_functional=PBE d4_method=pbe d4_energy_eV=-0.05529695869473328 source_geometry=/mnt/ceph/users/cwoodson/dft_calc/diatomics/dimer_jobs/AlP/refinement_100/point_032_distance_1.85/geometry.in energy=-0.05529695869473328 free_energy=-0.05529695869473328 pbc="F F F"
Al       0.00000000       0.00000000      -0.92500000      -0.00000000      -0.00000000       0.00084708
P        0.00000000       0.00000000       0.92500000      -0.00000000      -0.00000000      -0.00084708
