2
Properties=species:S:1:pos:R:3:forces:R:3 calculation_type=dimer_refinement calculation_label=AlP/refinement_41/point_005_distance_1.880000 d4_functional=PBE d4_method=pbe d4_energy_eV=-0.05527070406630113 source_geometry=/mnt/ceph/users/cwoodson/dft_calc/diatomics/dimer_jobs/AlP/refinement_41/point_005_distance_1.880000/geometry.in energy=-0.05527070406630113 free_energy=-0.05527070406630113 pbc="F F F"
Al       0.00000000       0.00000000      -0.94000000      -0.00000000      -0.00000000       0.00090399
P        0.00000000       0.00000000       0.94000000      -0.00000000      -0.00000000      -0.00090399
