2
Properties=species:S:1:pos:R:3:forces:R:3 calculation_type=dimer_refinement calculation_label=AlP/refinement_41/point_023_distance_2.060000 d4_functional=PBE d4_method=pbe d4_energy_eV=-0.05507083684052116 source_geometry=/mnt/ceph/users/cwoodson/dft_calc/diatomics/dimer_jobs/AlP/refinement_41/point_023_distance_2.060000/geometry.in energy=-0.05507083684052116 free_energy=-0.05507083684052116 pbc="F F F"
Al       0.00000000       0.00000000      -1.03000000      -0.00000000      -0.00000000       0.00134602
P        0.00000000       0.00000000       1.03000000      -0.00000000      -0.00000000      -0.00134602
