8
Properties=species:S:1:pos:R:3:forces:R:3 calculation_type=dimer_refinement calculation_label=BH3NH3/refinement_41/point_038_distance_1.820000 d4_functional=PBE d4_method=pbe d4_energy_eV=-0.07148655248991784 source_geometry=/mnt/ceph/users/cwoodson/dft_calc/diatomics/dimer_jobs/BH3NH3/refinement_41/point_038_distance_1.820000/geometry.in energy=-0.07148655248991784 free_energy=-0.07148655248991784 pbc="F F F"
B       -0.00000000      -0.00000165       0.91000000      -0.00000000       0.00000003      -0.00241234
N        0.00000000       0.00000165      -0.91000000      -0.00000000       0.00000002       0.00244466
H        0.00000100       1.16489135       1.22181100      -0.00000000       0.00005276      -0.00129211
H       -1.00882800      -0.58244865       1.22181100      -0.00004570      -0.00002639      -0.00129211
H        1.00882700      -0.58245065       1.22181100       0.00004570      -0.00002639      -0.00129211
H        0.00000100      -0.94642435      -1.26988200      -0.00000000       0.00004432       0.00128133
H       -0.81962900       0.47320865      -1.26988400       0.00003839      -0.00002217       0.00128134
H        0.81962800       0.47321065      -1.26988400      -0.00003839      -0.00002217       0.00128134
