8
Properties=species:S:1:pos:R:3:forces:R:3 calculation_type=dimer_refinement calculation_label=BH3NH3/refinement_41/point_019_distance_1.630000 d4_functional=PBE d4_method=pbe d4_energy_eV=-0.07217870261045647 source_geometry=/mnt/ceph/users/cwoodson/dft_calc/diatomics/dimer_jobs/BH3NH3/refinement_41/point_019_distance_1.630000/geometry.in energy=-0.07217870261045647 free_energy=-0.07217870261045647 pbc="F F F"
B        0.00000000      -0.00000148       0.81500000      -0.00000001       0.00000008      -0.00344671
N        0.00000000       0.00000148      -0.81500000      -0.00000000       0.00000002       0.00071953
H        0.00000100       1.16489152       1.12681100       0.00000000       0.00357154       0.00008004
H       -1.00882800      -0.58244848       1.12681100      -0.00309310      -0.00178581       0.00008005
H        1.00882700      -0.58245048       1.12681100       0.00309311      -0.00178581       0.00008005
H        0.00000100      -0.94642452      -1.17488200       0.00000000      -0.00033676       0.00082901
H       -0.81962900       0.47320848      -1.17488400      -0.00029163       0.00016837       0.00082901
H        0.81962800       0.47321048      -1.17488400       0.00029163       0.00016837       0.00082901
