8
Properties=species:S:1:pos:R:3:forces:R:3 calculation_type=dimer_refinement calculation_label=BH3NH3/refinement_41/point_020_distance_1.640000 d4_functional=PBE d4_method=pbe d4_energy_eV=-0.07214715786934722 source_geometry=/mnt/ceph/users/cwoodson/dft_calc/diatomics/dimer_jobs/BH3NH3/refinement_41/point_020_distance_1.640000/geometry.in energy=-0.07214715786934722 free_energy=-0.07214715786934722 pbc="F F F"
B        0.00000000      -0.00000149       0.82000000      -0.00000001       0.00000008      -0.00322480
N        0.00000000       0.00000149      -0.82000000      -0.00000000       0.00000002       0.00055411
H        0.00000100       1.16489151       1.13181100       0.00000000       0.00350784       0.00004088
H       -1.00882800      -0.58244849       1.13181100      -0.00303794      -0.00175396       0.00004089
H        1.00882700      -0.58245049       1.13181100       0.00303794      -0.00175397       0.00004090
H        0.00000100      -0.94642451      -1.17988200       0.00000000      -0.00032139       0.00084934
H       -0.81962900       0.47320849      -1.17988400      -0.00027832       0.00016068       0.00084934
H        0.81962800       0.47321049      -1.17988400       0.00027832       0.00016068       0.00084934
