8
Properties=species:S:1:pos:R:3:forces:R:3 calculation_type=dimer_refinement calculation_label=BH3NH3/refinement_41/point_008_distance_1.520000 d4_functional=PBE d4_method=pbe d4_energy_eV=-0.0725741378008304 source_geometry=/mnt/ceph/users/cwoodson/dft_calc/diatomics/dimer_jobs/BH3NH3/refinement_41/point_008_distance_1.520000/geometry.in energy=-0.0725741378008304 free_energy=-0.0725741378008304 pbc="F F F"
B        0.00000000      -0.00000138       0.76000000      -0.00000001       0.00000009      -0.00492978
N        0.00000000       0.00000138      -0.76000000      -0.00000000       0.00000002       0.00188053
H        0.00000100       1.16489162       1.07181100       0.00000000       0.00384554       0.00038921
H       -1.00882800      -0.58244838       1.07181100      -0.00333039      -0.00192280       0.00038922
H        1.00882700      -0.58245038       1.07181100       0.00333039      -0.00192281       0.00038922
H        0.00000100      -0.94642462      -1.11988200       0.00000000      -0.00048599       0.00062720
H       -0.81962900       0.47320838      -1.11988400      -0.00042087       0.00024298       0.00062721
H        0.81962800       0.47321038      -1.11988400       0.00042087       0.00024298       0.00062721
