8
Properties=species:S:1:pos:R:3:forces:R:3 calculation_type=dimer_refinement calculation_label=BH3NH3/refinement_41/point_024_distance_1.680000 d4_functional=PBE d4_method=pbe d4_energy_eV=-0.07203075964015203 source_geometry=/mnt/ceph/users/cwoodson/dft_calc/diatomics/dimer_jobs/BH3NH3/refinement_41/point_024_distance_1.680000/geometry.in energy=-0.07203075964015203 free_energy=-0.07203075964015203 pbc="F F F"
B       -0.00000000      -0.00000153       0.84000000      -0.00000001       0.00000007      -0.00227536
N        0.00000000       0.00000153      -0.84000000      -0.00000000       0.00000002      -0.00005068
H        0.00000100       1.16489147       1.15181100       0.00000000       0.00309377      -0.00015920
H       -1.00882800      -0.58244853       1.15181100      -0.00267933      -0.00154692      -0.00015919
H        1.00882700      -0.58245053       1.15181100       0.00267934      -0.00154692      -0.00015919
H        0.00000100      -0.94642447      -1.19988200       0.00000000      -0.00025563       0.00093454
H       -0.81962900       0.47320853      -1.19988400      -0.00022137       0.00012780       0.00093454
H        0.81962800       0.47321053      -1.19988400       0.00022137       0.00012780       0.00093454
