8
Properties=species:S:1:pos:R:3:forces:R:3 calculation_type=dimer_refinement calculation_label=BH3NH3/refinement_41/point_016_distance_1.600000 d4_functional=PBE d4_method=pbe d4_energy_eV=-0.0722792874797739 source_geometry=/mnt/ceph/users/cwoodson/dft_calc/diatomics/dimer_jobs/BH3NH3/refinement_41/point_016_distance_1.600000/geometry.in energy=-0.0722792874797739 free_energy=-0.0722792874797739 pbc="F F F"
B        0.00000000      -0.00000145       0.80000000      -0.00000001       0.00000008      -0.00402869
N        0.00000000       0.00000145      -0.80000000      -0.00000000       0.00000002       0.00117674
H        0.00000100       1.16489155       1.11181100       0.00000000       0.00370110       0.00018044
H       -1.00882800      -0.58244845       1.11181100      -0.00320530      -0.00185058       0.00018045
H        1.00882700      -0.58245045       1.11181100       0.00320530      -0.00185059       0.00018045
H        0.00000100      -0.94642455      -1.15988200       0.00000000      -0.00038069       0.00077021
H       -0.81962900       0.47320845      -1.15988400      -0.00032968       0.00019033       0.00077021
H        0.81962800       0.47321045      -1.15988400       0.00032968       0.00019033       0.00077021
