8
Properties=species:S:1:pos:R:3:forces:R:3 calculation_type=dimer_refinement calculation_label=BH3PH3/refinement_41/point_016_distance_1.880000 d4_functional=PBE d4_method=pbe d4_energy_eV=-0.11090103643209455 source_geometry=/mnt/ceph/users/cwoodson/dft_calc/diatomics/dimer_jobs/BH3PH3/refinement_41/point_016_distance_1.880000/geometry.in energy=-0.11090103643209455 free_energy=-0.11090103643209455 pbc="F F F"
B        0.00000000      -0.00000049       0.94000000      -0.00000002       0.00000007      -0.00786524
P        0.00000000       0.00000049      -0.94000000       0.00000000      -0.00000001       0.00653810
H        0.00000000       1.16874651       1.22209100      -0.00000000       0.00094009      -0.00212743
H       -1.01216600      -0.58437649       1.22208700      -0.00081418      -0.00047007      -0.00212742
H        1.01216600      -0.58437749       1.22208800       0.00081420      -0.00047008      -0.00212742
H        0.00000000      -1.23673751      -1.59710300      -0.00000000       0.00128405       0.00256980
H       -1.07104200       0.61836649      -1.59710700       0.00111201      -0.00064202       0.00256980
H        1.07104100       0.61836749      -1.59710800      -0.00111201      -0.00064202       0.00256980
