8
Properties=species:S:1:pos:R:3:forces:R:3 calculation_type=dimer_refinement calculation_label=BH3PH3/refinement_41/point_009_distance_1.810000 d4_functional=PBE d4_method=pbe d4_energy_eV=-0.11186818534251547 source_geometry=/mnt/ceph/users/cwoodson/dft_calc/diatomics/dimer_jobs/BH3PH3/refinement_41/point_009_distance_1.810000/geometry.in energy=-0.11186818534251547 free_energy=-0.11186818534251547 pbc="F F F"
B        0.00000000      -0.00000047       0.90500000      -0.00000002       0.00000007      -0.00737457
P        0.00000000       0.00000047      -0.90500000       0.00000000      -0.00000001       0.00610347
H        0.00000000       1.16874653       1.18709100      -0.00000000       0.00093038      -0.00200758
H       -1.01216600      -0.58437647       1.18708700      -0.00080577      -0.00046521      -0.00200758
H        1.01216600      -0.58437747       1.18708800       0.00080578      -0.00046522      -0.00200757
H        0.00000000      -1.23673753      -1.56210300      -0.00000000       0.00125403       0.00243128
H       -1.07104200       0.61836647      -1.56210700       0.00108602      -0.00062702       0.00243128
H        1.07104100       0.61836747      -1.56210800      -0.00108602      -0.00062702       0.00243128
