8
Properties=species:S:1:pos:R:3:forces:R:3 calculation_type=dimer_refinement calculation_label=BH3PH3/refinement_41/point_031_distance_2.030000 d4_functional=PBE d4_method=pbe d4_energy_eV=-0.10863041824870333 source_geometry=/mnt/ceph/users/cwoodson/dft_calc/diatomics/dimer_jobs/BH3PH3/refinement_41/point_031_distance_2.030000/geometry.in energy=-0.10863041824870333 free_energy=-0.10863041824870333 pbc="F F F"
B        0.00000000      -0.00000053       1.01500000      -0.00000002       0.00000008      -0.00886998
P        0.00000000       0.00000053      -1.01500000       0.00000000      -0.00000001       0.00747537
H        0.00000000       1.16874647       1.29709100      -0.00000000       0.00131080      -0.00234160
H       -1.01216600      -0.58437653       1.29708700      -0.00113523      -0.00065543      -0.00234159
H        1.01216600      -0.58437753       1.29708800       0.00113525      -0.00065544      -0.00234158
H        0.00000000      -1.23673747      -1.67210300      -0.00000000       0.00132131       0.00280646
H       -1.07104200       0.61836653      -1.67210700       0.00114427      -0.00066065       0.00280646
H        1.07104100       0.61836753      -1.67210800      -0.00114427      -0.00066065       0.00280646
