8
Properties=species:S:1:pos:R:3:forces:R:3 calculation_type=dimer_refinement calculation_label=BH3PH3/refinement_41/point_018_distance_1.900000 d4_functional=PBE d4_method=pbe d4_energy_eV=-0.11061358036286653 source_geometry=/mnt/ceph/users/cwoodson/dft_calc/diatomics/dimer_jobs/BH3PH3/refinement_41/point_018_distance_1.900000/geometry.in energy=-0.11061358036286653 free_energy=-0.11061358036286653 pbc="F F F"
B        0.00000000      -0.00000049       0.95000000      -0.00000002       0.00000007      -0.00800770
P        0.00000000       0.00000049      -0.95000000       0.00000000      -0.00000001       0.00667840
H        0.00000000       1.16874651       1.23209100      -0.00000000       0.00095140      -0.00216346
H       -1.01216600      -0.58437649       1.23208700      -0.00082397      -0.00047572      -0.00216345
H        1.01216600      -0.58437749       1.23208800       0.00082399      -0.00047573      -0.00216345
H        0.00000000      -1.23673751      -1.60710300      -0.00000000       0.00129147       0.00260656
H       -1.07104200       0.61836649      -1.60710700       0.00111844      -0.00064573       0.00260656
H        1.07104100       0.61836749      -1.60710800      -0.00111844      -0.00064574       0.00260656
