8
Properties=species:S:1:pos:R:3:forces:R:3 calculation_type=dimer_refinement calculation_label=BH3PH3/refinement_41/point_028_distance_2.000000 d4_functional=PBE d4_method=pbe d4_energy_eV=-0.10910377996274252 source_geometry=/mnt/ceph/users/cwoodson/dft_calc/diatomics/dimer_jobs/BH3PH3/refinement_41/point_028_distance_2.000000/geometry.in energy=-0.10910377996274252 free_energy=-0.10910377996274252 pbc="F F F"
B        0.00000000      -0.00000052       1.00000000      -0.00000002       0.00000008      -0.00870016
P        0.00000000       0.00000052      -1.00000000       0.00000000      -0.00000001       0.00734828
H        0.00000000       1.16874648       1.28209100      -0.00000000       0.00116012      -0.00231630
H       -1.01216600      -0.58437652       1.28208700      -0.00100474      -0.00058009      -0.00231629
H        1.01216600      -0.58437752       1.28208800       0.00100476      -0.00058010      -0.00231629
H        0.00000000      -1.23673748      -1.65710300      -0.00000000       0.00131769       0.00276692
H       -1.07104200       0.61836652      -1.65710700       0.00114114      -0.00065884       0.00276692
H        1.07104100       0.61836752      -1.65710800      -0.00114114      -0.00065884       0.00276692
