8
Properties=species:S:1:pos:R:3:forces:R:3 calculation_type=dimer_refinement calculation_label=BH3PH3/refinement_41/point_008_distance_1.800000 d4_functional=PBE d4_method=pbe d4_energy_eV=-0.11200158837537995 source_geometry=/mnt/ceph/users/cwoodson/dft_calc/diatomics/dimer_jobs/BH3PH3/refinement_41/point_008_distance_1.800000/geometry.in energy=-0.11200158837537995 free_energy=-0.11200158837537995 pbc="F F F"
B        0.00000000      -0.00000047       0.90000000      -0.00000002       0.00000007      -0.00730560
P        0.00000000       0.00000047      -0.90000000       0.00000000      -0.00000001       0.00605252
H        0.00000000       1.16874653       1.18209100      -0.00000000       0.00093033      -0.00199273
H       -1.01216600      -0.58437647       1.18208700      -0.00080573      -0.00046519      -0.00199273
H        1.01216600      -0.58437747       1.18208800       0.00080574      -0.00046520      -0.00199272
H        0.00000000      -1.23673753      -1.55710300      -0.00000000       0.00124938       0.00241042
H       -1.07104200       0.61836647      -1.55710700       0.00108199      -0.00062469       0.00241042
H        1.07104100       0.61836747      -1.55710800      -0.00108199      -0.00062469       0.00241043
