2
Properties=species:S:1:pos:R:3:forces:R:3 calculation_type=dimer_refinement calculation_label=BN/refinement_41/point_012_distance_1.210000 d4_functional=PBE d4_method=pbe d4_energy_eV=-0.015615645126169277 source_geometry=/mnt/ceph/users/cwoodson/dft_calc/diatomics/dimer_jobs/BN/refinement_41/point_012_distance_1.210000/geometry.in energy=-0.015615645126169277 free_energy=-0.015615645126169277 pbc="F F F"
B        0.00000000       0.00000000      -0.60500000      -0.00000000      -0.00000000       0.00015689
N        0.00000000       0.00000000       0.60500000      -0.00000000      -0.00000000      -0.00015689
