2
Properties=species:S:1:pos:R:3:forces:R:3 calculation_type=dimer_refinement calculation_label=BP/refinement_100/point_077_distance_1.88 d4_functional=PBE d4_method=pbe d4_energy_eV=-0.03335528931436363 source_geometry=/mnt/ceph/users/cwoodson/dft_calc/diatomics/dimer_jobs/BP/refinement_100/point_077_distance_1.88/geometry.in energy=-0.03335528931436363 free_energy=-0.03335528931436363 pbc="F F F"
B        0.00000000       0.00000000      -0.94000000      -0.00000000      -0.00000000       0.00066413
P        0.00000000       0.00000000       0.94000000      -0.00000000      -0.00000000      -0.00066413
