2
Properties=species:S:1:pos:R:3:forces:R:3 calculation_type=dimer_refinement calculation_label=BP/refinement_100/point_057_distance_1.68 d4_functional=PBE d4_method=pbe d4_energy_eV=-0.03344311161527067 source_geometry=/mnt/ceph/users/cwoodson/dft_calc/diatomics/dimer_jobs/BP/refinement_100/point_057_distance_1.68/geometry.in energy=-0.03344311161527067 free_energy=-0.03344311161527067 pbc="F F F"
B        0.00000000       0.00000000      -0.84000000      -0.00000000      -0.00000000       0.00024914
P        0.00000000       0.00000000       0.84000000      -0.00000000      -0.00000000      -0.00024914
