2
Properties=species:S:1:pos:R:3:forces:R:3 calculation_type=dimer_refinement calculation_label=BP/refinement_41/point_004_distance_1.450000 d4_functional=PBE d4_method=pbe d4_energy_eV=-0.03346562517919339 source_geometry=/mnt/ceph/users/cwoodson/dft_calc/diatomics/dimer_jobs/BP/refinement_41/point_004_distance_1.450000/geometry.in energy=-0.03346562517919339 free_energy=-0.03346562517919339 pbc="F F F"
B        0.00000000       0.00000000      -0.72500000      -0.00000000      -0.00000000      -0.00002530
P        0.00000000       0.00000000       0.72500000      -0.00000000      -0.00000000       0.00002530
