2
Properties=species:S:1:pos:R:3:forces:R:3 calculation_type=dimer_refinement calculation_label=BP/refinement_100/point_023_distance_1.34 d4_functional=PBE d4_method=pbe d4_energy_eV=-0.03345819073705494 source_geometry=/mnt/ceph/users/cwoodson/dft_calc/diatomics/dimer_jobs/BP/refinement_100/point_023_distance_1.34/geometry.in energy=-0.03345819073705494 free_energy=-0.03345819073705494 pbc="F F F"
B        0.00000000       0.00000000      -0.67000000      -0.00000000      -0.00000000      -0.00010538
P        0.00000000       0.00000000       0.67000000      -0.00000000      -0.00000000       0.00010538
