2
Properties=species:S:1:pos:R:3:forces:R:3 calculation_type=dimer_refinement calculation_label=BP/refinement_100/point_028_distance_1.39 d4_functional=PBE d4_method=pbe d4_energy_eV=-0.0334626548603993 source_geometry=/mnt/ceph/users/cwoodson/dft_calc/diatomics/dimer_jobs/BP/refinement_100/point_028_distance_1.39/geometry.in energy=-0.0334626548603993 free_energy=-0.0334626548603993 pbc="F F F"
B        0.00000000       0.00000000      -0.69500000      -0.00000000      -0.00000000      -0.00007231
P        0.00000000       0.00000000       0.69500000      -0.00000000      -0.00000000       0.00007231
