8
Properties=species:S:1:pos:R:3:forces:R:3 calculation_type=dimer_refinement calculation_label=C2H6/refinement_41/point_024_distance_1.550000 d4_functional=PBE d4_method=pbe d4_energy_eV=-0.07311945473194921 source_geometry=/mnt/ceph/users/cwoodson/dft_calc/diatomics/dimer_jobs/C2H6/refinement_41/point_024_distance_1.550000/geometry.in energy=-0.07311945473194921 free_energy=-0.07311945473194921 pbc="F F F"
C        0.00000000      -0.00000000       0.77500000       0.00000000      -0.00000001      -0.00417225
C        0.00000000       0.00000000      -0.77500000       0.00000000       0.00000001       0.00417225
H       -0.00000000       1.01450700       1.17062800       0.00000000       0.00014843      -0.00084758
H       -0.87858900      -0.50725200       1.17062300      -0.00012855      -0.00007422      -0.00084757
H        0.87858900      -0.50725200       1.17062300       0.00012855      -0.00007422      -0.00084757
H        0.00000000      -1.01450700      -1.17062800      -0.00000000      -0.00014843       0.00084758
H       -0.87858900       0.50725200      -1.17062300      -0.00012855       0.00007422       0.00084757
H        0.87858900       0.50725200      -1.17062400       0.00012855       0.00007422       0.00084757
