8
Properties=species:S:1:pos:R:3:forces:R:3 calculation_type=dimer_refinement calculation_label=C2H6/refinement_100/point_069_distance_1.72 d4_functional=PBE d4_method=pbe d4_energy_eV=-0.07188467792171042 source_geometry=/mnt/ceph/users/cwoodson/dft_calc/diatomics/dimer_jobs/C2H6/refinement_100/point_069_distance_1.72/geometry.in energy=-0.07188467792171042 free_energy=-0.07188467792171042 pbc="F F F"
C        0.00000000       0.00000000       0.86000000       0.00000000       0.00000000      -0.00343632
C        0.00000000       0.00000000      -0.86000000      -0.00000000      -0.00000000       0.00343632
H        0.00000000       1.01895700       1.25502000       0.00000000       0.00010131      -0.00124186
H       -0.88244300      -0.50947900       1.25502000      -0.00008774      -0.00005065      -0.00124186
H        0.88244300      -0.50947900       1.25502000       0.00008774      -0.00005065      -0.00124186
H        0.00000000      -1.01895700      -1.25502000       0.00000000      -0.00010131       0.00124186
H       -0.88244300       0.50947900      -1.25502000      -0.00008774       0.00005065       0.00124186
H        0.88244300       0.50947900      -1.25502000       0.00008774       0.00005065       0.00124186
