8
Properties=species:S:1:pos:R:3:forces:R:3 calculation_type=dimer_refinement calculation_label=C2H6/refinement_41/point_033_distance_1.640000 d4_functional=PBE d4_method=pbe d4_energy_eV=-0.0724770081465652 source_geometry=/mnt/ceph/users/cwoodson/dft_calc/diatomics/dimer_jobs/C2H6/refinement_41/point_033_distance_1.640000/geometry.in energy=-0.0724770081465652 free_energy=-0.0724770081465652 pbc="F F F"
C        0.00000000      -0.00000000       0.82000000       0.00000000      -0.00000001      -0.00428652
C        0.00000000       0.00000000      -0.82000000       0.00000000       0.00000001       0.00428652
H       -0.00000000       1.01450700       1.21562800       0.00000000       0.00008572      -0.00106716
H       -0.87858900      -0.50725200       1.21562300      -0.00007424      -0.00004286      -0.00106715
H        0.87858900      -0.50725200       1.21562300       0.00007424      -0.00004286      -0.00106715
H        0.00000000      -1.01450700      -1.21562800      -0.00000000      -0.00008572       0.00106716
H       -0.87858900       0.50725200      -1.21562300      -0.00007424       0.00004286       0.00106715
H        0.87858900       0.50725200      -1.21562400       0.00007424       0.00004286       0.00106715
