8
Properties=species:S:1:pos:R:3:forces:R:3 calculation_type=dimer_refinement calculation_label=C2H6/refinement_41/point_030_distance_1.610000 d4_functional=PBE d4_method=pbe d4_energy_eV=-0.07269879763853061 source_geometry=/mnt/ceph/users/cwoodson/dft_calc/diatomics/dimer_jobs/C2H6/refinement_41/point_030_distance_1.610000/geometry.in energy=-0.07269879763853061 free_energy=-0.07269879763853061 pbc="F F F"
C        0.00000000      -0.00000000       0.80500000       0.00000000      -0.00000001      -0.00429744
C        0.00000000       0.00000000      -0.80500000       0.00000000       0.00000001       0.00429744
H       -0.00000000       1.01450700       1.20062800       0.00000000       0.00010212      -0.00099553
H       -0.87858900      -0.50725200       1.20062300      -0.00008844      -0.00005106      -0.00099552
H        0.87858900      -0.50725200       1.20062300       0.00008844      -0.00005106      -0.00099552
H        0.00000000      -1.01450700      -1.20062800      -0.00000000      -0.00010212       0.00099553
H       -0.87858900       0.50725200      -1.20062300      -0.00008844       0.00005106       0.00099552
H        0.87858900       0.50725200      -1.20062400       0.00008844       0.00005106       0.00099552
