8
Properties=species:S:1:pos:R:3:forces:R:3 calculation_type=dimer_refinement calculation_label=C2H6/refinement_100/point_036_distance_1.39 d4_functional=PBE d4_method=pbe d4_energy_eV=-0.0740650431676144 source_geometry=/mnt/ceph/users/cwoodson/dft_calc/diatomics/dimer_jobs/C2H6/refinement_100/point_036_distance_1.39/geometry.in energy=-0.0740650431676144 free_energy=-0.0740650431676144 pbc="F F F"
C        0.00000000       0.00000000       0.69500000       0.00000000       0.00000000      -0.00361842
C        0.00000000       0.00000000      -0.69500000      -0.00000000      -0.00000000       0.00361842
H        0.00000000       1.01895700       1.09002000      -0.00000000       0.00032321      -0.00045790
H       -0.88244300      -0.50947900       1.09002000      -0.00027991      -0.00016161      -0.00045790
H        0.88244300      -0.50947900       1.09002000       0.00027991      -0.00016161      -0.00045790
H        0.00000000      -1.01895700      -1.09002000       0.00000000      -0.00032321       0.00045790
H       -0.88244300       0.50947900      -1.09002000      -0.00027991       0.00016161       0.00045790
H        0.88244300       0.50947900      -1.09002000       0.00027991       0.00016161       0.00045790
