8
Properties=species:S:1:pos:R:3:forces:R:3 calculation_type=dimer_refinement calculation_label=C2H6/refinement_41/point_031_distance_1.620000 d4_functional=PBE d4_method=pbe d4_energy_eV=-0.07262556630413099 source_geometry=/mnt/ceph/users/cwoodson/dft_calc/diatomics/dimer_jobs/C2H6/refinement_41/point_031_distance_1.620000/geometry.in energy=-0.07262556630413099 free_energy=-0.07262556630413099 pbc="F F F"
C        0.00000000      -0.00000000       0.81000000       0.00000000      -0.00000001      -0.00430209
C        0.00000000       0.00000000      -0.81000000       0.00000000       0.00000001       0.00430209
H       -0.00000000       1.01450700       1.20562800       0.00000000       0.00009602      -0.00101965
H       -0.87858900      -0.50725200       1.20562300      -0.00008316      -0.00004801      -0.00101964
H        0.87858900      -0.50725200       1.20562300       0.00008316      -0.00004801      -0.00101964
H        0.00000000      -1.01450700      -1.20562800      -0.00000000      -0.00009602       0.00101965
H       -0.87858900       0.50725200      -1.20562300      -0.00008316       0.00004801       0.00101964
H        0.87858900       0.50725200      -1.20562400       0.00008316       0.00004801       0.00101964
