8
Properties=species:S:1:pos:R:3:forces:R:3 calculation_type=dimer_refinement calculation_label=C2H6/refinement_100/point_088_distance_1.91 d4_functional=PBE d4_method=pbe d4_energy_eV=-0.07278936596274169 source_geometry=/mnt/ceph/users/cwoodson/dft_calc/diatomics/dimer_jobs/C2H6/refinement_100/point_088_distance_1.91/geometry.in energy=-0.07278936596274169 free_energy=-0.07278936596274169 pbc="F F F"
C        0.00000000       0.00000000       0.95500000       0.00000000       0.00000002       0.03664429
C        0.00000000       0.00000000      -0.95500000       0.00000000      -0.00000002      -0.03664429
H        0.00000000       1.01895700       1.35002000      -0.00000000       0.00122378      -0.00121655
H       -0.88244300      -0.50947900       1.35002000      -0.00105983      -0.00061189      -0.00121654
H        0.88244300      -0.50947900       1.35002000       0.00105983      -0.00061189      -0.00121654
H        0.00000000      -1.01895700      -1.35002000      -0.00000000      -0.00122378       0.00121655
H       -0.88244300       0.50947900      -1.35002000      -0.00105983       0.00061189       0.00121654
H        0.88244300       0.50947900      -1.35002000       0.00105983       0.00061189       0.00121654
