8
Properties=species:S:1:pos:R:3:forces:R:3 calculation_type=dimer_refinement calculation_label=C2H6/refinement_41/point_029_distance_1.600000 d4_functional=PBE d4_method=pbe d4_energy_eV=-0.0727712233924693 source_geometry=/mnt/ceph/users/cwoodson/dft_calc/diatomics/dimer_jobs/C2H6/refinement_41/point_029_distance_1.600000/geometry.in energy=-0.0727712233924693 free_energy=-0.0727712233924693 pbc="F F F"
C        0.00000000      -0.00000000       0.80000000       0.00000000      -0.00000001      -0.00428652
C        0.00000000       0.00000000      -0.80000000       0.00000000       0.00000001       0.00428652
H       -0.00000000       1.01450700       1.19562800       0.00000000       0.00010875      -0.00097121
H       -0.87858900      -0.50725200       1.19562300      -0.00009419      -0.00005438      -0.00097120
H        0.87858900      -0.50725200       1.19562300       0.00009419      -0.00005438      -0.00097120
H        0.00000000      -1.01450700      -1.19562800      -0.00000000      -0.00010875       0.00097121
H       -0.87858900       0.50725200      -1.19562300      -0.00009419       0.00005438       0.00097120
H        0.87858900       0.50725200      -1.19562400       0.00009419       0.00005438       0.00097120
