8
Properties=species:S:1:pos:R:3:forces:R:3 calculation_type=dimer_refinement calculation_label=C2H6/refinement_41/point_028_distance_1.590000 d4_functional=PBE d4_method=pbe d4_energy_eV=-0.07284278138124141 source_geometry=/mnt/ceph/users/cwoodson/dft_calc/diatomics/dimer_jobs/C2H6/refinement_41/point_028_distance_1.590000/geometry.in energy=-0.07284278138124141 free_energy=-0.07284278138124141 pbc="F F F"
C        0.00000000      -0.00000000       0.79500000       0.00000000      -0.00000001      -0.00427050
C        0.00000000       0.00000000      -0.79500000       0.00000000       0.00000001       0.00427050
H       -0.00000000       1.01450700       1.19062800       0.00000000       0.00011588      -0.00094672
H       -0.87858900      -0.50725200       1.19062300      -0.00010036      -0.00005794      -0.00094671
H        0.87858900      -0.50725200       1.19062300       0.00010036      -0.00005794      -0.00094671
H        0.00000000      -1.01450700      -1.19062800      -0.00000000      -0.00011588       0.00094672
H       -0.87858900       0.50725200      -1.19062300      -0.00010036       0.00005794       0.00094671
H        0.87858900       0.50725200      -1.19062400       0.00010036       0.00005794       0.00094671
