8
Properties=species:S:1:pos:R:3:forces:R:3 calculation_type=dimer_refinement calculation_label=C2H6/refinement_100/point_005_distance_1.08 d4_functional=PBE d4_method=pbe d4_energy_eV=-0.07510230268360352 source_geometry=/mnt/ceph/users/cwoodson/dft_calc/diatomics/dimer_jobs/C2H6/refinement_100/point_005_distance_1.08/geometry.in energy=-0.07510230268360352 free_energy=-0.07510230268360352 pbc="F F F"
C        0.00000000       0.00000000       0.54000000       0.00000000       0.00000000      -0.00237327
C        0.00000000       0.00000000      -0.54000000       0.00000000      -0.00000000       0.00237327
H        0.00000000       1.01895700       0.93502000      -0.00000000       0.00075850       0.00025966
H       -0.88244300      -0.50947900       0.93502000      -0.00065688      -0.00037925       0.00025966
H        0.88244300      -0.50947900       0.93502000       0.00065688      -0.00037925       0.00025966
H        0.00000000      -1.01895700      -0.93502000      -0.00000000      -0.00075850      -0.00025966
H       -0.88244300       0.50947900      -0.93502000      -0.00065688       0.00037925      -0.00025966
H        0.88244300       0.50947900      -0.93502000       0.00065688       0.00037925      -0.00025966
