8
Properties=species:S:1:pos:R:3:forces:R:3 calculation_type=dimer_refinement calculation_label=C2H6/refinement_100/point_052_distance_1.55 d4_functional=PBE d4_method=pbe d4_energy_eV=-0.07312660567005658 source_geometry=/mnt/ceph/users/cwoodson/dft_calc/diatomics/dimer_jobs/C2H6/refinement_100/point_052_distance_1.55/geometry.in energy=-0.07312660567005658 free_energy=-0.07312660567005658 pbc="F F F"
C        0.00000000       0.00000000       0.77500000      -0.00000000       0.00000000      -0.00416903
C        0.00000000       0.00000000      -0.77500000      -0.00000000      -0.00000000       0.00416903
H        0.00000000       1.01895700       1.17002000       0.00000000       0.00015610      -0.00085342
H       -0.88244300      -0.50947900       1.17002000      -0.00013518      -0.00007805      -0.00085342
H        0.88244300      -0.50947900       1.17002000       0.00013518      -0.00007805      -0.00085342
H        0.00000000      -1.01895700      -1.17002000       0.00000000      -0.00015610       0.00085342
H       -0.88244300       0.50947900      -1.17002000      -0.00013518       0.00007805       0.00085342
H        0.88244300       0.50947900      -1.17002000       0.00013518       0.00007805       0.00085342
