8
Properties=species:S:1:pos:R:3:forces:R:3 calculation_type=dimer_refinement calculation_label=C2H6/refinement_100/point_049_distance_1.52 d4_functional=PBE d4_method=pbe d4_energy_eV=-0.073323758460967 source_geometry=/mnt/ceph/users/cwoodson/dft_calc/diatomics/dimer_jobs/C2H6/refinement_100/point_049_distance_1.52/geometry.in energy=-0.073323758460967 free_energy=-0.073323758460967 pbc="F F F"
C        0.00000000       0.00000000       0.76000000      -0.00000000       0.00000000      -0.00407588
C        0.00000000       0.00000000      -0.76000000      -0.00000000      -0.00000000       0.00407588
H        0.00000000       1.01895700       1.15502000       0.00000000       0.00018347      -0.00077875
H       -0.88244300      -0.50947900       1.15502000      -0.00015889      -0.00009173      -0.00077875
H        0.88244300      -0.50947900       1.15502000       0.00015889      -0.00009173      -0.00077875
H        0.00000000      -1.01895700      -1.15502000       0.00000000      -0.00018347       0.00077875
H       -0.88244300       0.50947900      -1.15502000      -0.00015889       0.00009173       0.00077875
H        0.88244300       0.50947900      -1.15502000       0.00015889       0.00009173       0.00077875
