8
Properties=species:S:1:pos:R:3:forces:R:3 calculation_type=dimer_refinement calculation_label=C2H6/refinement_100/point_035_distance_1.38 d4_functional=PBE d4_method=pbe d4_energy_eV=-0.07411442398249528 source_geometry=/mnt/ceph/users/cwoodson/dft_calc/diatomics/dimer_jobs/C2H6/refinement_100/point_035_distance_1.38/geometry.in energy=-0.07411442398249528 free_energy=-0.07411442398249528 pbc="F F F"
C        0.00000000       0.00000000       0.69000000       0.00000000       0.00000000      -0.00358271
C        0.00000000       0.00000000      -0.69000000      -0.00000000      -0.00000000       0.00358271
H        0.00000000       1.01895700       1.08502000      -0.00000000       0.00033497      -0.00043380
H       -0.88244300      -0.50947900       1.08502000      -0.00029009      -0.00016748      -0.00043380
H        0.88244300      -0.50947900       1.08502000       0.00029009      -0.00016748      -0.00043380
H        0.00000000      -1.01895700      -1.08502000       0.00000000      -0.00033497       0.00043380
H       -0.88244300       0.50947900      -1.08502000      -0.00029009       0.00016748       0.00043380
H        0.88244300       0.50947900      -1.08502000       0.00029009       0.00016748       0.00043380
