8
Properties=species:S:1:pos:R:3:forces:R:3 calculation_type=dimer_refinement calculation_label=C2H6/refinement_41/point_019_distance_1.500000 d4_functional=PBE d4_method=pbe d4_energy_eV=-0.07344188026228927 source_geometry=/mnt/ceph/users/cwoodson/dft_calc/diatomics/dimer_jobs/C2H6/refinement_41/point_019_distance_1.500000/geometry.in energy=-0.07344188026228927 free_energy=-0.07344188026228927 pbc="F F F"
C        0.00000000       0.00000000       0.75000000       0.00000000      -0.00000001      -0.00401030
C        0.00000000       0.00000000      -0.75000000       0.00000000       0.00000001       0.00401030
H        0.00000000       1.01450700       1.14562800       0.00000000       0.00019588      -0.00072246
H       -0.87858900      -0.50725200       1.14562300      -0.00016965      -0.00009795      -0.00072245
H        0.87858900      -0.50725200       1.14562300       0.00016965      -0.00009795      -0.00072245
H       -0.00000000      -1.01450700      -1.14562800      -0.00000000      -0.00019588       0.00072246
H       -0.87858900       0.50725200      -1.14562300      -0.00016965       0.00009795       0.00072245
H        0.87858900       0.50725200      -1.14562400       0.00016965       0.00009795       0.00072245
