8
Properties=species:S:1:pos:R:3:forces:R:3 calculation_type=dimer_refinement calculation_label=C2H6/refinement_100/point_012_distance_1.15 d4_functional=PBE d4_method=pbe d4_energy_eV=-0.0749594455195943 source_geometry=/mnt/ceph/users/cwoodson/dft_calc/diatomics/dimer_jobs/C2H6/refinement_100/point_012_distance_1.15/geometry.in energy=-0.0749594455195943 free_energy=-0.0749594455195943 pbc="F F F"
C        0.00000000       0.00000000       0.57500000      -0.00000000       0.00000000      -0.00273385
C        0.00000000       0.00000000      -0.57500000       0.00000000      -0.00000000       0.00273385
H        0.00000000       1.01895700       0.97002000       0.00000000       0.00064083       0.00009157
H       -0.88244300      -0.50947900       0.97002000      -0.00055497      -0.00032041       0.00009157
H        0.88244300      -0.50947900       0.97002000       0.00055497      -0.00032041       0.00009157
H        0.00000000      -1.01895700      -0.97002000       0.00000000      -0.00064083      -0.00009157
H       -0.88244300       0.50947900      -0.97002000      -0.00055497       0.00032041      -0.00009157
H        0.88244300       0.50947900      -0.97002000       0.00055497       0.00032041      -0.00009157
