8
Properties=species:S:1:pos:R:3:forces:R:3 calculation_type=dimer_refinement calculation_label=C2H6/refinement_100/point_007_distance_1.10 d4_functional=PBE d4_method=pbe d4_energy_eV=-0.07506774094057597 source_geometry=/mnt/ceph/users/cwoodson/dft_calc/diatomics/dimer_jobs/C2H6/refinement_100/point_007_distance_1.10/geometry.in energy=-0.07506774094057597 free_energy=-0.07506774094057597 pbc="F F F"
C        0.00000000       0.00000000       0.55000000      -0.00000000       0.00000000      -0.00248841
C        0.00000000       0.00000000      -0.55000000      -0.00000000      -0.00000000       0.00248841
H        0.00000000       1.01895700       0.94502000      -0.00000000       0.00072294       0.00020971
H       -0.88244300      -0.50947900       0.94502000      -0.00062608      -0.00036147       0.00020971
H        0.88244300      -0.50947900       0.94502000       0.00062608      -0.00036147       0.00020971
H        0.00000000      -1.01895700      -0.94502000       0.00000000      -0.00072294      -0.00020971
H       -0.88244300       0.50947900      -0.94502000      -0.00062608       0.00036147      -0.00020971
H        0.88244300       0.50947900      -0.94502000       0.00062608       0.00036147      -0.00020971
