8
Properties=species:S:1:pos:R:3:forces:R:3 calculation_type=dimer_refinement calculation_label=C2H6/refinement_100/point_023_distance_1.26 d4_functional=PBE d4_method=pbe d4_energy_eV=-0.07462414833977292 source_geometry=/mnt/ceph/users/cwoodson/dft_calc/diatomics/dimer_jobs/C2H6/refinement_100/point_023_distance_1.26/geometry.in energy=-0.07462414833977292 free_energy=-0.07462414833977292 pbc="F F F"
C        0.00000000       0.00000000       0.63000000      -0.00000000       0.00000000      -0.00315749
C        0.00000000       0.00000000      -0.63000000       0.00000000      -0.00000000       0.00315749
H        0.00000000       1.01895700       1.02502000       0.00000000       0.00048485      -0.00015451
H       -0.88244300      -0.50947900       1.02502000      -0.00041989      -0.00024243      -0.00015451
H        0.88244300      -0.50947900       1.02502000       0.00041989      -0.00024243      -0.00015451
H        0.00000000      -1.01895700      -1.02502000      -0.00000000      -0.00048485       0.00015451
H       -0.88244300       0.50947900      -1.02502000      -0.00041989       0.00024243       0.00015451
H        0.88244300       0.50947900      -1.02502000       0.00041989       0.00024243       0.00015451
