8
Properties=species:S:1:pos:R:3:forces:R:3 calculation_type=dimer_refinement calculation_label=C2H6/refinement_100/point_071_distance_1.74 d4_functional=PBE d4_method=pbe d4_energy_eV=-0.07174619412670641 source_geometry=/mnt/ceph/users/cwoodson/dft_calc/diatomics/dimer_jobs/C2H6/refinement_100/point_071_distance_1.74/geometry.in energy=-0.07174619412670641 free_energy=-0.07174619412670641 pbc="F F F"
C        0.00000000       0.00000000       0.87000000      -0.00000000       0.00000000      -0.00280756
C        0.00000000       0.00000000      -0.87000000      -0.00000000      -0.00000000       0.00280756
H        0.00000000       1.01895700       1.26502000      -0.00000000       0.00012117      -0.00127675
H       -0.88244300      -0.50947900       1.26502000      -0.00010494      -0.00006058      -0.00127675
H        0.88244300      -0.50947900       1.26502000       0.00010494      -0.00006058      -0.00127675
H        0.00000000      -1.01895700      -1.26502000       0.00000000      -0.00012117       0.00127675
H       -0.88244300       0.50947900      -1.26502000      -0.00010494       0.00006058       0.00127675
H        0.88244300       0.50947900      -1.26502000       0.00010494       0.00006058       0.00127675
