8
Properties=species:S:1:pos:R:3:forces:R:3 calculation_type=dimer_refinement calculation_label=C2H6/refinement_41/point_025_distance_1.560000 d4_functional=PBE d4_method=pbe d4_energy_eV=-0.07305178769236925 source_geometry=/mnt/ceph/users/cwoodson/dft_calc/diatomics/dimer_jobs/C2H6/refinement_41/point_025_distance_1.560000/geometry.in energy=-0.07305178769236925 free_energy=-0.07305178769236925 pbc="F F F"
C        0.00000000      -0.00000000       0.78000000       0.00000000      -0.00000001      -0.00420063
C        0.00000000       0.00000000      -0.78000000       0.00000000       0.00000001       0.00420063
H       -0.00000000       1.01450700       1.17562800       0.00000000       0.00013976      -0.00087250
H       -0.87858900      -0.50725200       1.17562300      -0.00012104      -0.00006988      -0.00087249
H        0.87858900      -0.50725200       1.17562300       0.00012104      -0.00006988      -0.00087249
H        0.00000000      -1.01450700      -1.17562800      -0.00000000      -0.00013976       0.00087250
H       -0.87858900       0.50725200      -1.17562300      -0.00012104       0.00006988       0.00087249
H        0.87858900       0.50725200      -1.17562400       0.00012104       0.00006988       0.00087249
