8
Properties=species:S:1:pos:R:3:forces:R:3 calculation_type=dimer_refinement calculation_label=C2H6/refinement_100/point_013_distance_1.16 d4_functional=PBE d4_method=pbe d4_energy_eV=-0.07493429477911469 source_geometry=/mnt/ceph/users/cwoodson/dft_calc/diatomics/dimer_jobs/C2H6/refinement_100/point_013_distance_1.16/geometry.in energy=-0.07493429477911469 free_energy=-0.07493429477911469 pbc="F F F"
C        0.00000000       0.00000000       0.58000000       0.00000000       0.00000000      -0.00277714
C        0.00000000       0.00000000      -0.58000000      -0.00000000      -0.00000000       0.00277714
H        0.00000000       1.01895700       0.97502000      -0.00000000       0.00062547       0.00006883
H       -0.88244300      -0.50947900       0.97502000      -0.00054167      -0.00031274       0.00006883
H        0.88244300      -0.50947900       0.97502000       0.00054167      -0.00031274       0.00006883
H        0.00000000      -1.01895700      -0.97502000       0.00000000      -0.00062547      -0.00006883
H       -0.88244300       0.50947900      -0.97502000      -0.00054167       0.00031274      -0.00006883
H        0.88244300       0.50947900      -0.97502000       0.00054167       0.00031274      -0.00006883
