8
Properties=species:S:1:pos:R:3:forces:R:3 calculation_type=dimer_refinement calculation_label=C2H6/refinement_100/point_079_distance_1.82 d4_functional=PBE d4_method=pbe d4_energy_eV=-0.07143833916244423 source_geometry=/mnt/ceph/users/cwoodson/dft_calc/diatomics/dimer_jobs/C2H6/refinement_100/point_079_distance_1.82/geometry.in energy=-0.07143833916244423 free_energy=-0.07143833916244423 pbc="F F F"
C        0.00000000       0.00000000       0.91000000      -0.00000000       0.00000001       0.00504465
C        0.00000000       0.00000000      -0.91000000       0.00000000      -0.00000001      -0.00504465
H        0.00000000       1.01895700       1.30502000       0.00000000       0.00037732      -0.00134575
H       -0.88244300      -0.50947900       1.30502000      -0.00032677      -0.00018866      -0.00134575
H        0.88244300      -0.50947900       1.30502000       0.00032677      -0.00018866      -0.00134575
H        0.00000000      -1.01895700      -1.30502000       0.00000000      -0.00037732       0.00134575
H       -0.88244300       0.50947900      -1.30502000      -0.00032677       0.00018866       0.00134575
H        0.88244300       0.50947900      -1.30502000       0.00032677       0.00018866       0.00134575
