8
Properties=species:S:1:pos:R:3:forces:R:3 calculation_type=dimer_refinement calculation_label=C2H6/refinement_100/point_066_distance_1.69 d4_functional=PBE d4_method=pbe d4_energy_eV=-0.07210589204648393 source_geometry=/mnt/ceph/users/cwoodson/dft_calc/diatomics/dimer_jobs/C2H6/refinement_100/point_066_distance_1.69/geometry.in energy=-0.07210589204648393 free_energy=-0.07210589204648393 pbc="F F F"
C        0.00000000       0.00000000       0.84500000       0.00000000       0.00000000      -0.00397029
C        0.00000000       0.00000000      -0.84500000       0.00000000      -0.00000000       0.00397029
H        0.00000000       1.01895700       1.24002000      -0.00000000       0.00008842      -0.00118250
H       -0.88244300      -0.50947900       1.24002000      -0.00007657      -0.00004421      -0.00118250
H        0.88244300      -0.50947900       1.24002000       0.00007657      -0.00004421      -0.00118250
H        0.00000000      -1.01895700      -1.24002000      -0.00000000      -0.00008842       0.00118250
H       -0.88244300       0.50947900      -1.24002000      -0.00007657       0.00004421       0.00118250
H        0.88244300       0.50947900      -1.24002000       0.00007657       0.00004421       0.00118250
