8
Properties=species:S:1:pos:R:3:forces:R:3 calculation_type=dimer_refinement calculation_label=C2H6/refinement_100/point_091_distance_1.94 d4_functional=PBE d4_method=pbe d4_energy_eV=-0.07391113892152819 source_geometry=/mnt/ceph/users/cwoodson/dft_calc/diatomics/dimer_jobs/C2H6/refinement_100/point_091_distance_1.94/geometry.in energy=-0.07391113892152819 free_energy=-0.07391113892152819 pbc="F F F"
C        0.00000000       0.00000000       0.97000000       0.00000000       0.00000002       0.04367695
C        0.00000000       0.00000000      -0.97000000       0.00000000      -0.00000002      -0.04367695
H        0.00000000       1.01895700       1.36502000      -0.00000000       0.00133212      -0.00124782
H       -0.88244300      -0.50947900       1.36502000      -0.00115366      -0.00066607      -0.00124781
H        0.88244300      -0.50947900       1.36502000       0.00115366      -0.00066607      -0.00124781
H        0.00000000      -1.01895700      -1.36502000      -0.00000000      -0.00133212       0.00124782
H       -0.88244300       0.50947900      -1.36502000      -0.00115366       0.00066607       0.00124781
H        0.88244300       0.50947900      -1.36502000       0.00115366       0.00066607       0.00124781
