8
Properties=species:S:1:pos:R:3:forces:R:3 calculation_type=dimer_refinement calculation_label=C2H6/refinement_100/point_081_distance_1.84 d4_functional=PBE d4_method=pbe d4_energy_eV=-0.07150204261935189 source_geometry=/mnt/ceph/users/cwoodson/dft_calc/diatomics/dimer_jobs/C2H6/refinement_100/point_081_distance_1.84/geometry.in energy=-0.07150204261935189 free_energy=-0.07150204261935189 pbc="F F F"
C        0.00000000       0.00000000       0.92000000      -0.00000000       0.00000001       0.00963009
C        0.00000000       0.00000000      -0.92000000       0.00000000      -0.00000001      -0.00963009
H        0.00000000       1.01895700       1.31502000       0.00000000       0.00051625      -0.00133415
H       -0.88244300      -0.50947900       1.31502000      -0.00044709      -0.00025813      -0.00133415
H        0.88244300      -0.50947900       1.31502000       0.00044709      -0.00025813      -0.00133415
H        0.00000000      -1.01895700      -1.31502000      -0.00000000      -0.00051625       0.00133415
H       -0.88244300       0.50947900      -1.31502000      -0.00044709       0.00025813       0.00133415
H        0.88244300       0.50947900      -1.31502000       0.00044709       0.00025813       0.00133415
