8
Properties=species:S:1:pos:R:3:forces:R:3 calculation_type=dimer_refinement calculation_label=C2H6/refinement_100/point_004_distance_1.07 d4_functional=PBE d4_method=pbe d4_energy_eV=-0.07511755732081664 source_geometry=/mnt/ceph/users/cwoodson/dft_calc/diatomics/dimer_jobs/C2H6/refinement_100/point_004_distance_1.07/geometry.in energy=-0.07511755732081664 free_energy=-0.07511755732081664 pbc="F F F"
C        0.00000000       0.00000000       0.53500000       0.00000000       0.00000000      -0.00231168
C        0.00000000       0.00000000      -0.53500000      -0.00000000      -0.00000000       0.00231168
H        0.00000000       1.01895700       0.93002000       0.00000000       0.00077681       0.00028522
H       -0.88244300      -0.50947900       0.93002000      -0.00067274      -0.00038841       0.00028522
H        0.88244300      -0.50947900       0.93002000       0.00067274      -0.00038841       0.00028522
H        0.00000000      -1.01895700      -0.93002000       0.00000000      -0.00077681      -0.00028522
H       -0.88244300       0.50947900      -0.93002000      -0.00067274       0.00038841      -0.00028522
H        0.88244300       0.50947900      -0.93002000       0.00067274       0.00038841      -0.00028522
