8
Properties=species:S:1:pos:R:3:forces:R:3 calculation_type=dimer_refinement calculation_label=C2H6/refinement_41/point_013_distance_1.440000 d4_functional=PBE d4_method=pbe d4_energy_eV=-0.07379272584984838 source_geometry=/mnt/ceph/users/cwoodson/dft_calc/diatomics/dimer_jobs/C2H6/refinement_41/point_013_distance_1.440000/geometry.in energy=-0.07379272584984838 free_energy=-0.07379272584984838 pbc="F F F"
C        0.00000000       0.00000000       0.72000000       0.00000000      -0.00000001      -0.00379780
C        0.00000000       0.00000000      -0.72000000       0.00000000       0.00000001       0.00379780
H        0.00000000       1.01450700       1.11562800       0.00000000       0.00025956      -0.00057298
H       -0.87858900      -0.50725200       1.11562300      -0.00022480      -0.00012979      -0.00057297
H        0.87858900      -0.50725200       1.11562300       0.00022480      -0.00012979      -0.00057297
H       -0.00000000      -1.01450700      -1.11562800      -0.00000000      -0.00025957       0.00057298
H       -0.87858900       0.50725200      -1.11562300      -0.00022480       0.00012979       0.00057297
H        0.87858900       0.50725200      -1.11562400       0.00022480       0.00012979       0.00057298
