8
Properties=species:S:1:pos:R:3:forces:R:3 calculation_type=dimer_refinement calculation_label=CH3SiH3/refinement_100/point_028_distance_1.66 d4_functional=PBE d4_method=pbe d4_energy_eV=-0.10456711610032084 source_geometry=/mnt/ceph/users/cwoodson/dft_calc/diatomics/dimer_jobs/CH3SiH3/refinement_100/point_028_distance_1.66/geometry.in energy=-0.10456711610032084 free_energy=-0.10456711610032084 pbc="F F F"
C        0.00000000       0.00000000      -0.83000000       0.00000000      -0.00000000       0.00781081
Si       0.00000000       0.00000000       0.83000000      -0.00000000       0.00000000      -0.00563473
H        0.00000000      -1.01976200      -1.22189700       0.00000000      -0.00061283       0.00121828
H       -0.88314000       0.50988100      -1.22189700      -0.00053072       0.00030641       0.00121828
H        0.88314000       0.50988100      -1.22189700       0.00053072       0.00030641       0.00121828
H        0.00000000       1.39123400       1.35297900       0.00000000      -0.00058543      -0.00194364
H       -1.20484400      -0.69561700       1.35297900       0.00050699       0.00029271      -0.00194364
H        1.20484400      -0.69561700       1.35297900      -0.00050699       0.00029271      -0.00194364
