8
Properties=species:S:1:pos:R:3:forces:R:3 calculation_type=dimer_refinement calculation_label=CH3SiH3/refinement_100/point_089_distance_2.27 d4_functional=PBE d4_method=pbe d4_energy_eV=-0.10028230744334841 source_geometry=/mnt/ceph/users/cwoodson/dft_calc/diatomics/dimer_jobs/CH3SiH3/refinement_100/point_089_distance_2.27/geometry.in energy=-0.10028230744334841 free_energy=-0.10028230744334841 pbc="F F F"
C        0.00000000       0.00000000      -1.13500000      -0.00000000      -0.00000001      -0.03943114
Si       0.00000000       0.00000000       1.13500000       0.00000000       0.00000000       0.03505836
H        0.00000000      -1.01976200      -1.52689700       0.00000000      -0.00178547       0.00210412
H       -0.88314000       0.50988100      -1.52689700      -0.00154627       0.00089274       0.00210411
H        0.88314000       0.50988100      -1.52689700       0.00154627       0.00089274       0.00210411
H        0.00000000       1.39123400       1.65797900       0.00000000       0.00514215      -0.00064652
H       -1.20484400      -0.69561700       1.65797900      -0.00445323      -0.00257107      -0.00064652
H        1.20484400      -0.69561700       1.65797900       0.00445323      -0.00257107      -0.00064652
