8
Properties=species:S:1:pos:R:3:forces:R:3 calculation_type=dimer_refinement calculation_label=CH3SiH3/refinement_100/point_049_distance_1.87 d4_functional=PBE d4_method=pbe d4_energy_eV=-0.10186883112402904 source_geometry=/mnt/ceph/users/cwoodson/dft_calc/diatomics/dimer_jobs/CH3SiH3/refinement_100/point_049_distance_1.87/geometry.in energy=-0.10186883112402904 free_energy=-0.10186883112402904 pbc="F F F"
C        0.00000000       0.00000000      -0.93500000      -0.00000000      -0.00000000       0.00820525
Si       0.00000000       0.00000000       0.93500000      -0.00000000       0.00000000      -0.00674996
H        0.00000000      -1.01976200      -1.32689700       0.00000000      -0.00040980       0.00186098
H       -0.88314000       0.50988100      -1.32689700      -0.00035490       0.00020490       0.00186098
H        0.88314000       0.50988100      -1.32689700       0.00035490       0.00020490       0.00186098
H        0.00000000       1.39123400       1.45797900       0.00000000      -0.00061016      -0.00234607
H       -1.20484400      -0.69561700       1.45797900       0.00052841       0.00030508      -0.00234607
H        1.20484400      -0.69561700       1.45797900      -0.00052841       0.00030508      -0.00234607
