8
Properties=species:S:1:pos:R:3:forces:R:3 calculation_type=dimer_refinement calculation_label=CH3SiH3/refinement_100/point_080_distance_2.18 d4_functional=PBE d4_method=pbe d4_energy_eV=-0.09868229129638961 source_geometry=/mnt/ceph/users/cwoodson/dft_calc/diatomics/dimer_jobs/CH3SiH3/refinement_100/point_080_distance_2.18/geometry.in energy=-0.09868229129638961 free_energy=-0.09868229129638961 pbc="F F F"
C        0.00000000       0.00000000      -1.09000000       0.00000000      -0.00000000      -0.01045507
Si       0.00000000       0.00000000       1.09000000       0.00000000       0.00000000       0.00981030
H        0.00000000      -1.01976200      -1.48189700      -0.00000000      -0.00121379       0.00214072
H       -0.88314000       0.50988100      -1.48189700      -0.00105118       0.00060690       0.00214072
H        0.88314000       0.50988100      -1.48189700       0.00105118       0.00060690       0.00214072
H        0.00000000       1.39123400       1.61297900      -0.00000000       0.00149336      -0.00192580
H       -1.20484400      -0.69561700       1.61297900      -0.00129328      -0.00074668      -0.00192580
H        1.20484400      -0.69561700       1.61297900       0.00129328      -0.00074668      -0.00192580
