8
Properties=species:S:1:pos:R:3:forces:R:3 calculation_type=dimer_refinement calculation_label=CH3SiH3/refinement_100/point_009_distance_1.47 d4_functional=PBE d4_method=pbe d4_energy_eV=-0.10632010173247818 source_geometry=/mnt/ceph/users/cwoodson/dft_calc/diatomics/dimer_jobs/CH3SiH3/refinement_100/point_009_distance_1.47/geometry.in energy=-0.10632010173247818 free_energy=-0.10632010173247818 pbc="F F F"
C        0.00000000       0.00000000      -0.73500000      -0.00000000      -0.00000000       0.00702225
Si       0.00000000       0.00000000       0.73500000       0.00000000       0.00000000      -0.00178380
H        0.00000000      -1.01976200      -1.12689700      -0.00000000      -0.00124461      -0.00014733
H       -0.88314000       0.50988100      -1.12689700      -0.00107787       0.00062231      -0.00014733
H        0.88314000       0.50988100      -1.12689700       0.00107787       0.00062231      -0.00014733
H        0.00000000       1.39123400       1.25797900      -0.00000000      -0.00077250      -0.00159882
H       -1.20484400      -0.69561700       1.25797900       0.00066901       0.00038625      -0.00159882
H        1.20484400      -0.69561700       1.25797900      -0.00066901       0.00038625      -0.00159882
