8
Properties=species:S:1:pos:R:3:forces:R:3 calculation_type=dimer_refinement calculation_label=CH3SiH3/refinement_41/point_019_distance_1.850000 d4_functional=PBE d4_method=pbe d4_energy_eV=-0.10219003323552188 source_geometry=/mnt/ceph/users/cwoodson/dft_calc/diatomics/dimer_jobs/CH3SiH3/refinement_41/point_019_distance_1.850000/geometry.in energy=-0.10219003323552188 free_energy=-0.10219003323552188 pbc="F F F"
C        0.00000000       0.00000297      -0.92500000       0.00000000      -0.00000002       0.00819528
Si       0.00000000      -0.00000297       0.92500000       0.00000000      -0.00000001      -0.00655796
H       -0.00000100      -1.01749203      -1.31273400      -0.00000000      -0.00039488       0.00181741
H       -0.88117700       0.50875197      -1.31272400      -0.00034198       0.00019744       0.00181741
H        0.88117800       0.50874997      -1.31272400       0.00034198       0.00019744       0.00181741
H       -0.00000100       1.38371103       1.44640200       0.00000000      -0.00074943      -0.00236317
H       -1.19833100      -0.69185297       1.44641500       0.00064904       0.00037473      -0.00236319
H        1.19833200      -0.69185097       1.44641500      -0.00064904       0.00037473      -0.00236319
