8
Properties=species:S:1:pos:R:3:forces:R:3 calculation_type=dimer_refinement calculation_label=CH3SiH3/refinement_100/point_062_distance_2.00 d4_functional=PBE d4_method=pbe d4_energy_eV=-0.10008394455901609 source_geometry=/mnt/ceph/users/cwoodson/dft_calc/diatomics/dimer_jobs/CH3SiH3/refinement_100/point_062_distance_2.00/geometry.in energy=-0.10008394455901609 free_energy=-0.10008394455901609 pbc="F F F"
C        0.00000000       0.00000000      -1.00000000       0.00000000      -0.00000000       0.00686811
Si       0.00000000       0.00000000       1.00000000      -0.00000000       0.00000000      -0.00579376
H        0.00000000      -1.01976200      -1.39189700       0.00000000      -0.00044140       0.00210574
H       -0.88314000       0.50988100      -1.39189700      -0.00038226       0.00022070       0.00210574
H        0.88314000       0.50988100      -1.39189700       0.00038226       0.00022070       0.00210574
H        0.00000000       1.39123400       1.52297900      -0.00000000      -0.00043056      -0.00246386
H       -1.20484400      -0.69561700       1.52297900       0.00037287       0.00021528      -0.00246386
H        1.20484400      -0.69561700       1.52297900      -0.00037287       0.00021528      -0.00246386
