8
Properties=species:S:1:pos:R:3:forces:R:3 calculation_type=dimer_refinement calculation_label=CH3SiH3/refinement_100/point_020_distance_1.58 d4_functional=PBE d4_method=pbe d4_energy_eV=-0.10541907894212188 source_geometry=/mnt/ceph/users/cwoodson/dft_calc/diatomics/dimer_jobs/CH3SiH3/refinement_100/point_020_distance_1.58/geometry.in energy=-0.10541907894212188 free_energy=-0.10541907894212188 pbc="F F F"
C        0.00000000       0.00000000      -0.79000000       0.00000000      -0.00000000       0.00748453
Si       0.00000000       0.00000000       0.79000000       0.00000000       0.00000000      -0.00437706
H        0.00000000      -1.01976200      -1.18189700       0.00000000      -0.00081564       0.00074876
H       -0.88314000       0.50988100      -1.18189700      -0.00070636       0.00040782       0.00074876
H        0.88314000       0.50988100      -1.18189700       0.00070636       0.00040782       0.00074876
H        0.00000000       1.39123400       1.31297900      -0.00000000      -0.00061651      -0.00178459
H       -1.20484400      -0.69561700       1.31297900       0.00053391       0.00030825      -0.00178459
H        1.20484400      -0.69561700       1.31297900      -0.00053391       0.00030825      -0.00178459
