8
Properties=species:S:1:pos:R:3:forces:R:3 calculation_type=dimer_refinement calculation_label=CH3SiH3/refinement_100/point_047_distance_1.85 d4_functional=PBE d4_method=pbe d4_energy_eV=-0.10214361369743603 source_geometry=/mnt/ceph/users/cwoodson/dft_calc/diatomics/dimer_jobs/CH3SiH3/refinement_100/point_047_distance_1.85/geometry.in energy=-0.10214361369743603 free_energy=-0.10214361369743603 pbc="F F F"
C        0.00000000       0.00000000      -0.92500000       0.00000000      -0.00000000       0.00823711
Si       0.00000000       0.00000000       0.92500000       0.00000000       0.00000000      -0.00673973
H        0.00000000      -1.01976200      -1.31689700      -0.00000000      -0.00041768       0.00181590
H       -0.88314000       0.50988100      -1.31689700      -0.00036173       0.00020884       0.00181590
H        0.88314000       0.50988100      -1.31689700       0.00036173       0.00020884       0.00181590
H        0.00000000       1.39123400       1.44797900      -0.00000000      -0.00061509      -0.00231503
H       -1.20484400      -0.69561700       1.44797900       0.00053268       0.00030754      -0.00231503
H        1.20484400      -0.69561700       1.44797900      -0.00053268       0.00030754      -0.00231503
