8
Properties=species:S:1:pos:R:3:forces:R:3 calculation_type=dimer_refinement calculation_label=CH3SiH3/refinement_100/point_027_distance_1.65 d4_functional=PBE d4_method=pbe d4_energy_eV=-0.10468086106161689 source_geometry=/mnt/ceph/users/cwoodson/dft_calc/diatomics/dimer_jobs/CH3SiH3/refinement_100/point_027_distance_1.65/geometry.in energy=-0.10468086106161689 free_energy=-0.10468086106161689 pbc="F F F"
C        0.00000000       0.00000000      -0.82500000      -0.00000000      -0.00000000       0.00777158
Si       0.00000000       0.00000000       0.82500000      -0.00000000       0.00000000      -0.00551324
H        0.00000000      -1.01976200      -1.21689700      -0.00000000      -0.00063242       0.00117010
H       -0.88314000       0.50988100      -1.21689700      -0.00054769       0.00031621       0.00117010
H        0.88314000       0.50988100      -1.21689700       0.00054769       0.00031621       0.00117010
H        0.00000000       1.39123400       1.34797900       0.00000000      -0.00058574      -0.00192288
H       -1.20484400      -0.69561700       1.34797900       0.00050727       0.00029287      -0.00192288
H        1.20484400      -0.69561700       1.34797900      -0.00050727       0.00029287      -0.00192288
