8
Properties=species:S:1:pos:R:3:forces:R:3 calculation_type=dimer_refinement calculation_label=CH3SiH3/refinement_41/point_030_distance_1.960000 d4_functional=PBE d4_method=pbe d4_energy_eV=-0.10067143444945509 source_geometry=/mnt/ceph/users/cwoodson/dft_calc/diatomics/dimer_jobs/CH3SiH3/refinement_41/point_030_distance_1.960000/geometry.in energy=-0.10067143444945509 free_energy=-0.10067143444945509 pbc="F F F"
C        0.00000000       0.00000315      -0.98000000       0.00000000      -0.00000001       0.00758273
Si      -0.00000000      -0.00000315       0.98000000       0.00000000      -0.00000001      -0.00620392
H       -0.00000100      -1.01749185      -1.36773400      -0.00000000      -0.00038231       0.00204643
H       -0.88117700       0.50875215      -1.36772400      -0.00033109       0.00019115       0.00204643
H        0.88117800       0.50875015      -1.36772400       0.00033109       0.00019115       0.00204643
H       -0.00000100       1.38371085       1.50140200       0.00000000      -0.00067837      -0.00250603
H       -1.19833100      -0.69185315       1.50141500       0.00058749       0.00033920      -0.00250604
H        1.19833200      -0.69185115       1.50141500      -0.00058749       0.00033920      -0.00250604
