8
Properties=species:S:1:pos:R:3:forces:R:3 calculation_type=dimer_refinement calculation_label=CH3SiH3/refinement_100/point_092_distance_2.30 d4_functional=PBE d4_method=pbe d4_energy_eV=-0.10140777543593613 source_geometry=/mnt/ceph/users/cwoodson/dft_calc/diatomics/dimer_jobs/CH3SiH3/refinement_100/point_092_distance_2.30/geometry.in energy=-0.10140777543593613 free_energy=-0.10140777543593613 pbc="F F F"
C        0.00000000       0.00000000      -1.15000000       0.00000000      -0.00000001      -0.04796831
Si       0.00000000       0.00000000       1.15000000      -0.00000000       0.00000000       0.04152338
H        0.00000000      -1.01976200      -1.54189700      -0.00000000      -0.00162541       0.00223801
H       -0.88314000       0.50988100      -1.54189700      -0.00140765       0.00081271       0.00223801
H        0.88314000       0.50988100      -1.54189700       0.00140765       0.00081271       0.00223801
H        0.00000000       1.39123400       1.67297900       0.00000000       0.00670468      -0.00008970
H       -1.20484400      -0.69561700       1.67297900      -0.00580642      -0.00335234      -0.00008970
H        1.20484400      -0.69561700       1.67297900       0.00580642      -0.00335234      -0.00008970
