8
Properties=species:S:1:pos:R:3:forces:R:3 calculation_type=dimer_refinement calculation_label=CH3SiH3/refinement_41/point_033_distance_1.990000 d4_functional=PBE d4_method=pbe d4_energy_eV=-0.1002640791110202 source_geometry=/mnt/ceph/users/cwoodson/dft_calc/diatomics/dimer_jobs/CH3SiH3/refinement_41/point_033_distance_1.990000/geometry.in energy=-0.1002640791110202 free_energy=-0.1002640791110202 pbc="F F F"
C        0.00000000       0.00000320      -0.99500000       0.00000000      -0.00000001       0.00710383
Si      -0.00000000      -0.00000320       0.99500000       0.00000000      -0.00000001      -0.00582128
H       -0.00000100      -1.01749180      -1.38273400      -0.00000000      -0.00039966       0.00209795
H       -0.88117700       0.50875220      -1.38272400      -0.00034611       0.00019983       0.00209795
H        0.88117800       0.50875020      -1.38272400       0.00034611       0.00019983       0.00209795
H       -0.00000100       1.38371080       1.51640200       0.00000000      -0.00062380      -0.00252546
H       -1.19833100      -0.69185320       1.51641500       0.00054023       0.00031191      -0.00252547
H        1.19833200      -0.69185120       1.51641500      -0.00054024       0.00031191      -0.00252547
