8
Properties=species:S:1:pos:R:3:forces:R:3 calculation_type=dimer_refinement calculation_label=CH3SiH3/refinement_41/point_023_distance_1.890000 d4_functional=PBE d4_method=pbe d4_energy_eV=-0.1016399713949681 source_geometry=/mnt/ceph/users/cwoodson/dft_calc/diatomics/dimer_jobs/CH3SiH3/refinement_41/point_023_distance_1.890000/geometry.in energy=-0.1016399713949681 free_energy=-0.1016399713949681 pbc="F F F"
C        0.00000000       0.00000304      -0.94500000       0.00000000      -0.00000002       0.00811205
Si      -0.00000000      -0.00000304       0.94500000       0.00000000      -0.00000001      -0.00655693
H       -0.00000100      -1.01749196      -1.33273400      -0.00000000      -0.00038012       0.00190707
H       -0.88117700       0.50875204      -1.33272400      -0.00032919       0.00019006       0.00190707
H        0.88117800       0.50875004      -1.33272400       0.00032919       0.00019006       0.00190707
H       -0.00000100       1.38371096       1.46640200       0.00000000      -0.00074016      -0.00242543
H       -1.19833100      -0.69185304       1.46641500       0.00064101       0.00037009      -0.00242545
H        1.19833200      -0.69185104       1.46641500      -0.00064101       0.00037009      -0.00242545
