8
Properties=species:S:1:pos:R:3:forces:R:3 calculation_type=dimer_refinement calculation_label=CH3SiH3/refinement_100/point_043_distance_1.81 d4_functional=PBE d4_method=pbe d4_energy_eV=-0.10268552490921601 source_geometry=/mnt/ceph/users/cwoodson/dft_calc/diatomics/dimer_jobs/CH3SiH3/refinement_100/point_043_distance_1.81/geometry.in energy=-0.10268552490921601 free_energy=-0.10268552490921601 pbc="F F F"
C        0.00000000       0.00000000      -0.90500000      -0.00000000      -0.00000000       0.00823432
Si       0.00000000       0.00000000       0.90500000       0.00000000       0.00000000      -0.00665471
H        0.00000000      -1.01976200      -1.29689700       0.00000000      -0.00043982       0.00171976
H       -0.88314000       0.50988100      -1.29689700      -0.00038089       0.00021991       0.00171976
H        0.88314000       0.50988100      -1.29689700       0.00038089       0.00021991       0.00171976
H        0.00000000       1.39123400       1.42797900       0.00000000      -0.00061590      -0.00224630
H       -1.20484400      -0.69561700       1.42797900       0.00053338       0.00030795      -0.00224630
H        1.20484400      -0.69561700       1.42797900      -0.00053338       0.00030795      -0.00224630
