8
Properties=species:S:1:pos:R:3:forces:R:3 calculation_type=dimer_refinement calculation_label=CH3SiH3/refinement_100/point_001_distance_1.39 d4_functional=PBE d4_method=pbe d4_energy_eV=-0.10675429408535539 source_geometry=/mnt/ceph/users/cwoodson/dft_calc/diatomics/dimer_jobs/CH3SiH3/refinement_100/point_001_distance_1.39/geometry.in energy=-0.10675429408535539 free_energy=-0.10675429408535539 pbc="F F F"
C        0.00000000       0.00000000      -0.69500000      -0.00000000      -0.00000000       0.00670089
Si       0.00000000       0.00000000       0.69500000       0.00000000       0.00000000       0.00004682
H        0.00000000      -1.01976200      -1.08689700       0.00000000      -0.00158231      -0.00080563
H       -0.88314000       0.50988100      -1.08689700      -0.00137032       0.00079115      -0.00080563
H        0.88314000       0.50988100      -1.08689700       0.00137032       0.00079115      -0.00080563
H        0.00000000       1.39123400       1.21797900       0.00000000      -0.00083775      -0.00144361
H       -1.20484400      -0.69561700       1.21797900       0.00072551       0.00041887      -0.00144361
H        1.20484400      -0.69561700       1.21797900      -0.00072551       0.00041887      -0.00144361
