8
Properties=species:S:1:pos:R:3:forces:R:3 calculation_type=dimer_refinement calculation_label=CH3SiH3/refinement_100/point_063_distance_2.01 d4_functional=PBE d4_method=pbe d4_energy_eV=-0.09995310196154765 source_geometry=/mnt/ceph/users/cwoodson/dft_calc/diatomics/dimer_jobs/CH3SiH3/refinement_100/point_063_distance_2.01/geometry.in energy=-0.09995310196154765 free_energy=-0.09995310196154765 pbc="F F F"
C        0.00000000       0.00000000      -1.00500000      -0.00000000      -0.00000000       0.00661694
Si       0.00000000       0.00000000       1.00500000       0.00000000       0.00000000      -0.00558492
H        0.00000000      -1.01976200      -1.39689700      -0.00000000      -0.00045345       0.00212003
H       -0.88314000       0.50988100      -1.39689700      -0.00039270       0.00022672       0.00212003
H        0.88314000       0.50988100      -1.39689700       0.00039270       0.00022672       0.00212003
H        0.00000000       1.39123400       1.52797900       0.00000000      -0.00039870      -0.00246403
H       -1.20484400      -0.69561700       1.52797900       0.00034529       0.00019935      -0.00246403
H        1.20484400      -0.69561700       1.52797900      -0.00034529       0.00019935      -0.00246403
