8
Properties=species:S:1:pos:R:3:forces:R:3 calculation_type=dimer_refinement calculation_label=CH3SiH3/refinement_100/point_032_distance_1.70 d4_functional=PBE d4_method=pbe d4_energy_eV=-0.10409500340621176 source_geometry=/mnt/ceph/users/cwoodson/dft_calc/diatomics/dimer_jobs/CH3SiH3/refinement_100/point_032_distance_1.70/geometry.in energy=-0.10409500340621176 free_energy=-0.10409500340621176 pbc="F F F"
C        0.00000000       0.00000000      -0.85000000      -0.00000000      -0.00000000       0.00795976
Si       0.00000000       0.00000000       0.85000000       0.00000000       0.00000000      -0.00603709
H        0.00000000      -1.01976200      -1.24189700       0.00000000      -0.00054757       0.00138655
H       -0.88314000       0.50988100      -1.24189700      -0.00047421       0.00027378       0.00138655
H        0.88314000       0.50988100      -1.24189700       0.00047421       0.00027378       0.00138655
H        0.00000000       1.39123400       1.37297900       0.00000000      -0.00059040      -0.00202744
H       -1.20484400      -0.69561700       1.37297900       0.00051130       0.00029520      -0.00202744
H        1.20484400      -0.69561700       1.37297900      -0.00051130       0.00029520      -0.00202744
