8
Properties=species:S:1:pos:R:3:forces:R:3 calculation_type=dimer_refinement calculation_label=CH3SiH3/refinement_100/point_029_distance_1.67 d4_functional=PBE d4_method=pbe d4_energy_eV=-0.10445157650552334 source_geometry=/mnt/ceph/users/cwoodson/dft_calc/diatomics/dimer_jobs/CH3SiH3/refinement_100/point_029_distance_1.67/geometry.in energy=-0.10445157650552334 free_energy=-0.10445157650552334 pbc="F F F"
C        0.00000000       0.00000000      -0.83500000      -0.00000000      -0.00000000       0.00784935
Si       0.00000000       0.00000000       0.83500000      -0.00000000       0.00000000      -0.00574730
H        0.00000000      -1.01976200      -1.22689700       0.00000000      -0.00059464       0.00126384
H       -0.88314000       0.50988100      -1.22689700      -0.00051498       0.00029732       0.00126384
H        0.88314000       0.50988100      -1.22689700       0.00051498       0.00029732       0.00126384
H        0.00000000       1.39123400       1.35797900      -0.00000000      -0.00058584      -0.00196452
H       -1.20484400      -0.69561700       1.35797900       0.00050735       0.00029292      -0.00196452
H        1.20484400      -0.69561700       1.35797900      -0.00050735       0.00029292      -0.00196452
