8
Properties=species:S:1:pos:R:3:forces:R:3 calculation_type=dimer_refinement calculation_label=CH3SiH3/refinement_100/point_093_distance_2.31 d4_functional=PBE d4_method=pbe d4_energy_eV=-0.10182913565380555 source_geometry=/mnt/ceph/users/cwoodson/dft_calc/diatomics/dimer_jobs/CH3SiH3/refinement_100/point_093_distance_2.31/geometry.in energy=-0.10182913565380555 free_energy=-0.10182913565380555 pbc="F F F"
C        0.00000000       0.00000000      -1.15500000      -0.00000000      -0.00000001      -0.04982808
Si       0.00000000       0.00000000       1.15500000       0.00000000       0.00000000       0.04268896
H        0.00000000      -1.01976200      -1.54689700       0.00000000      -0.00151591       0.00230585
H       -0.88314000       0.50988100      -1.54689700      -0.00131282       0.00075796       0.00230585
H        0.88314000       0.50988100      -1.54689700       0.00131282       0.00075796       0.00230585
H        0.00000000       1.39123400       1.67797900      -0.00000000       0.00716408       0.00007385
H       -1.20484400      -0.69561700       1.67797900      -0.00620428      -0.00358204       0.00007385
H        1.20484400      -0.69561700       1.67797900       0.00620428      -0.00358204       0.00007385
