8
Properties=species:S:1:pos:R:3:forces:R:3 calculation_type=dimer_refinement calculation_label=CH3SiH3/refinement_41/point_007_distance_1.730000 d4_functional=PBE d4_method=pbe d4_energy_eV=-0.10376520569103376 source_geometry=/mnt/ceph/users/cwoodson/dft_calc/diatomics/dimer_jobs/CH3SiH3/refinement_41/point_007_distance_1.730000/geometry.in energy=-0.10376520569103376 free_energy=-0.10376520569103376 pbc="F F F"
C        0.00000000       0.00000278      -0.86500000       0.00000000      -0.00000002       0.00800371
Si       0.00000000      -0.00000278       0.86500000       0.00000000      -0.00000001      -0.00607206
H       -0.00000100      -1.01749222      -1.25273400      -0.00000000      -0.00048985       0.00148884
H       -0.88117700       0.50875178      -1.25272400      -0.00042422       0.00024493       0.00148883
H        0.88117800       0.50874978      -1.25272400       0.00042422       0.00024493       0.00148883
H       -0.00000100       1.38371122       1.38640200       0.00000000      -0.00072611      -0.00213270
H       -1.19833100      -0.69185278       1.38641500       0.00062884       0.00036307      -0.00213272
H        1.19833200      -0.69185078       1.38641500      -0.00062884       0.00036307      -0.00213272
