8
Properties=species:S:1:pos:R:3:forces:R:3 calculation_type=dimer_refinement calculation_label=CH3SiH3/refinement_100/point_055_distance_1.93 d4_functional=PBE d4_method=pbe d4_energy_eV=-0.1010372549956665 source_geometry=/mnt/ceph/users/cwoodson/dft_calc/diatomics/dimer_jobs/CH3SiH3/refinement_100/point_055_distance_1.93/geometry.in energy=-0.1010372549956665 free_energy=-0.1010372549956665 pbc="F F F"
C        0.00000000       0.00000000      -0.96500000      -0.00000000      -0.00000000       0.00790654
Si       0.00000000       0.00000000       0.96500000       0.00000000       0.00000000      -0.00659655
H        0.00000000      -1.01976200      -1.35689700       0.00000000      -0.00040229       0.00198531
H       -0.88314000       0.50988100      -1.35689700      -0.00034840       0.00020115       0.00198531
H        0.88314000       0.50988100      -1.35689700       0.00034840       0.00020115       0.00198531
H        0.00000000       1.39123400       1.48797900      -0.00000000      -0.00056781      -0.00242198
H       -1.20484400      -0.69561700       1.48797900       0.00049174       0.00028390      -0.00242198
H        1.20484400      -0.69561700       1.48797900      -0.00049174       0.00028390      -0.00242198
