8
Properties=species:S:1:pos:R:3:forces:R:3 calculation_type=dimer_refinement calculation_label=CH3SiH3/refinement_41/point_032_distance_1.980000 d4_functional=PBE d4_method=pbe d4_energy_eV=-0.10039874665942033 source_geometry=/mnt/ceph/users/cwoodson/dft_calc/diatomics/dimer_jobs/CH3SiH3/refinement_41/point_032_distance_1.980000/geometry.in energy=-0.10039874665942033 free_energy=-0.10039874665942033 pbc="F F F"
C        0.00000000       0.00000318      -0.99000000       0.00000000      -0.00000001       0.00728684
Si      -0.00000000      -0.00000318       0.99000000       0.00000000      -0.00000001      -0.00597046
H       -0.00000100      -1.01749182      -1.37773400      -0.00000000      -0.00039245       0.00208144
H       -0.88117700       0.50875218      -1.37772400      -0.00033986       0.00019622       0.00208144
H        0.88117800       0.50875018      -1.37772400       0.00033986       0.00019622       0.00208144
H       -0.00000100       1.38371082       1.51140200       0.00000000      -0.00064448      -0.00252023
H       -1.19833100      -0.69185318       1.51141500       0.00055815       0.00032225      -0.00252024
H        1.19833200      -0.69185118       1.51141500      -0.00055815       0.00032225      -0.00252024
