8
Properties=species:S:1:pos:R:3:forces:R:3 calculation_type=dimer_refinement calculation_label=CH3SiH3/refinement_100/point_060_distance_1.98 d4_functional=PBE d4_method=pbe d4_energy_eV=-0.10035101911436614 source_geometry=/mnt/ceph/users/cwoodson/dft_calc/diatomics/dimer_jobs/CH3SiH3/refinement_100/point_060_distance_1.98/geometry.in energy=-0.10035101911436614 free_energy=-0.10035101911436614 pbc="F F F"
C        0.00000000       0.00000000      -0.99000000      -0.00000000      -0.00000000       0.00727754
Si       0.00000000       0.00000000       0.99000000       0.00000000       0.00000000      -0.00612597
H        0.00000000      -1.01976200      -1.38189700      -0.00000000      -0.00042294       0.00207469
H       -0.88314000       0.50988100      -1.38189700      -0.00036628       0.00021147       0.00207469
H        0.88314000       0.50988100      -1.38189700       0.00036628       0.00021147       0.00207469
H        0.00000000       1.39123400       1.51297900      -0.00000000      -0.00048346      -0.00245855
H       -1.20484400      -0.69561700       1.51297900       0.00041868       0.00024173      -0.00245855
H        1.20484400      -0.69561700       1.51297900      -0.00041868       0.00024173      -0.00245855
