8
Properties=species:S:1:pos:R:3:forces:R:3 calculation_type=dimer_refinement calculation_label=CH3SiH3/refinement_41/point_024_distance_1.900000 d4_functional=PBE d4_method=pbe d4_energy_eV=-0.1015015122804072 source_geometry=/mnt/ceph/users/cwoodson/dft_calc/diatomics/dimer_jobs/CH3SiH3/refinement_41/point_024_distance_1.900000/geometry.in energy=-0.1015015122804072 free_energy=-0.1015015122804072 pbc="F F F"
C        0.00000000       0.00000305      -0.95000000       0.00000000      -0.00000002       0.00807168
Si      -0.00000000      -0.00000305       0.95000000       0.00000000      -0.00000001      -0.00653863
H       -0.00000100      -1.01749195      -1.33773400      -0.00000000      -0.00037796       0.00192838
H       -0.88117700       0.50875205      -1.33772400      -0.00032732       0.00018898       0.00192838
H        0.88117800       0.50875005      -1.33772400       0.00032732       0.00018898       0.00192838
H       -0.00000100       1.38371095       1.47140200       0.00000000      -0.00073545      -0.00243939
H       -1.19833100      -0.69185305       1.47141500       0.00063693       0.00036774      -0.00243940
H        1.19833200      -0.69185105       1.47141500      -0.00063694       0.00036774      -0.00243941
