8
Properties=species:S:1:pos:R:3:forces:R:3 calculation_type=dimer_refinement calculation_label=CH3SiH3/refinement_100/point_097_distance_2.35 d4_functional=PBE d4_method=pbe d4_energy_eV=-0.10357341364423096 source_geometry=/mnt/ceph/users/cwoodson/dft_calc/diatomics/dimer_jobs/CH3SiH3/refinement_100/point_097_distance_2.35/geometry.in energy=-0.10357341364423096 free_energy=-0.10357341364423096 pbc="F F F"
C        0.00000000       0.00000000      -1.17500000      -0.00000000      -0.00000000      -0.05022100
Si       0.00000000       0.00000000       1.17500000      -0.00000000       0.00000000       0.04101834
H        0.00000000      -1.01976200      -1.56689700      -0.00000000      -0.00090596       0.00264993
H       -0.88314000       0.50988100      -1.56689700      -0.00078459       0.00045298       0.00264993
H        0.88314000       0.50988100      -1.56689700       0.00078459       0.00045298       0.00264993
H        0.00000000       1.39123400       1.69797900      -0.00000000       0.00815196       0.00041762
H       -1.20484400      -0.69561700       1.69797900      -0.00705981      -0.00407598       0.00041762
H        1.20484400      -0.69561700       1.69797900       0.00705981      -0.00407598       0.00041762
