8
Properties=species:S:1:pos:R:3:forces:R:3 calculation_type=dimer_refinement calculation_label=CH3SiH3/refinement_41/point_014_distance_1.800000 d4_functional=PBE d4_method=pbe d4_energy_eV=-0.10286324735887283 source_geometry=/mnt/ceph/users/cwoodson/dft_calc/diatomics/dimer_jobs/CH3SiH3/refinement_41/point_014_distance_1.800000/geometry.in energy=-0.10286324735887283 free_energy=-0.10286324735887283 pbc="F F F"
C        0.00000000       0.00000289      -0.90000000       0.00000000      -0.00000002       0.00817308
Si       0.00000000      -0.00000289       0.90000000       0.00000000      -0.00000001      -0.00643492
H       -0.00000100      -1.01749211      -1.28773400      -0.00000000      -0.00042507       0.00169413
H       -0.88117700       0.50875189      -1.28772400      -0.00036813       0.00021254       0.00169412
H        0.88117800       0.50874989      -1.28772400       0.00036812       0.00021254       0.00169412
H       -0.00000100       1.38371111       1.42140200       0.00000000      -0.00074560      -0.00227350
H       -1.19833100      -0.69185289       1.42141500       0.00064572       0.00037281      -0.00227352
H        1.19833200      -0.69185089       1.42141500      -0.00064572       0.00037281      -0.00227352
