8
Properties=species:S:1:pos:R:3:forces:R:3 calculation_type=dimer_refinement calculation_label=CH3SiH3/refinement_100/point_006_distance_1.44 d4_functional=PBE d4_method=pbe d4_energy_eV=-0.10650440212125031 source_geometry=/mnt/ceph/users/cwoodson/dft_calc/diatomics/dimer_jobs/CH3SiH3/refinement_100/point_006_distance_1.44/geometry.in energy=-0.10650440212125031 free_energy=-0.10650440212125031 pbc="F F F"
C        0.00000000       0.00000000      -0.72000000      -0.00000000      -0.00000000       0.00689911
Si       0.00000000       0.00000000       0.72000000       0.00000000       0.00000000      -0.00107104
H        0.00000000      -1.01976200      -1.11189700      -0.00000000      -0.00136975      -0.00039631
H       -0.88314000       0.50988100      -1.11189700      -0.00118624       0.00068487      -0.00039631
H        0.88314000       0.50988100      -1.11189700       0.00118624       0.00068487      -0.00039631
H        0.00000000       1.39123400       1.24297900      -0.00000000      -0.00081256      -0.00154638
H       -1.20484400      -0.69561700       1.24297900       0.00070370       0.00040628      -0.00154638
H        1.20484400      -0.69561700       1.24297900      -0.00070370       0.00040628      -0.00154638
