8
Properties=species:S:1:pos:R:3:forces:R:3 calculation_type=dimer_refinement calculation_label=CH3SiH3/refinement_41/point_022_distance_1.880000 d4_functional=PBE d4_method=pbe d4_energy_eV=-0.1017781442746792 source_geometry=/mnt/ceph/users/cwoodson/dft_calc/diatomics/dimer_jobs/CH3SiH3/refinement_41/point_022_distance_1.880000/geometry.in energy=-0.1017781442746792 free_energy=-0.1017781442746792 pbc="F F F"
C        0.00000000       0.00000302      -0.94000000       0.00000000      -0.00000002       0.00814378
Si      -0.00000000      -0.00000302       0.94000000       0.00000000      -0.00000001      -0.00656732
H       -0.00000100      -1.01749198      -1.32773400      -0.00000000      -0.00038293       0.00188532
H       -0.88117700       0.50875202      -1.32772400      -0.00033162       0.00019146       0.00188532
H        0.88117800       0.50875002      -1.32772400       0.00033162       0.00019146       0.00188532
H       -0.00000100       1.38371098       1.46140200       0.00000000      -0.00074382      -0.00241079
H       -1.19833100      -0.69185302       1.46141500       0.00064417       0.00037192      -0.00241081
H        1.19833200      -0.69185102       1.46141500      -0.00064418       0.00037192      -0.00241081
