8
Properties=species:S:1:pos:R:3:forces:R:3 calculation_type=dimer_refinement calculation_label=CH3SiH3/refinement_41/point_041_distance_2.070000 d4_functional=PBE d4_method=pbe d4_energy_eV=-0.09927275912666374 source_geometry=/mnt/ceph/users/cwoodson/dft_calc/diatomics/dimer_jobs/CH3SiH3/refinement_41/point_041_distance_2.070000/geometry.in energy=-0.09927275912666374 free_energy=-0.09927275912666374 pbc="F F F"
C        0.00000000       0.00000332      -1.03500000       0.00000000       0.00000001       0.00425374
Si      -0.00000000      -0.00000332       1.03500000       0.00000000      -0.00000002      -0.00333152
H       -0.00000100      -1.01749168      -1.42273400      -0.00000000      -0.00053311       0.00219765
H       -0.88117700       0.50875232      -1.42272400      -0.00046167       0.00026655       0.00219766
H        0.88117800       0.50875032      -1.42272400       0.00046167       0.00026655       0.00219766
H       -0.00000100       1.38371068       1.55640200       0.00000000      -0.00032052      -0.00250506
H       -1.19833100      -0.69185332       1.55641500       0.00027758       0.00016027      -0.00250506
H        1.19833200      -0.69185132       1.55641500      -0.00027759       0.00016027      -0.00250506
