8
Properties=species:S:1:pos:R:3:forces:R:3 calculation_type=dimer_refinement calculation_label=CH3SiH3/refinement_100/point_070_distance_2.08 d4_functional=PBE d4_method=pbe d4_energy_eV=-0.09912894549270045 source_geometry=/mnt/ceph/users/cwoodson/dft_calc/diatomics/dimer_jobs/CH3SiH3/refinement_100/point_070_distance_2.08/geometry.in energy=-0.09912894549270045 free_energy=-0.09912894549270045 pbc="F F F"
C        0.00000000       0.00000000      -1.04000000      -0.00000000      -0.00000000       0.00349000
Si       0.00000000       0.00000000       1.04000000      -0.00000000       0.00000000      -0.00285341
H        0.00000000      -1.01976200      -1.43189700       0.00000000      -0.00061214       0.00218900
H       -0.88314000       0.50988100      -1.43189700      -0.00053013       0.00030607       0.00218900
H        0.88314000       0.50988100      -1.43189700       0.00053013       0.00030607       0.00218900
H        0.00000000       1.39123400       1.56297900      -0.00000000      -0.00002585      -0.00240120
H       -1.20484400      -0.69561700       1.56297900       0.00002239       0.00001293      -0.00240120
H        1.20484400      -0.69561700       1.56297900      -0.00002239       0.00001293      -0.00240120
