8
Properties=species:S:1:pos:R:3:forces:R:3 calculation_type=dimer_refinement calculation_label=CH3SiH3/refinement_41/point_009_distance_1.750000 d4_functional=PBE d4_method=pbe d4_energy_eV=-0.10351324522994766 source_geometry=/mnt/ceph/users/cwoodson/dft_calc/diatomics/dimer_jobs/CH3SiH3/refinement_41/point_009_distance_1.750000/geometry.in energy=-0.10351324522994766 free_energy=-0.10351324522994766 pbc="F F F"
C        0.00000000       0.00000281      -0.87500000       0.00000000      -0.00000002       0.00806348
Si       0.00000000      -0.00000281       0.87500000       0.00000000      -0.00000001      -0.00619921
H       -0.00000100      -1.01749219      -1.26273400      -0.00000000      -0.00046818       0.00155285
H       -0.88117700       0.50875181      -1.26272400      -0.00040546       0.00023409       0.00155284
H        0.88117800       0.50874981      -1.26272400       0.00040546       0.00023409       0.00155284
H       -0.00000100       1.38371119       1.39640200       0.00000000      -0.00073234      -0.00217425
H       -1.19833100      -0.69185281       1.39641500       0.00063424       0.00036618      -0.00217428
H        1.19833200      -0.69185081       1.39641500      -0.00063424       0.00036618      -0.00217428
