8
Properties=species:S:1:pos:R:3:forces:R:3 calculation_type=dimer_refinement calculation_label=CH3SiH3/refinement_41/point_003_distance_1.690000 d4_functional=PBE d4_method=pbe d4_energy_eV=-0.10425280721530879 source_geometry=/mnt/ceph/users/cwoodson/dft_calc/diatomics/dimer_jobs/CH3SiH3/refinement_41/point_003_distance_1.690000/geometry.in energy=-0.10425280721530879 free_energy=-0.10425280721530879 pbc="F F F"
C        0.00000000       0.00000271      -0.84500000       0.00000000      -0.00000003       0.00786610
Si       0.00000000      -0.00000271       0.84500000       0.00000000      -0.00000001      -0.00574880
H       -0.00000100      -1.01749229      -1.23273400      -0.00000000      -0.00054341       0.00134207
H       -0.88117700       0.50875171      -1.23272400      -0.00047061       0.00027171       0.00134205
H        0.88117800       0.50874971      -1.23272400       0.00047061       0.00027171       0.00134205
H       -0.00000100       1.38371129       1.36640200       0.00000000      -0.00071501      -0.00204780
H       -1.19833100      -0.69185271       1.36641500       0.00061924       0.00035752      -0.00204783
H        1.19833200      -0.69185071       1.36641500      -0.00061924       0.00035752      -0.00204783
