8
Properties=species:S:1:pos:R:3:forces:R:3 calculation_type=dimer_refinement calculation_label=CH3SiH3/refinement_100/point_014_distance_1.52 d4_functional=PBE d4_method=pbe d4_energy_eV=-0.10595406021080878 source_geometry=/mnt/ceph/users/cwoodson/dft_calc/diatomics/dimer_jobs/CH3SiH3/refinement_100/point_014_distance_1.52/geometry.in energy=-0.10595406021080878 free_energy=-0.10595406021080878 pbc="F F F"
C        0.00000000       0.00000000      -0.76000000      -0.00000000      -0.00000000       0.00723156
Si       0.00000000       0.00000000       0.76000000      -0.00000000       0.00000000      -0.00302108
H        0.00000000      -1.01976200      -1.15189700       0.00000000      -0.00103691       0.00027690
H       -0.88314000       0.50988100      -1.15189700      -0.00089799       0.00051846       0.00027690
H        0.88314000       0.50988100      -1.15189700       0.00089799       0.00051846       0.00027690
H        0.00000000       1.39123400       1.28297900       0.00000000      -0.00069155      -0.00168039
H       -1.20484400      -0.69561700       1.28297900       0.00059890       0.00034577      -0.00168039
H        1.20484400      -0.69561700       1.28297900      -0.00059890       0.00034577      -0.00168039
