8
Properties=species:S:1:pos:R:3:forces:R:3 calculation_type=dimer_refinement calculation_label=CH3SiH3/refinement_100/point_058_distance_1.96 d4_functional=PBE d4_method=pbe d4_energy_eV=-0.10062328146304217 source_geometry=/mnt/ceph/users/cwoodson/dft_calc/diatomics/dimer_jobs/CH3SiH3/refinement_100/point_058_distance_1.96/geometry.in energy=-0.10062328146304217 free_energy=-0.10062328146304217 pbc="F F F"
C        0.00000000       0.00000000      -0.98000000      -0.00000000      -0.00000000       0.00758620
Si       0.00000000       0.00000000       0.98000000      -0.00000000       0.00000000      -0.00636599
H        0.00000000      -1.01976200      -1.37189700       0.00000000      -0.00041087       0.00204076
H       -0.88314000       0.50988100      -1.37189700      -0.00035582       0.00020544       0.00204076
H        0.88314000       0.50988100      -1.37189700       0.00035582       0.00020544       0.00204076
H        0.00000000       1.39123400       1.50297900       0.00000000      -0.00052430      -0.00244750
H       -1.20484400      -0.69561700       1.50297900       0.00045405       0.00026215      -0.00244750
H        1.20484400      -0.69561700       1.50297900      -0.00045405       0.00026215      -0.00244750
