8
Properties=species:S:1:pos:R:3:forces:R:3 calculation_type=dimer_refinement calculation_label=CH3SiH3/refinement_41/point_015_distance_1.810000 d4_functional=PBE d4_method=pbe d4_energy_eV=-0.10273023613454586 source_geometry=/mnt/ceph/users/cwoodson/dft_calc/diatomics/dimer_jobs/CH3SiH3/refinement_41/point_015_distance_1.810000/geometry.in energy=-0.10273023613454586 free_energy=-0.10273023613454586 pbc="F F F"
C        0.00000000       0.00000291      -0.90500000       0.00000000      -0.00000002       0.00818598
Si       0.00000000      -0.00000291       0.90500000       0.00000000      -0.00000001      -0.00646886
H       -0.00000100      -1.01749209      -1.29273400      -0.00000000      -0.00041805       0.00171996
H       -0.88117700       0.50875191      -1.29272400      -0.00036205       0.00020903       0.00171996
H        0.88117800       0.50874991      -1.29272400       0.00036205       0.00020903       0.00171996
H       -0.00000100       1.38371109       1.42640200       0.00000000      -0.00074737      -0.00229232
H       -1.19833100      -0.69185291       1.42641500       0.00064725       0.00037370      -0.00229234
H        1.19833200      -0.69185091       1.42641500      -0.00064725       0.00037370      -0.00229234
