2
Properties=species:S:1:pos:R:3:forces:R:3 calculation_type=dimer_refinement calculation_label=LiCl/refinement_41/point_025_distance_2.060000 d4_functional=PBE d4_method=pbe d4_energy_eV=-0.012799748577019687 source_geometry=/mnt/ceph/users/cwoodson/dft_calc/diatomics/dimer_jobs/LiCl/refinement_41/point_025_distance_2.060000/geometry.in energy=-0.012799748577019687 free_energy=-0.012799748577019687 pbc="F F F"
Li       0.00000000       0.00000000      -1.03000000      -0.00000000      -0.00000000       0.00007188
Cl       0.00000000       0.00000000       1.03000000      -0.00000000      -0.00000000      -0.00007188
