2
Properties=species:S:1:pos:R:3:forces:R:3 calculation_type=dimer_refinement calculation_label=LiCl/refinement_100/point_037_distance_1.88 d4_functional=PBE d4_method=pbe d4_energy_eV=-0.012811824754780819 source_geometry=/mnt/ceph/users/cwoodson/dft_calc/diatomics/dimer_jobs/LiCl/refinement_100/point_037_distance_1.88/geometry.in energy=-0.012811824754780819 free_energy=-0.012811824754780819 pbc="F F F"
Li       0.00000000       0.00000000      -0.94000000      -0.00000000      -0.00000000       0.00002131
Cl       0.00000000       0.00000000       0.94000000      -0.00000000      -0.00000000      -0.00002131
