2
Properties=species:S:1:pos:R:3:forces:R:3 calculation_type=dimer_refinement calculation_label=LiCl/refinement_41/point_040_distance_2.210000 d4_functional=PBE d4_method=pbe d4_energy_eV=-0.012811815658680052 source_geometry=/mnt/ceph/users/cwoodson/dft_calc/diatomics/dimer_jobs/LiCl/refinement_41/point_040_distance_2.210000/geometry.in energy=-0.012811815658680052 free_energy=-0.012811815658680052 pbc="F F F"
Li       0.00000000       0.00000000      -1.10500000      -0.00000000      -0.00000000      -0.00037421
Cl       0.00000000       0.00000000       1.10500000      -0.00000000      -0.00000000       0.00037421
