2
Properties=species:S:1:pos:R:3:forces:R:3 calculation_type=dimer_refinement calculation_label=LiCl/refinement_41/point_012_distance_1.930000 d4_functional=PBE d4_method=pbe d4_energy_eV=-0.012809855375327885 source_geometry=/mnt/ceph/users/cwoodson/dft_calc/diatomics/dimer_jobs/LiCl/refinement_41/point_012_distance_1.930000/geometry.in energy=-0.012809855375327885 free_energy=-0.012809855375327885 pbc="F F F"
Li       0.00000000       0.00000000      -0.96500000      -0.00000000      -0.00000000       0.00005625
Cl       0.00000000       0.00000000       0.96500000      -0.00000000      -0.00000000      -0.00005625
