2
Properties=species:S:1:pos:R:3:forces:R:3 calculation_type=dimer_refinement calculation_label=LiCl/refinement_100/point_098_distance_2.49 d4_functional=PBE d4_method=pbe d4_energy_eV=-0.013634677179819988 source_geometry=/mnt/ceph/users/cwoodson/dft_calc/diatomics/dimer_jobs/LiCl/refinement_100/point_098_distance_2.49/geometry.in energy=-0.013634677179819988 free_energy=-0.013634677179819988 pbc="F F F"
Li       0.00000000       0.00000000      -1.24500000      -0.00000000      -0.00000000      -0.00844910
Cl       0.00000000       0.00000000       1.24500000      -0.00000000      -0.00000000       0.00844910
