2
Properties=species:S:1:pos:R:3:forces:R:3 calculation_type=dimer_refinement calculation_label=LiCl/refinement_100/point_097_distance_2.48 d4_functional=PBE d4_method=pbe d4_energy_eV=-0.01355384700513986 source_geometry=/mnt/ceph/users/cwoodson/dft_calc/diatomics/dimer_jobs/LiCl/refinement_100/point_097_distance_2.48/geometry.in energy=-0.01355384700513986 free_energy=-0.01355384700513986 pbc="F F F"
Li       0.00000000       0.00000000      -1.24000000      -0.00000000      -0.00000000      -0.00772713
Cl       0.00000000       0.00000000       1.24000000      -0.00000000      -0.00000000       0.00772713
