2
Properties=species:S:1:pos:R:3:forces:R:3 calculation_type=dimer_refinement calculation_label=LiCl/refinement_41/point_024_distance_2.050000 d4_functional=PBE d4_method=pbe d4_energy_eV=-0.012800498429704295 source_geometry=/mnt/ceph/users/cwoodson/dft_calc/diatomics/dimer_jobs/LiCl/refinement_41/point_024_distance_2.050000/geometry.in energy=-0.012800498429704295 free_energy=-0.012800498429704295 pbc="F F F"
Li       0.00000000       0.00000000      -1.02500000      -0.00000000      -0.00000000       0.00007780
Cl       0.00000000       0.00000000       1.02500000      -0.00000000      -0.00000000      -0.00007780
