2
Properties=species:S:1:pos:R:3:forces:R:3 calculation_type=dimer_refinement calculation_label=LiCl/refinement_41/point_039_distance_2.200000 d4_functional=PBE d4_method=pbe d4_energy_eV=-0.012808385725127375 source_geometry=/mnt/ceph/users/cwoodson/dft_calc/diatomics/dimer_jobs/LiCl/refinement_41/point_039_distance_2.200000/geometry.in energy=-0.012808385725127375 free_energy=-0.012808385725127375 pbc="F F F"
Li       0.00000000       0.00000000      -1.10000000      -0.00000000      -0.00000000      -0.00031285
Cl       0.00000000       0.00000000       1.10000000      -0.00000000      -0.00000000       0.00031285
