2
Properties=species:S:1:pos:R:3:forces:R:3 calculation_type=dimer_refinement calculation_label=LiCl/refinement_41/point_001_distance_1.820000 d4_functional=PBE d4_method=pbe d4_energy_eV=-0.01281167674255764 source_geometry=/mnt/ceph/users/cwoodson/dft_calc/diatomics/dimer_jobs/LiCl/refinement_41/point_001_distance_1.820000/geometry.in energy=-0.01281167674255764 free_energy=-0.01281167674255764 pbc="F F F"
Li       0.00000000       0.00000000      -0.91000000      -0.00000000      -0.00000000      -0.00002690
Cl       0.00000000       0.00000000       0.91000000      -0.00000000      -0.00000000       0.00002690
