2
Properties=species:S:1:pos:R:3:forces:R:3 calculation_type=dimer_refinement calculation_label=LiF/refinement_100/point_100_distance_2.05 d4_functional=PBE d4_method=pbe d4_energy_eV=-0.007165256995344535 source_geometry=/mnt/ceph/users/cwoodson/dft_calc/diatomics/dimer_jobs/LiF/refinement_100/point_100_distance_2.05/geometry.in energy=-0.007165256995344535 free_energy=-0.007165256995344535 pbc="F F F"
Li       0.00000000       0.00000000      -1.02500000      -0.00000000      -0.00000000      -0.00545243
F        0.00000000       0.00000000       1.02500000      -0.00000000      -0.00000000       0.00545243
