2
Properties=species:S:1:pos:R:3:forces:R:3 calculation_type=dimer_refinement calculation_label=LiF/refinement_100/point_064_distance_1.69 d4_functional=PBE d4_method=pbe d4_energy_eV=-0.006739263049459529 source_geometry=/mnt/ceph/users/cwoodson/dft_calc/diatomics/dimer_jobs/LiF/refinement_100/point_064_distance_1.69/geometry.in energy=-0.006739263049459529 free_energy=-0.006739263049459529 pbc="F F F"
Li       0.00000000       0.00000000      -0.84500000      -0.00000000      -0.00000000       0.00029301
F        0.00000000       0.00000000       0.84500000      -0.00000000      -0.00000000      -0.00029301
