2
Properties=species:S:1:pos:R:3:forces:R:3 calculation_type=dimer_refinement calculation_label=LiF/refinement_100/point_058_distance_1.63 d4_functional=PBE d4_method=pbe d4_energy_eV=-0.006758819889135504 source_geometry=/mnt/ceph/users/cwoodson/dft_calc/diatomics/dimer_jobs/LiF/refinement_100/point_058_distance_1.63/geometry.in energy=-0.006758819889135504 free_energy=-0.006758819889135504 pbc="F F F"
Li       0.00000000       0.00000000      -0.81500000      -0.00000000      -0.00000000       0.00035193
F        0.00000000       0.00000000       0.81500000      -0.00000000      -0.00000000      -0.00035193
