2
Properties=species:S:1:pos:R:3:forces:R:3 calculation_type=dimer_refinement calculation_label=LiF/refinement_100/point_095_distance_2.00 d4_functional=PBE d4_method=pbe d4_energy_eV=-0.006951585065061643 source_geometry=/mnt/ceph/users/cwoodson/dft_calc/diatomics/dimer_jobs/LiF/refinement_100/point_095_distance_2.00/geometry.in energy=-0.006951585065061643 free_energy=-0.006951585065061643 pbc="F F F"
Li       0.00000000       0.00000000      -1.00000000      -0.00000000      -0.00000000      -0.00325121
F        0.00000000       0.00000000       1.00000000      -0.00000000      -0.00000000       0.00325121
