2
Properties=species:S:1:pos:R:3:forces:R:3 calculation_type=dimer_refinement calculation_label=LiF/refinement_41/point_022_distance_1.570000 d4_functional=PBE d4_method=pbe d4_energy_eV=-0.006780942421513974 source_geometry=/mnt/ceph/users/cwoodson/dft_calc/diatomics/dimer_jobs/LiF/refinement_41/point_022_distance_1.570000/geometry.in energy=-0.006780942421513974 free_energy=-0.006780942421513974 pbc="F F F"
Li       0.00000000       0.00000000      -0.78500000      -0.00000000      -0.00000000       0.00038270
F        0.00000000       0.00000000       0.78500000      -0.00000000      -0.00000000      -0.00038270
