2
Properties=species:S:1:pos:R:3:forces:R:3 calculation_type=dimer_refinement calculation_label=LiF/refinement_41/point_019_distance_1.540000 d4_functional=PBE d4_method=pbe d4_energy_eV=-0.00679259176014893 source_geometry=/mnt/ceph/users/cwoodson/dft_calc/diatomics/dimer_jobs/LiF/refinement_41/point_019_distance_1.540000/geometry.in energy=-0.00679259176014893 free_energy=-0.00679259176014893 pbc="F F F"
Li       0.00000000       0.00000000      -0.77000000      -0.00000000      -0.00000000       0.00039365
F        0.00000000       0.00000000       0.77000000      -0.00000000      -0.00000000      -0.00039365
