2
Properties=species:S:1:pos:R:3:forces:R:3 calculation_type=dimer_refinement calculation_label=LiF/refinement_100/point_091_distance_1.96 d4_functional=PBE d4_method=pbe d4_energy_eV=-0.006846694487511191 source_geometry=/mnt/ceph/users/cwoodson/dft_calc/diatomics/dimer_jobs/LiF/refinement_100/point_091_distance_1.96/geometry.in energy=-0.006846694487511191 free_energy=-0.006846694487511191 pbc="F F F"
Li       0.00000000       0.00000000      -0.98000000      -0.00000000      -0.00000000      -0.00206305
F        0.00000000       0.00000000       0.98000000      -0.00000000      -0.00000000       0.00206305
