2
Properties=species:S:1:pos:R:3:forces:R:3 calculation_type=dimer_refinement calculation_label=MgO/refinement_100/point_020_distance_1.44 d4_functional=PBE d4_method=pbe d4_energy_eV=-0.02474282166514859 source_geometry=/mnt/ceph/users/cwoodson/dft_calc/diatomics/dimer_jobs/MgO/refinement_100/point_020_distance_1.44/geometry.in energy=-0.02474282166514859 free_energy=-0.02474282166514859 pbc="F F F"
Mg       0.00000000       0.00000000      -0.72000000      -0.00000000      -0.00000000       0.00628534
O        0.00000000       0.00000000       0.72000000      -0.00000000      -0.00000000      -0.00628534
