2
Properties=species:S:1:pos:R:3:forces:R:3 calculation_type=dimer_refinement calculation_label=MgO/refinement_41/point_009_distance_1.630000 d4_functional=PBE d4_method=pbe d4_energy_eV=-0.02375562771641328 source_geometry=/mnt/ceph/users/cwoodson/dft_calc/diatomics/dimer_jobs/MgO/refinement_41/point_009_distance_1.630000/geometry.in energy=-0.02375562771641328 free_energy=-0.02375562771641328 pbc="F F F"
Mg       0.00000000       0.00000000      -0.81500000      -0.00000000      -0.00000000       0.00430985
O        0.00000000       0.00000000       0.81500000      -0.00000000      -0.00000000      -0.00430985
