2
Properties=species:S:1:pos:R:3:forces:R:3 calculation_type=dimer_refinement calculation_label=MgO/refinement_41/point_031_distance_1.850000 d4_functional=PBE d4_method=pbe d4_energy_eV=-0.022958825020850317 source_geometry=/mnt/ceph/users/cwoodson/dft_calc/diatomics/dimer_jobs/MgO/refinement_41/point_031_distance_1.850000/geometry.in energy=-0.022958825020850317 free_energy=-0.022958825020850317 pbc="F F F"
Mg       0.00000000       0.00000000      -0.92500000      -0.00000000      -0.00000000       0.00301869
O        0.00000000       0.00000000       0.92500000      -0.00000000      -0.00000000      -0.00301869
