2
Properties=species:S:1:pos:R:3:forces:R:3 calculation_type=dimer_refinement calculation_label=MgO/refinement_100/point_069_distance_1.93 d4_functional=PBE d4_method=pbe d4_energy_eV=-0.022735463479233668 source_geometry=/mnt/ceph/users/cwoodson/dft_calc/diatomics/dimer_jobs/MgO/refinement_100/point_069_distance_1.93/geometry.in energy=-0.022735463479233668 free_energy=-0.022735463479233668 pbc="F F F"
Mg       0.00000000       0.00000000      -0.96500000      -0.00000000      -0.00000000       0.00254536
O        0.00000000       0.00000000       0.96500000      -0.00000000      -0.00000000      -0.00254536
