2
Properties=species:S:1:pos:R:3:forces:R:3 calculation_type=dimer_refinement calculation_label=MgO/refinement_100/point_001_distance_1.25 d4_functional=PBE d4_method=pbe d4_energy_eV=-0.026255296726347875 source_geometry=/mnt/ceph/users/cwoodson/dft_calc/diatomics/dimer_jobs/MgO/refinement_100/point_001_distance_1.25/geometry.in energy=-0.026255296726347875 free_energy=-0.026255296726347875 pbc="F F F"
Mg       0.00000000       0.00000000      -0.62500000      -0.00000000      -0.00000000       0.01005357
O        0.00000000       0.00000000       0.62500000      -0.00000000      -0.00000000      -0.01005357
