2
Properties=species:S:1:pos:R:3:forces:R:3 calculation_type=dimer_refinement calculation_label=MgO/refinement_41/point_021_distance_1.750000 d4_functional=PBE d4_method=pbe d4_energy_eV=-0.023286822746638163 source_geometry=/mnt/ceph/users/cwoodson/dft_calc/diatomics/dimer_jobs/MgO/refinement_41/point_021_distance_1.750000/geometry.in energy=-0.023286822746638163 free_energy=-0.023286822746638163 pbc="F F F"
Mg       0.00000000       0.00000000      -0.87500000      -0.00000000      -0.00000000       0.00354446
O        0.00000000       0.00000000       0.87500000      -0.00000000      -0.00000000      -0.00354446
