5
Properties=species:S:1:pos:R:3:forces:R:3 calculation_type=dimer_refinement calculation_label=MgOH2/refinement_41/point_017_distance_1.730000 d4_functional=PBE d4_method=pbe d4_energy_eV=-0.047456151919317506 source_geometry=/mnt/ceph/users/cwoodson/dft_calc/diatomics/dimer_jobs/MgOH2/refinement_41/point_017_distance_1.730000/geometry.in energy=-0.047456151919317506 free_energy=-0.047456151919317506 pbc="F F F"
Mg       0.00000000       0.00000000       0.00000000      -0.00000000       0.00000000      -0.00000000
O       -1.71267556       0.24421800       0.00000000       0.01098029      -0.00099685      -0.00000000
O        1.71267556      -0.24421800       0.00000000      -0.01098029       0.00099685      -0.00000000
H       -2.52907756       0.72406100       0.00000000       0.00061927      -0.00056253      -0.00000000
H        2.52907756      -0.72406100       0.00000000      -0.00061927       0.00056253      -0.00000000
