5
Properties=species:S:1:pos:R:3:forces:R:3 calculation_type=dimer_refinement calculation_label=MgOH2/refinement_41/point_008_distance_1.640000 d4_functional=PBE d4_method=pbe d4_energy_eV=-0.04955224033937534 source_geometry=/mnt/ceph/users/cwoodson/dft_calc/diatomics/dimer_jobs/MgOH2/refinement_41/point_008_distance_1.640000/geometry.in energy=-0.04955224033937534 free_energy=-0.04955224033937534 pbc="F F F"
Mg       0.00000000       0.00000000       0.00000000      -0.00000000       0.00000000      -0.00000000
O       -1.62357683       0.23151302       0.00000000       0.01235050      -0.00075576      -0.00000000
O        1.62357683      -0.23151302       0.00000000      -0.01235050       0.00075576      -0.00000000
H       -2.43997883       0.71135602       0.00000000      -0.00112702      -0.00034039      -0.00000000
H        2.43997883      -0.71135602       0.00000000       0.00112702       0.00034039      -0.00000000
