5
Properties=species:S:1:pos:R:3:forces:R:3 calculation_type=dimer_refinement calculation_label=MgOH2/refinement_41/point_038_distance_1.940000 d4_functional=PBE d4_method=pbe d4_energy_eV=-0.04333969169972669 source_geometry=/mnt/ceph/users/cwoodson/dft_calc/diatomics/dimer_jobs/MgOH2/refinement_41/point_038_distance_1.940000/geometry.in energy=-0.04333969169972669 free_energy=-0.04333969169972669 pbc="F F F"
Mg       0.00000000       0.00000000       0.00000000      -0.00000000       0.00000000      -0.00000000
O       -1.92057259       0.27386296       0.00000000       0.00577553      -0.00086535      -0.00000000
O        1.92057259      -0.27386296       0.00000000      -0.00577553       0.00086535      -0.00000000
H       -2.73697459       0.75370596       0.00000000       0.00085912      -0.00020726      -0.00000000
H        2.73697459      -0.75370596       0.00000000      -0.00085912       0.00020726      -0.00000000
