5
Properties=species:S:1:pos:R:3:forces:R:3 calculation_type=dimer_refinement calculation_label=MgOH2/refinement_41/point_013_distance_1.690000 d4_functional=PBE d4_method=pbe d4_energy_eV=-0.04839673506694072 source_geometry=/mnt/ceph/users/cwoodson/dft_calc/diatomics/dimer_jobs/MgOH2/refinement_41/point_013_distance_1.690000/geometry.in energy=-0.04839673506694072 free_energy=-0.04839673506694072 pbc="F F F"
Mg       0.00000000       0.00000000       0.00000000       0.00000000      -0.00000000      -0.00000000
O       -1.67307612       0.23857135       0.00000000       0.01162002      -0.00091007      -0.00000000
O        1.67307612      -0.23857135       0.00000000      -0.01162002       0.00091007      -0.00000000
H       -2.48947812       0.71841435       0.00000000       0.00004375      -0.00051457      -0.00000000
H        2.48947812      -0.71841435       0.00000000      -0.00004375       0.00051457      -0.00000000
