5
Properties=species:S:1:pos:R:3:forces:R:3 calculation_type=dimer_refinement calculation_label=MgOH2/refinement_41/point_025_distance_1.810000 d4_functional=PBE d4_method=pbe d4_energy_eV=-0.045654205565207634 source_geometry=/mnt/ceph/users/cwoodson/dft_calc/diatomics/dimer_jobs/MgOH2/refinement_41/point_025_distance_1.810000/geometry.in energy=-0.045654205565207634 free_energy=-0.045654205565207634 pbc="F F F"
Mg       0.00000000       0.00000000       0.00000000      -0.00000000       0.00000000      -0.00000000
O       -1.79187443       0.25551132       0.00000000       0.00948043      -0.00107320      -0.00000000
O        1.79187443      -0.25551132       0.00000000      -0.00948043       0.00107320      -0.00000000
H       -2.60827643       0.73535432       0.00000000       0.00103441      -0.00048307      -0.00000000
H        2.60827643      -0.73535432       0.00000000      -0.00103441       0.00048307      -0.00000000
