5
Properties=species:S:1:pos:R:3:forces:R:3 calculation_type=dimer_refinement calculation_label=MgOH2/refinement_41/point_021_distance_1.770000 d4_functional=PBE d4_method=pbe d4_energy_eV=-0.04653349701751772 source_geometry=/mnt/ceph/users/cwoodson/dft_calc/diatomics/dimer_jobs/MgOH2/refinement_41/point_021_distance_1.770000/geometry.in energy=-0.04653349701751772 free_energy=-0.04653349701751772 pbc="F F F"
Mg       0.00000000       0.00000000       0.00000000      -0.00000000       0.00000000      -0.00000000
O       -1.75227499       0.24986466       0.00000000       0.01027430      -0.00105149      -0.00000000
O        1.75227499      -0.24986466       0.00000000      -0.01027430       0.00105149      -0.00000000
H       -2.56867699       0.72970766       0.00000000       0.00092246      -0.00054418      -0.00000000
H        2.56867699      -0.72970766       0.00000000      -0.00092246       0.00054418      -0.00000000
