2
Properties=species:S:1:pos:R:3:forces:R:3 calculation_type=dimer_refinement calculation_label=MgS/refinement_100/point_079_distance_2.45 d4_functional=PBE d4_method=pbe d4_energy_eV=-0.04196379184168181 source_geometry=/mnt/ceph/users/cwoodson/dft_calc/diatomics/dimer_jobs/MgS/refinement_100/point_079_distance_2.45/geometry.in energy=-0.04196379184168181 free_energy=-0.04196379184168181 pbc="F F F"
Mg       0.00000000       0.00000000      -1.22500000      -0.00000000      -0.00000000       0.00222309
S        0.00000000       0.00000000       1.22500000      -0.00000000      -0.00000000      -0.00222309
