2
Properties=species:S:1:pos:R:3:forces:R:3 calculation_type=dimer_refinement calculation_label=MgS/refinement_100/point_089_distance_2.55 d4_functional=PBE d4_method=pbe d4_energy_eV=-0.0417532674641422 source_geometry=/mnt/ceph/users/cwoodson/dft_calc/diatomics/dimer_jobs/MgS/refinement_100/point_089_distance_2.55/geometry.in energy=-0.0417532674641422 free_energy=-0.0417532674641422 pbc="F F F"
Mg       0.00000000       0.00000000      -1.27500000      -0.00000000      -0.00000000       0.00189981
S        0.00000000       0.00000000       1.27500000      -0.00000000      -0.00000000      -0.00189981
