2
Properties=species:S:1:pos:R:3:forces:R:3 calculation_type=dimer_refinement calculation_label=MgS/refinement_41/point_024_distance_2.200000 d4_functional=PBE d4_method=pbe d4_energy_eV=-0.042494440883543295 source_geometry=/mnt/ceph/users/cwoodson/dft_calc/diatomics/dimer_jobs/MgS/refinement_41/point_024_distance_2.200000/geometry.in energy=-0.042494440883543295 free_energy=-0.042494440883543295 pbc="F F F"
Mg       0.00000000       0.00000000      -1.10000000      -0.00000000      -0.00000000       0.00189159
S        0.00000000       0.00000000       1.10000000      -0.00000000      -0.00000000      -0.00189159
