2
Properties=species:S:1:pos:R:3:forces:R:3 calculation_type=dimer_refinement calculation_label=MgS/refinement_41/point_005_distance_2.010000 d4_functional=PBE d4_method=pbe d4_energy_eV=-0.04281297383227538 source_geometry=/mnt/ceph/users/cwoodson/dft_calc/diatomics/dimer_jobs/MgS/refinement_41/point_005_distance_2.010000/geometry.in energy=-0.04281297383227538 free_energy=-0.04281297383227538 pbc="F F F"
Mg       0.00000000       0.00000000      -1.00500000      -0.00000000      -0.00000000       0.00147870
S        0.00000000       0.00000000       1.00500000      -0.00000000      -0.00000000      -0.00147870
