2
Properties=species:S:1:pos:R:3:forces:R:3 calculation_type=dimer_refinement calculation_label=MgS/refinement_100/point_066_distance_2.32 d4_functional=PBE d4_method=pbe d4_energy_eV=-0.04225144203481192 source_geometry=/mnt/ceph/users/cwoodson/dft_calc/diatomics/dimer_jobs/MgS/refinement_100/point_066_distance_2.32/geometry.in energy=-0.04225144203481192 free_energy=-0.04225144203481192 pbc="F F F"
Mg       0.00000000       0.00000000      -1.16000000      -0.00000000      -0.00000000       0.00214560
S        0.00000000       0.00000000       1.16000000      -0.00000000      -0.00000000      -0.00214560
