2
Properties=species:S:1:pos:R:3:forces:R:3 calculation_type=dimer_refinement calculation_label=MgS/refinement_100/point_082_distance_2.48 d4_functional=PBE d4_method=pbe d4_energy_eV=-0.04189769319426741 source_geometry=/mnt/ceph/users/cwoodson/dft_calc/diatomics/dimer_jobs/MgS/refinement_100/point_082_distance_2.48/geometry.in energy=-0.04189769319426741 free_energy=-0.04189769319426741 pbc="F F F"
Mg       0.00000000       0.00000000      -1.24000000      -0.00000000      -0.00000000       0.00217784
S        0.00000000       0.00000000       1.24000000      -0.00000000      -0.00000000      -0.00217784
