5
Properties=species:S:1:pos:R:3:forces:R:3 calculation_type=dimer_refinement calculation_label=MgSH2/refinement_41/point_018_distance_2.260000 d4_functional=PBE d4_method=pbe d4_energy_eV=-0.0833013430461222 source_geometry=/mnt/ceph/users/cwoodson/dft_calc/diatomics/dimer_jobs/MgSH2/refinement_41/point_018_distance_2.260000/geometry.in energy=-0.0833013430461222 free_energy=-0.0833013430461222 pbc="F F F"
Mg       0.00000000       0.00000000       0.00000000       0.00000000      -0.00000000      -0.00000000
S       -2.24884196      -0.22429855       0.00000000       0.01481880      -0.00138174      -0.00000000
S        2.24884196       0.22429855       0.00000000      -0.01481880       0.00138174      -0.00000000
H       -2.43315396       1.10459845      -0.00000000       0.00278327       0.00137959      -0.00000000
H        2.43315396      -1.10459845      -0.00000000      -0.00278327      -0.00137959      -0.00000000
