5
Properties=species:S:1:pos:R:3:forces:R:3 calculation_type=dimer_refinement calculation_label=MgSH2/refinement_41/point_020_distance_2.280000 d4_functional=PBE d4_method=pbe d4_energy_eV=-0.08261209137495626 source_geometry=/mnt/ceph/users/cwoodson/dft_calc/diatomics/dimer_jobs/MgSH2/refinement_41/point_020_distance_2.280000/geometry.in energy=-0.08261209137495626 free_energy=-0.08261209137495626 pbc="F F F"
Mg       0.00000000       0.00000000       0.00000000      -0.00000000       0.00000000      -0.00000000
S       -2.26874322      -0.22628349       0.00000000       0.01424666      -0.00140534      -0.00000000
S        2.26874322       0.22628349       0.00000000      -0.01424666       0.00140534      -0.00000000
H       -2.45305522       1.10261351      -0.00000000       0.00278723       0.00136112      -0.00000000
H        2.45305522      -1.10261351      -0.00000000      -0.00278723      -0.00136112      -0.00000000
