5
Properties=species:S:1:pos:R:3:forces:R:3 calculation_type=dimer_refinement calculation_label=MgSH2/refinement_41/point_011_distance_2.190000 d4_functional=PBE d4_method=pbe d4_energy_eV=-0.08588661168042488 source_geometry=/mnt/ceph/users/cwoodson/dft_calc/diatomics/dimer_jobs/MgSH2/refinement_41/point_011_distance_2.190000/geometry.in energy=-0.08588661168042488 free_energy=-0.08588661168042488 pbc="F F F"
Mg       0.00000000       0.00000000       0.00000000       0.00000000       0.00000000      -0.00000000
S       -2.17918756      -0.21735125       0.00000000       0.01677484      -0.00131354      -0.00000000
S        2.17918756       0.21735125       0.00000000      -0.01677484       0.00131354      -0.00000000
H       -2.36349956       1.11154575      -0.00000000       0.00268275       0.00149206      -0.00000000
H        2.36349956      -1.11154575      -0.00000000      -0.00268275      -0.00149206      -0.00000000
