5
Properties=species:S:1:pos:R:3:forces:R:3 calculation_type=dimer_refinement calculation_label=MgSH2/refinement_41/point_032_distance_2.400000 d4_functional=PBE d4_method=pbe d4_energy_eV=-0.07897857176888884 source_geometry=/mnt/ceph/users/cwoodson/dft_calc/diatomics/dimer_jobs/MgSH2/refinement_41/point_032_distance_2.400000/geometry.in energy=-0.07897857176888884 free_energy=-0.07897857176888884 pbc="F F F"
Mg       0.00000000       0.00000000       0.00000000      -0.00000000      -0.00000000      -0.00000000
S       -2.38815075      -0.23819315       0.00000000       0.01063178      -0.00158919      -0.00000000
S        2.38815075       0.23819315       0.00000000      -0.01063178       0.00158919      -0.00000000
H       -2.57246275       1.09070385       0.00000000       0.00270246       0.00131394      -0.00000000
H        2.57246275      -1.09070385       0.00000000      -0.00270246      -0.00131394      -0.00000000
