2
Properties=species:S:1:pos:R:3:forces:R:3 calculation_type=dimer_refinement calculation_label=NaCl/refinement_41/point_009_distance_2.240000 d4_functional=PBE d4_method=pbe d4_energy_eV=-0.017284420174228772 source_geometry=/mnt/ceph/users/cwoodson/dft_calc/diatomics/dimer_jobs/NaCl/refinement_41/point_009_distance_2.240000/geometry.in energy=-0.017284420174228772 free_energy=-0.017284420174228772 pbc="F F F"
Na       0.00000000       0.00000000      -1.12000000      -0.00000000      -0.00000000       0.00059165
Cl       0.00000000       0.00000000       1.12000000      -0.00000000      -0.00000000      -0.00059165
