2
Properties=species:S:1:pos:R:3:forces:R:3 calculation_type=dimer_refinement calculation_label=NaCl/refinement_41/point_025_distance_2.400000 d4_functional=PBE d4_method=pbe d4_energy_eV=-0.017203873179597318 source_geometry=/mnt/ceph/users/cwoodson/dft_calc/diatomics/dimer_jobs/NaCl/refinement_41/point_025_distance_2.400000/geometry.in energy=-0.017203873179597318 free_energy=-0.017203873179597318 pbc="F F F"
Na       0.00000000       0.00000000      -1.20000000      -0.00000000      -0.00000000       0.00031185
Cl       0.00000000       0.00000000       1.20000000      -0.00000000      -0.00000000      -0.00031185
