2
Properties=species:S:1:pos:R:3:forces:R:3 calculation_type=dimer_refinement calculation_label=NaCl/refinement_41/point_039_distance_2.540000 d4_functional=PBE d4_method=pbe d4_energy_eV=-0.01722723439644015 source_geometry=/mnt/ceph/users/cwoodson/dft_calc/diatomics/dimer_jobs/NaCl/refinement_41/point_039_distance_2.540000/geometry.in energy=-0.01722723439644015 free_energy=-0.01722723439644015 pbc="F F F"
Na       0.00000000       0.00000000      -1.27000000      -0.00000000      -0.00000000      -0.00088704
Cl       0.00000000       0.00000000       1.27000000      -0.00000000      -0.00000000       0.00088704
