2
Properties=species:S:1:pos:R:3:forces:R:3 calculation_type=dimer_refinement calculation_label=NaCl/refinement_100/point_096_distance_2.81 d4_functional=PBE d4_method=pbe d4_energy_eV=-0.018692378939623593 source_geometry=/mnt/ceph/users/cwoodson/dft_calc/diatomics/dimer_jobs/NaCl/refinement_100/point_096_distance_2.81/geometry.in energy=-0.018692378939623593 free_energy=-0.018692378939623593 pbc="F F F"
Na       0.00000000       0.00000000      -1.40500000      -0.00000000      -0.00000000      -0.01431821
Cl       0.00000000       0.00000000       1.40500000      -0.00000000      -0.00000000       0.01431821
