2
Properties=species:S:1:pos:R:3:forces:R:3 calculation_type=dimer_refinement calculation_label=NaCl/refinement_100/point_074_distance_2.59 d4_functional=PBE d4_method=pbe d4_energy_eV=-0.01729260970705889 source_geometry=/mnt/ceph/users/cwoodson/dft_calc/diatomics/dimer_jobs/NaCl/refinement_100/point_074_distance_2.59/geometry.in energy=-0.01729260970705889 free_energy=-0.01729260970705889 pbc="F F F"
Na       0.00000000       0.00000000      -1.29500000      -0.00000000      -0.00000000      -0.00178684
Cl       0.00000000       0.00000000       1.29500000      -0.00000000      -0.00000000       0.00178684
