2
Properties=species:S:1:pos:R:3:forces:R:3 calculation_type=dimer_refinement calculation_label=NaCl/refinement_100/point_075_distance_2.60 d4_functional=PBE d4_method=pbe d4_energy_eV=-0.01731159418267801 source_geometry=/mnt/ceph/users/cwoodson/dft_calc/diatomics/dimer_jobs/NaCl/refinement_100/point_075_distance_2.60/geometry.in energy=-0.01731159418267801 free_energy=-0.01731159418267801 pbc="F F F"
Na       0.00000000       0.00000000      -1.30000000      -0.00000000      -0.00000000      -0.00201297
Cl       0.00000000       0.00000000       1.30000000      -0.00000000      -0.00000000       0.00201297
