2
Properties=species:S:1:pos:R:3:forces:R:3 calculation_type=dimer_refinement calculation_label=NaCl/refinement_100/point_022_distance_2.07 d4_functional=PBE d4_method=pbe d4_energy_eV=-0.01738186043079397 source_geometry=/mnt/ceph/users/cwoodson/dft_calc/diatomics/dimer_jobs/NaCl/refinement_100/point_022_distance_2.07/geometry.in energy=-0.01738186043079397 free_energy=-0.01738186043079397 pbc="F F F"
Na       0.00000000       0.00000000      -1.03500000      -0.00000000      -0.00000000       0.00053400
Cl       0.00000000       0.00000000       1.03500000      -0.00000000      -0.00000000      -0.00053400
