2
Properties=species:S:1:pos:R:3:forces:R:3 calculation_type=dimer_refinement calculation_label=NaF/refinement_100/point_045_distance_1.88 d4_functional=PBE d4_method=pbe d4_energy_eV=-0.009255333343533404 source_geometry=/mnt/ceph/users/cwoodson/dft_calc/diatomics/dimer_jobs/NaF/refinement_100/point_045_distance_1.88/geometry.in energy=-0.009255333343533404 free_energy=-0.009255333343533404 pbc="F F F"
Na       0.00000000       0.00000000      -0.94000000      -0.00000000      -0.00000000       0.00071199
F        0.00000000       0.00000000       0.94000000      -0.00000000      -0.00000000      -0.00071199
