2
Properties=species:S:1:pos:R:3:forces:R:3 calculation_type=dimer_refinement calculation_label=NaF/refinement_100/point_015_distance_1.58 d4_functional=PBE d4_method=pbe d4_energy_eV=-0.009504315965141378 source_geometry=/mnt/ceph/users/cwoodson/dft_calc/diatomics/dimer_jobs/NaF/refinement_100/point_015_distance_1.58/geometry.in energy=-0.009504315965141378 free_energy=-0.009504315965141378 pbc="F F F"
Na       0.00000000       0.00000000      -0.79000000      -0.00000000      -0.00000000       0.00092522
F        0.00000000       0.00000000       0.79000000      -0.00000000      -0.00000000      -0.00092522
