2
Properties=species:S:1:pos:R:3:forces:R:3 calculation_type=dimer_refinement calculation_label=NaF/refinement_100/point_076_distance_2.19 d4_functional=PBE d4_method=pbe d4_energy_eV=-0.009262372496312036 source_geometry=/mnt/ceph/users/cwoodson/dft_calc/diatomics/dimer_jobs/NaF/refinement_100/point_076_distance_2.19/geometry.in energy=-0.009262372496312036 free_energy=-0.009262372496312036 pbc="F F F"
Na       0.00000000       0.00000000      -1.09500000      -0.00000000      -0.00000000      -0.00179463
F        0.00000000       0.00000000       1.09500000      -0.00000000      -0.00000000       0.00179463
