2
Properties=species:S:1:pos:R:3:forces:R:3 calculation_type=dimer_refinement calculation_label=NaF/refinement_100/point_056_distance_1.99 d4_functional=PBE d4_method=pbe d4_energy_eV=-0.009189060715138305 source_geometry=/mnt/ceph/users/cwoodson/dft_calc/diatomics/dimer_jobs/NaF/refinement_100/point_056_distance_1.99/geometry.in energy=-0.009189060715138305 free_energy=-0.009189060715138305 pbc="F F F"
Na       0.00000000       0.00000000      -0.99500000      -0.00000000      -0.00000000       0.00044537
F        0.00000000       0.00000000       0.99500000      -0.00000000      -0.00000000      -0.00044537
