2
Properties=species:S:1:pos:R:3:forces:R:3 calculation_type=dimer_refinement calculation_label=NaF/refinement_100/point_003_distance_1.46 d4_functional=PBE d4_method=pbe d4_energy_eV=-0.009620820378016547 source_geometry=/mnt/ceph/users/cwoodson/dft_calc/diatomics/dimer_jobs/NaF/refinement_100/point_003_distance_1.46/geometry.in energy=-0.009620820378016547 free_energy=-0.009620820378016547 pbc="F F F"
Na       0.00000000       0.00000000      -0.73000000      -0.00000000      -0.00000000       0.00102042
F        0.00000000       0.00000000       0.73000000      -0.00000000      -0.00000000      -0.00102042
