2
Properties=species:S:1:pos:R:3:forces:R:3 calculation_type=dimer_refinement calculation_label=NaF/refinement_41/point_036_distance_2.090000 d4_functional=PBE d4_method=pbe d4_energy_eV=-0.00917257692438575 source_geometry=/mnt/ceph/users/cwoodson/dft_calc/diatomics/dimer_jobs/NaF/refinement_41/point_036_distance_2.090000/geometry.in energy=-0.00917257692438575 free_energy=-0.00917257692438575 pbc="F F F"
Na       0.00000000       0.00000000      -1.04500000      -0.00000000      -0.00000000      -0.00021622
F        0.00000000       0.00000000       1.04500000      -0.00000000      -0.00000000       0.00021622
