2
Properties=species:S:1:pos:R:3:forces:R:3 calculation_type=dimer_refinement calculation_label=NaF/refinement_41/point_002_distance_1.750000 d4_functional=PBE d4_method=pbe d4_energy_eV=-0.009356077660653243 source_geometry=/mnt/ceph/users/cwoodson/dft_calc/diatomics/dimer_jobs/NaF/refinement_41/point_002_distance_1.750000/geometry.in energy=-0.009356077660653243 free_energy=-0.009356077660653243 pbc="F F F"
Na       0.00000000       0.00000000      -0.87500000      -0.00000000      -0.00000000       0.00082224
F        0.00000000       0.00000000       0.87500000      -0.00000000      -0.00000000      -0.00082224
