8
Properties=species:S:1:pos:R:3:forces:R:3 calculation_type=dimer_refinement calculation_label=Si2H6/refinement_100/point_020_distance_2.02 d4_functional=PBE d4_method=pbe d4_energy_eV=-0.13690741178747365 source_geometry=/mnt/ceph/users/cwoodson/dft_calc/diatomics/dimer_jobs/Si2H6/refinement_100/point_020_distance_2.02/geometry.in energy=-0.13690741178747365 free_energy=-0.13690741178747365 pbc="F F F"
Si       0.00000000       0.00000000       1.01000000      -0.00000000      -0.00000000      -0.01059698
Si       0.00000000       0.00000000      -1.01000000       0.00000000       0.00000000       0.01059698
H        0.00000000       1.39328600       1.52833700       0.00000000      -0.00101403      -0.00340892
H       -1.20662100      -0.69664300       1.52833700       0.00087818       0.00050702      -0.00340892
H        1.20662100      -0.69664300       1.52833700      -0.00087818       0.00050702      -0.00340892
H        0.00000000      -1.39328600      -1.52833700      -0.00000000       0.00101403       0.00340892
H       -1.20662100       0.69664300      -1.52833700       0.00087818      -0.00050702       0.00340892
H        1.20662100       0.69664300      -1.52833700      -0.00087818      -0.00050702       0.00340892
