8
Properties=species:S:1:pos:R:3:forces:R:3 calculation_type=dimer_refinement calculation_label=Si2H6/refinement_100/point_082_distance_2.64 d4_functional=PBE d4_method=pbe d4_energy_eV=-0.12545734741920964 source_geometry=/mnt/ceph/users/cwoodson/dft_calc/diatomics/dimer_jobs/Si2H6/refinement_100/point_082_distance_2.64/geometry.in energy=-0.12545734741920964 free_energy=-0.12545734741920964 pbc="F F F"
Si       0.00000000       0.00000000       1.32000000       0.00000000      -0.00000000       0.02311808
Si       0.00000000       0.00000000      -1.32000000      -0.00000000       0.00000000      -0.02311808
H        0.00000000       1.39328600       1.83833700      -0.00000000       0.00368652      -0.00225097
H       -1.20662100      -0.69664300       1.83833700      -0.00319262      -0.00184326      -0.00225097
H        1.20662100      -0.69664300       1.83833700       0.00319262      -0.00184326      -0.00225097
H        0.00000000      -1.39328600      -1.83833700       0.00000000      -0.00368652       0.00225097
H       -1.20662100       0.69664300      -1.83833700      -0.00319262       0.00184326       0.00225097
H        1.20662100       0.69664300      -1.83833700       0.00319262       0.00184326       0.00225097
