8
Properties=species:S:1:pos:R:3:forces:R:3 calculation_type=dimer_refinement calculation_label=Si2H6/refinement_100/point_074_distance_2.56 d4_functional=PBE d4_method=pbe d4_energy_eV=-0.12537346780489578 source_geometry=/mnt/ceph/users/cwoodson/dft_calc/diatomics/dimer_jobs/Si2H6/refinement_100/point_074_distance_2.56/geometry.in energy=-0.12537346780489578 free_energy=-0.12537346780489578 pbc="F F F"
Si       0.00000000       0.00000000       1.28000000       0.00000000      -0.00000000      -0.00022645
Si       0.00000000       0.00000000      -1.28000000      -0.00000000       0.00000000       0.00022645
H        0.00000000       1.39328600       1.79833700      -0.00000000       0.00074754      -0.00330841
H       -1.20662100      -0.69664300       1.79833700      -0.00064739      -0.00037377      -0.00330841
H        1.20662100      -0.69664300       1.79833700       0.00064739      -0.00037377      -0.00330841
H        0.00000000      -1.39328600      -1.79833700       0.00000000      -0.00074754       0.00330841
H       -1.20662100       0.69664300      -1.79833700      -0.00064739       0.00037377       0.00330841
H        1.20662100       0.69664300      -1.79833700       0.00064739       0.00037377       0.00330841
