8
Properties=species:S:1:pos:R:3:forces:R:3 calculation_type=dimer_refinement calculation_label=Si2H6/refinement_100/point_071_distance_2.53 d4_functional=PBE d4_method=pbe d4_energy_eV=-0.1257543193654924 source_geometry=/mnt/ceph/users/cwoodson/dft_calc/diatomics/dimer_jobs/Si2H6/refinement_100/point_071_distance_2.53/geometry.in energy=-0.1257543193654924 free_energy=-0.1257543193654924 pbc="F F F"
Si       0.00000000       0.00000000       1.26500000       0.00000000      -0.00000000      -0.00438363
Si       0.00000000       0.00000000      -1.26500000       0.00000000       0.00000000       0.00438363
H        0.00000000       1.39328600       1.78333700       0.00000000       0.00017390      -0.00351000
H       -1.20662100      -0.69664300       1.78333700      -0.00015060      -0.00008695      -0.00351000
H        1.20662100      -0.69664300       1.78333700       0.00015060      -0.00008695      -0.00351000
H        0.00000000      -1.39328600      -1.78333700       0.00000000      -0.00017390       0.00351000
H       -1.20662100       0.69664300      -1.78333700      -0.00015060       0.00008695       0.00351000
H        1.20662100       0.69664300      -1.78333700       0.00015060       0.00008695       0.00351000
