8
Properties=species:S:1:pos:R:3:forces:R:3 calculation_type=dimer_refinement calculation_label=Si2H6/refinement_41/point_038_distance_2.500000 d4_functional=PBE d4_method=pbe d4_energy_eV=-0.12641487361685308 source_geometry=/mnt/ceph/users/cwoodson/dft_calc/diatomics/dimer_jobs/Si2H6/refinement_41/point_038_distance_2.500000/geometry.in energy=-0.12641487361685308 free_energy=-0.12641487361685308 pbc="F F F"
Si      -0.00000000      -0.00000751       1.25000000       0.00000001      -0.00000003      -0.00729771
Si       0.00000000       0.00000751      -1.25000000      -0.00000001       0.00000003       0.00729771
H       -0.00000200       1.38690849       1.76162100      -0.00000000      -0.00047845      -0.00375950
H       -1.20110300      -0.69345951       1.76163300       0.00041438       0.00023926      -0.00375949
H        1.20110400      -0.69345651       1.76163300      -0.00041439       0.00023926      -0.00375950
H       -0.00000200      -1.38690849      -1.76162100       0.00000000       0.00047845       0.00375950
H       -1.20110300       0.69345951      -1.76163200       0.00041438      -0.00023926       0.00375950
H        1.20110500       0.69345651      -1.76163300      -0.00041437      -0.00023925       0.00375949
