8
Properties=species:S:1:pos:R:3:forces:R:3 calculation_type=dimer_refinement calculation_label=Si2H6/refinement_100/point_087_distance_2.69 d4_functional=PBE d4_method=pbe d4_energy_eV=-0.12698232373072915 source_geometry=/mnt/ceph/users/cwoodson/dft_calc/diatomics/dimer_jobs/Si2H6/refinement_100/point_087_distance_2.69/geometry.in energy=-0.12698232373072915 free_energy=-0.12698232373072915 pbc="F F F"
Si       0.00000000       0.00000000       1.34500000      -0.00000000      -0.00000001       0.04937947
Si       0.00000000       0.00000000      -1.34500000      -0.00000000       0.00000001      -0.04937947
H        0.00000000       1.39328600       1.86333700       0.00000000       0.00676789      -0.00114324
H       -1.20662100      -0.69664300       1.86333700      -0.00586116      -0.00338394      -0.00114324
H        1.20662100      -0.69664300       1.86333700       0.00586116      -0.00338394      -0.00114324
H        0.00000000      -1.39328600      -1.86333700       0.00000000      -0.00676789       0.00114324
H       -1.20662100       0.69664300      -1.86333700      -0.00586116       0.00338394       0.00114324
H        1.20662100       0.69664300      -1.86333700       0.00586116       0.00338394       0.00114324
