8
Properties=species:S:1:pos:R:3:forces:R:3 calculation_type=dimer_refinement calculation_label=Si2H6/refinement_100/point_028_distance_2.10 d4_functional=PBE d4_method=pbe d4_energy_eV=-0.13519959634116158 source_geometry=/mnt/ceph/users/cwoodson/dft_calc/diatomics/dimer_jobs/Si2H6/refinement_100/point_028_distance_2.10/geometry.in energy=-0.13519959634116158 free_energy=-0.13519959634116158 pbc="F F F"
Si       0.00000000       0.00000000       1.05000000      -0.00000000      -0.00000000      -0.01118907
Si       0.00000000       0.00000000      -1.05000000      -0.00000000       0.00000000       0.01118907
H        0.00000000       1.39328600       1.56833700       0.00000000      -0.00105859      -0.00355361
H       -1.20662100      -0.69664300       1.56833700       0.00091677       0.00052930      -0.00355361
H        1.20662100      -0.69664300       1.56833700      -0.00091677       0.00052930      -0.00355361
H        0.00000000      -1.39328600      -1.56833700      -0.00000000       0.00105859       0.00355361
H       -1.20662100       0.69664300      -1.56833700       0.00091677      -0.00052930       0.00355361
H        1.20662100       0.69664300      -1.56833700      -0.00091677      -0.00052930       0.00355361
