8
Properties=species:S:1:pos:R:3:forces:R:3 calculation_type=dimer_refinement calculation_label=Si2H6/refinement_100/point_096_distance_2.78 d4_functional=PBE d4_method=pbe d4_energy_eV=-0.1331679455985563 source_geometry=/mnt/ceph/users/cwoodson/dft_calc/diatomics/dimer_jobs/Si2H6/refinement_100/point_096_distance_2.78/geometry.in energy=-0.1331679455985563 free_energy=-0.1331679455985563 pbc="F F F"
Si       0.00000000       0.00000000       1.39000000       0.00000000      -0.00000001       0.07865233
Si       0.00000000       0.00000000      -1.39000000       0.00000000       0.00000001      -0.07865233
H        0.00000000       1.39328600       1.90833700       0.00000000       0.01013391      -0.00000110
H       -1.20662100      -0.69664300       1.90833700      -0.00877621      -0.00506695      -0.00000111
H        1.20662100      -0.69664300       1.90833700       0.00877621      -0.00506695      -0.00000111
H        0.00000000      -1.39328600      -1.90833700       0.00000000      -0.01013391       0.00000110
H       -1.20662100       0.69664300      -1.90833700      -0.00877621       0.00506695       0.00000111
H        1.20662100       0.69664300      -1.90833700       0.00877621       0.00506695       0.00000111
