8
Properties=species:S:1:pos:R:3:forces:R:3 calculation_type=dimer_refinement calculation_label=Si2H6/refinement_100/point_070_distance_2.52 d4_functional=PBE d4_method=pbe d4_energy_eV=-0.1259095819567887 source_geometry=/mnt/ceph/users/cwoodson/dft_calc/diatomics/dimer_jobs/Si2H6/refinement_100/point_070_distance_2.52/geometry.in energy=-0.1259095819567887 free_energy=-0.1259095819567887 pbc="F F F"
Si       0.00000000       0.00000000       1.26000000      -0.00000000      -0.00000000      -0.00542702
Si       0.00000000       0.00000000      -1.26000000       0.00000000       0.00000000       0.00542702
H        0.00000000       1.39328600       1.77833700      -0.00000000       0.00002464      -0.00356138
H       -1.20662100      -0.69664300       1.77833700      -0.00002134      -0.00001232      -0.00356138
H        1.20662100      -0.69664300       1.77833700       0.00002134      -0.00001232      -0.00356138
H        0.00000000      -1.39328600      -1.77833700      -0.00000000      -0.00002464       0.00356138
H       -1.20662100       0.69664300      -1.77833700      -0.00002134       0.00001232       0.00356138
H        1.20662100       0.69664300      -1.77833700       0.00002134       0.00001232       0.00356138
