8
Properties=species:S:1:pos:R:3:forces:R:3 calculation_type=dimer_refinement calculation_label=Si2H6/refinement_41/point_018_distance_2.300000 d4_functional=PBE d4_method=pbe d4_energy_eV=-0.13084077914752895 source_geometry=/mnt/ceph/users/cwoodson/dft_calc/diatomics/dimer_jobs/Si2H6/refinement_41/point_018_distance_2.300000/geometry.in energy=-0.13084077914752895 free_energy=-0.13084077914752895 pbc="F F F"
Si       0.00000000      -0.00000691       1.15000000       0.00000001       0.00000002      -0.01174865
Si       0.00000000       0.00000691      -1.15000000      -0.00000001      -0.00000002       0.01174866
H       -0.00000200       1.38690909       1.66162100       0.00000000      -0.00116415      -0.00385969
H       -1.20110300      -0.69345891       1.66163300       0.00100821       0.00058210      -0.00385971
H        1.20110400      -0.69345591       1.66163300      -0.00100822       0.00058210      -0.00385971
H       -0.00000200      -1.38690909      -1.66162100       0.00000000       0.00116415       0.00385969
H       -1.20110300       0.69345891      -1.66163200       0.00100821      -0.00058210       0.00385971
H        1.20110500       0.69345591      -1.66163300      -0.00100821      -0.00058210       0.00385971
