8
Properties=species:S:1:pos:R:3:forces:R:3 calculation_type=dimer_refinement calculation_label=Si2H6/refinement_100/point_095_distance_2.77 d4_functional=PBE d4_method=pbe d4_energy_eV=-0.1323753199968053 source_geometry=/mnt/ceph/users/cwoodson/dft_calc/diatomics/dimer_jobs/Si2H6/refinement_100/point_095_distance_2.77/geometry.in energy=-0.1323753199968053 free_energy=-0.1323753199968053 pbc="F F F"
Si       0.00000000       0.00000000       1.38500000       0.00000000      -0.00000001       0.07950812
Si       0.00000000       0.00000000      -1.38500000       0.00000000       0.00000001      -0.07950812
H        0.00000000       1.39328600       1.90333700      -0.00000000       0.01021630       0.00004196
H       -1.20662100      -0.69664300       1.90333700      -0.00884757      -0.00510815       0.00004196
H        1.20662100      -0.69664300       1.90333700       0.00884757      -0.00510815       0.00004196
H        0.00000000      -1.39328600      -1.90333700      -0.00000000      -0.01021630      -0.00004196
H       -1.20662100       0.69664300      -1.90333700      -0.00884757       0.00510815      -0.00004196
H        1.20662100       0.69664300      -1.90333700       0.00884757       0.00510815      -0.00004196
