8
Properties=species:S:1:pos:R:3:forces:R:3 calculation_type=dimer_refinement calculation_label=Si2H6/refinement_41/point_037_distance_2.490000 d4_functional=PBE d4_method=pbe d4_energy_eV=-0.12660434416001354 source_geometry=/mnt/ceph/users/cwoodson/dft_calc/diatomics/dimer_jobs/Si2H6/refinement_41/point_037_distance_2.490000/geometry.in energy=-0.12660434416001354 free_energy=-0.12660434416001354 pbc="F F F"
Si      -0.00000000      -0.00000748       1.24500000       0.00000001      -0.00000003      -0.00794097
Si       0.00000000       0.00000748      -1.24500000      -0.00000001       0.00000002       0.00794097
H       -0.00000200       1.38690852       1.75662100       0.00000000      -0.00056544      -0.00378659
H       -1.20110300      -0.69345948       1.75663300       0.00048971       0.00028275      -0.00378658
H        1.20110400      -0.69345648       1.75663300      -0.00048972       0.00028275      -0.00378659
H       -0.00000200      -1.38690852      -1.75662100       0.00000000       0.00056544       0.00378659
H       -1.20110300       0.69345948      -1.75663200       0.00048971      -0.00028275       0.00378659
H        1.20110500       0.69345648      -1.75663300      -0.00048971      -0.00028275       0.00378658
