8
Properties=species:S:1:pos:R:3:forces:R:3 calculation_type=dimer_refinement calculation_label=Si2H6/refinement_100/point_042_distance_2.24 d4_functional=PBE d4_method=pbe d4_energy_eV=-0.13203979875020566 source_geometry=/mnt/ceph/users/cwoodson/dft_calc/diatomics/dimer_jobs/Si2H6/refinement_100/point_042_distance_2.24/geometry.in energy=-0.13203979875020566 free_energy=-0.13203979875020566 pbc="F F F"
Si       0.00000000       0.00000000       1.12000000       0.00000000      -0.00000000      -0.01188541
Si       0.00000000       0.00000000      -1.12000000       0.00000000       0.00000000       0.01188541
H        0.00000000       1.39328600       1.63833700      -0.00000000      -0.00108359      -0.00375284
H       -1.20662100      -0.69664300       1.63833700       0.00093841       0.00054179      -0.00375284
H        1.20662100      -0.69664300       1.63833700      -0.00093841       0.00054179      -0.00375284
H        0.00000000      -1.39328600      -1.63833700      -0.00000000       0.00108359       0.00375284
H       -1.20662100       0.69664300      -1.63833700       0.00093841      -0.00054179       0.00375284
H        1.20662100       0.69664300      -1.63833700      -0.00093841      -0.00054179       0.00375284
