8
Properties=species:S:1:pos:R:3:forces:R:3 calculation_type=dimer_refinement calculation_label=Si2H6/refinement_100/point_041_distance_2.23 d4_functional=PBE d4_method=pbe d4_energy_eV=-0.13227094813674584 source_geometry=/mnt/ceph/users/cwoodson/dft_calc/diatomics/dimer_jobs/Si2H6/refinement_100/point_041_distance_2.23/geometry.in energy=-0.13227094813674584 free_energy=-0.13227094813674584 pbc="F F F"
Si       0.00000000       0.00000000       1.11500000      -0.00000000      -0.00000000      -0.01186005
Si       0.00000000       0.00000000      -1.11500000       0.00000000       0.00000000       0.01186005
H        0.00000000       1.39328600       1.63333700       0.00000000      -0.00108549      -0.00374159
H       -1.20662100      -0.69664300       1.63333700       0.00094006       0.00054275      -0.00374159
H        1.20662100      -0.69664300       1.63333700      -0.00094006       0.00054275      -0.00374159
H        0.00000000      -1.39328600      -1.63333700      -0.00000000       0.00108549       0.00374159
H       -1.20662100       0.69664300      -1.63333700       0.00094006      -0.00054275       0.00374159
H        1.20662100       0.69664300      -1.63333700      -0.00094006      -0.00054275       0.00374159
