8
Properties=species:S:1:pos:R:3:forces:R:3 calculation_type=dimer_refinement calculation_label=Si2H6/refinement_100/point_015_distance_1.97 d4_functional=PBE d4_method=pbe d4_energy_eV=-0.13793136967670594 source_geometry=/mnt/ceph/users/cwoodson/dft_calc/diatomics/dimer_jobs/Si2H6/refinement_100/point_015_distance_1.97/geometry.in energy=-0.13793136967670594 free_energy=-0.13793136967670594 pbc="F F F"
Si       0.00000000       0.00000000       0.98500000      -0.00000000      -0.00000000      -0.01019916
Si       0.00000000       0.00000000      -0.98500000      -0.00000000       0.00000000       0.01019916
H        0.00000000       1.39328600       1.50333700       0.00000000      -0.00098066      -0.00331016
H       -1.20662100      -0.69664300       1.50333700       0.00084928       0.00049033      -0.00331016
H        1.20662100      -0.69664300       1.50333700      -0.00084928       0.00049033      -0.00331016
H        0.00000000      -1.39328600      -1.50333700       0.00000000       0.00098066       0.00331016
H       -1.20662100       0.69664300      -1.50333700       0.00084928      -0.00049033       0.00331016
H        1.20662100       0.69664300      -1.50333700      -0.00084928      -0.00049033       0.00331016
