8
Properties=species:S:1:pos:R:3:forces:R:3 calculation_type=dimer_refinement calculation_label=Si2H6/refinement_100/point_019_distance_2.01 d4_functional=PBE d4_method=pbe d4_energy_eV=-0.13711496865531247 source_geometry=/mnt/ceph/users/cwoodson/dft_calc/diatomics/dimer_jobs/Si2H6/refinement_100/point_019_distance_2.01/geometry.in energy=-0.13711496865531247 free_energy=-0.13711496865531247 pbc="F F F"
Si       0.00000000       0.00000000       1.00500000      -0.00000000      -0.00000000      -0.01051849
Si       0.00000000       0.00000000      -1.00500000      -0.00000000       0.00000000       0.01051849
H        0.00000000       1.39328600       1.52333700       0.00000000      -0.00100763      -0.00338964
H       -1.20662100      -0.69664300       1.52333700       0.00087263       0.00050381      -0.00338964
H        1.20662100      -0.69664300       1.52333700      -0.00087263       0.00050381      -0.00338964
H        0.00000000      -1.39328600      -1.52333700       0.00000000       0.00100763       0.00338964
H       -1.20662100       0.69664300      -1.52333700       0.00087263      -0.00050381       0.00338964
H        1.20662100       0.69664300      -1.52333700      -0.00087263      -0.00050381       0.00338964
