8
Properties=species:S:1:pos:R:3:forces:R:3 calculation_type=dimer_refinement calculation_label=Si2H6/refinement_100/point_060_distance_2.42 d4_functional=PBE d4_method=pbe d4_energy_eV=-0.12788826651250437 source_geometry=/mnt/ceph/users/cwoodson/dft_calc/diatomics/dimer_jobs/Si2H6/refinement_100/point_060_distance_2.42/geometry.in energy=-0.12788826651250437 free_energy=-0.12788826651250437 pbc="F F F"
Si       0.00000000       0.00000000       1.21000000      -0.00000000      -0.00000000      -0.01065501
Si       0.00000000       0.00000000      -1.21000000      -0.00000000       0.00000000       0.01065501
H        0.00000000       1.39328600       1.72833700      -0.00000000      -0.00078874      -0.00381048
H       -1.20662100      -0.69664300       1.72833700       0.00068307       0.00039437      -0.00381048
H        1.20662100      -0.69664300       1.72833700      -0.00068307       0.00039437      -0.00381048
H        0.00000000      -1.39328600      -1.72833700      -0.00000000       0.00078874       0.00381048
H       -1.20662100       0.69664300      -1.72833700       0.00068307      -0.00039437       0.00381048
H        1.20662100       0.69664300      -1.72833700      -0.00068307      -0.00039437       0.00381048
