8
Properties=species:S:1:pos:R:3:forces:R:3 calculation_type=dimer_refinement calculation_label=Si2H6/refinement_100/point_053_distance_2.35 d4_functional=PBE d4_method=pbe d4_energy_eV=-0.12948005239377922 source_geometry=/mnt/ceph/users/cwoodson/dft_calc/diatomics/dimer_jobs/Si2H6/refinement_100/point_053_distance_2.35/geometry.in energy=-0.12948005239377922 free_energy=-0.12948005239377922 pbc="F F F"
Si       0.00000000       0.00000000       1.17500000      -0.00000000      -0.00000000      -0.01167858
Si       0.00000000       0.00000000      -1.17500000      -0.00000000       0.00000000       0.01167858
H        0.00000000       1.39328600       1.69333700      -0.00000000      -0.00098735      -0.00383044
H       -1.20662100      -0.69664300       1.69333700       0.00085507       0.00049368      -0.00383044
H        1.20662100      -0.69664300       1.69333700      -0.00085507       0.00049368      -0.00383044
H        0.00000000      -1.39328600      -1.69333700      -0.00000000       0.00098735       0.00383044
H       -1.20662100       0.69664300      -1.69333700       0.00085507      -0.00049368       0.00383044
H        1.20662100       0.69664300      -1.69333700      -0.00085507      -0.00049368       0.00383044
