8
Properties=species:S:1:pos:R:3:forces:R:3 calculation_type=dimer_refinement calculation_label=Si2H6/refinement_100/point_040_distance_2.22 d4_functional=PBE d4_method=pbe d4_energy_eV=-0.1325014729845647 source_geometry=/mnt/ceph/users/cwoodson/dft_calc/diatomics/dimer_jobs/Si2H6/refinement_100/point_040_distance_2.22/geometry.in energy=-0.1325014729845647 free_energy=-0.1325014729845647 pbc="F F F"
Si       0.00000000       0.00000000       1.11000000       0.00000000      -0.00000000      -0.01182973
Si       0.00000000       0.00000000      -1.11000000      -0.00000000       0.00000000       0.01182973
H        0.00000000       1.39328600       1.62833700      -0.00000000      -0.00108664      -0.00372979
H       -1.20662100      -0.69664300       1.62833700       0.00094106       0.00054332      -0.00372979
H        1.20662100      -0.69664300       1.62833700      -0.00094106       0.00054332      -0.00372979
H        0.00000000      -1.39328600      -1.62833700       0.00000000       0.00108664       0.00372979
H       -1.20662100       0.69664300      -1.62833700       0.00094106      -0.00054332       0.00372979
H        1.20662100       0.69664300      -1.62833700      -0.00094106      -0.00054332       0.00372979
