8
Properties=species:S:1:pos:R:3:forces:R:3 calculation_type=dimer_refinement calculation_label=Si2H6/refinement_100/point_001_distance_1.83 d4_functional=PBE d4_method=pbe d4_energy_eV=-0.14060783533479065 source_geometry=/mnt/ceph/users/cwoodson/dft_calc/diatomics/dimer_jobs/Si2H6/refinement_100/point_001_distance_1.83/geometry.in energy=-0.14060783533479065 free_energy=-0.14060783533479065 pbc="F F F"
Si       0.00000000       0.00000000       0.91500000       0.00000000      -0.00000000      -0.00907120
Si       0.00000000       0.00000000      -0.91500000       0.00000000       0.00000000       0.00907120
H        0.00000000       1.39328600       1.43333700      -0.00000000      -0.00087545      -0.00300700
H       -1.20662100      -0.69664300       1.43333700       0.00075816       0.00043773      -0.00300700
H        1.20662100      -0.69664300       1.43333700      -0.00075816       0.00043773      -0.00300700
H        0.00000000      -1.39328600      -1.43333700       0.00000000       0.00087545       0.00300700
H       -1.20662100       0.69664300      -1.43333700       0.00075816      -0.00043773       0.00300700
H        1.20662100       0.69664300      -1.43333700      -0.00075816      -0.00043773       0.00300700
