8
Properties=species:S:1:pos:R:3:forces:R:3 calculation_type=dimer_refinement calculation_label=Si2H6/refinement_41/point_006_distance_2.180000 d4_functional=PBE d4_method=pbe d4_energy_eV=-0.13360843554266735 source_geometry=/mnt/ceph/users/cwoodson/dft_calc/diatomics/dimer_jobs/Si2H6/refinement_41/point_006_distance_2.180000/geometry.in energy=-0.13360843554266735 free_energy=-0.13360843554266735 pbc="F F F"
Si       0.00000000      -0.00000654       1.09000000       0.00000001       0.00000002      -0.01147274
Si       0.00000000       0.00000654      -1.09000000      -0.00000001      -0.00000002       0.01147275
H       -0.00000200       1.38690946       1.60162100       0.00000000      -0.00118238      -0.00372045
H       -1.20110300      -0.69345854       1.60163300       0.00102400       0.00059122      -0.00372048
H        1.20110400      -0.69345554       1.60163300      -0.00102401       0.00059122      -0.00372048
H       -0.00000200      -1.38690946      -1.60162100       0.00000000       0.00118238       0.00372045
H       -1.20110300       0.69345854      -1.60163200       0.00102401      -0.00059122       0.00372048
H        1.20110500       0.69345554      -1.60163300      -0.00102400      -0.00059122       0.00372048
