8
Properties=species:S:1:pos:R:3:forces:R:3 calculation_type=dimer_refinement calculation_label=Si2H6/refinement_41/point_022_distance_2.340000 d4_functional=PBE d4_method=pbe d4_energy_eV=-0.12990815198302305 source_geometry=/mnt/ceph/users/cwoodson/dft_calc/diatomics/dimer_jobs/Si2H6/refinement_41/point_022_distance_2.340000/geometry.in energy=-0.12990815198302305 free_energy=-0.12990815198302305 pbc="F F F"
Si      -0.00000000      -0.00000703       1.17000000       0.00000001       0.00000001      -0.01161222
Si       0.00000000       0.00000703      -1.17000000      -0.00000001      -0.00000002       0.01161222
H       -0.00000200       1.38690897       1.68162100       0.00000000      -0.00112651      -0.00388567
H       -1.20110300      -0.69345903       1.68163300       0.00097562       0.00056329      -0.00388569
H        1.20110400      -0.69345603       1.68163300      -0.00097562       0.00056329      -0.00388569
H       -0.00000200      -1.38690897      -1.68162100       0.00000000       0.00112651       0.00388567
H       -1.20110300       0.69345903      -1.68163200       0.00097562      -0.00056329       0.00388569
H        1.20110500       0.69345603      -1.68163300      -0.00097562      -0.00056328       0.00388569
