8
Properties=species:S:1:pos:R:3:forces:R:3 calculation_type=dimer_refinement calculation_label=Si2H6/refinement_100/point_088_distance_2.70 d4_functional=PBE d4_method=pbe d4_energy_eV=-0.12747421721606664 source_geometry=/mnt/ceph/users/cwoodson/dft_calc/diatomics/dimer_jobs/Si2H6/refinement_100/point_088_distance_2.70/geometry.in energy=-0.12747421721606664 free_energy=-0.12747421721606664 pbc="F F F"
Si       0.00000000       0.00000000       1.35000000       0.00000000      -0.00000001       0.05513820
Si       0.00000000       0.00000000      -1.35000000      -0.00000000       0.00000001      -0.05513820
H        0.00000000       1.39328600       1.86833700      -0.00000000       0.00742833      -0.00090772
H       -1.20662100      -0.69664300       1.86833700      -0.00643312      -0.00371416      -0.00090772
H        1.20662100      -0.69664300       1.86833700       0.00643312      -0.00371416      -0.00090772
H        0.00000000      -1.39328600      -1.86833700       0.00000000      -0.00742833       0.00090772
H       -1.20662100       0.69664300      -1.86833700      -0.00643312       0.00371416       0.00090772
H        1.20662100       0.69664300      -1.86833700       0.00643312       0.00371416       0.00090772
