8
Properties=species:S:1:pos:R:3:forces:R:3 calculation_type=dimer_refinement calculation_label=Si2H6/refinement_100/point_047_distance_2.29 d4_functional=PBE d4_method=pbe d4_energy_eV=-0.13087727105032515 source_geometry=/mnt/ceph/users/cwoodson/dft_calc/diatomics/dimer_jobs/Si2H6/refinement_100/point_047_distance_2.29/geometry.in energy=-0.13087727105032515 free_energy=-0.13087727105032515 pbc="F F F"
Si       0.00000000       0.00000000       1.14500000      -0.00000000      -0.00000000      -0.01192172
Si       0.00000000       0.00000000      -1.14500000      -0.00000000       0.00000000       0.01192172
H        0.00000000       1.39328600       1.66333700      -0.00000000      -0.00106014      -0.00379988
H       -1.20662100      -0.69664300       1.66333700       0.00091811       0.00053007      -0.00379988
H        1.20662100      -0.69664300       1.66333700      -0.00091811       0.00053007      -0.00379988
H        0.00000000      -1.39328600      -1.66333700      -0.00000000       0.00106014       0.00379988
H       -1.20662100       0.69664300      -1.66333700       0.00091811      -0.00053007       0.00379988
H        1.20662100       0.69664300      -1.66333700      -0.00091811      -0.00053007       0.00379988
