8
Properties=species:S:1:pos:R:3:forces:R:3 calculation_type=dimer_refinement calculation_label=Si2H6/refinement_100/point_013_distance_1.95 d4_functional=PBE d4_method=pbe d4_energy_eV=-0.13833111970281814 source_geometry=/mnt/ceph/users/cwoodson/dft_calc/diatomics/dimer_jobs/Si2H6/refinement_100/point_013_distance_1.95/geometry.in energy=-0.13833111970281814 free_energy=-0.13833111970281814 pbc="F F F"
Si       0.00000000       0.00000000       0.97500000      -0.00000000      -0.00000000      -0.01003748
Si       0.00000000       0.00000000      -0.97500000       0.00000000       0.00000000       0.01003748
H        0.00000000       1.39328600       1.49333700       0.00000000      -0.00096650      -0.00326911
H       -1.20662100      -0.69664300       1.49333700       0.00083702       0.00048325      -0.00326911
H        1.20662100      -0.69664300       1.49333700      -0.00083702       0.00048325      -0.00326911
H        0.00000000      -1.39328600      -1.49333700      -0.00000000       0.00096650       0.00326911
H       -1.20662100       0.69664300      -1.49333700       0.00083702      -0.00048325       0.00326911
H        1.20662100       0.69664300      -1.49333700      -0.00083702      -0.00048325       0.00326911
