8
Properties=species:S:1:pos:R:3:forces:R:3 calculation_type=dimer_refinement calculation_label=Si2H6/refinement_41/point_030_distance_2.420000 d4_functional=PBE d4_method=pbe d4_energy_eV=-0.12807655319838449 source_geometry=/mnt/ceph/users/cwoodson/dft_calc/diatomics/dimer_jobs/Si2H6/refinement_41/point_030_distance_2.420000/geometry.in energy=-0.12807655319838449 free_energy=-0.12807655319838449 pbc="F F F"
Si      -0.00000000      -0.00000727       1.21000000       0.00000001      -0.00000000      -0.01060380
Si       0.00000000       0.00000727      -1.21000000      -0.00000001      -0.00000000       0.01060381
H       -0.00000200       1.38690873       1.72162100       0.00000000      -0.00095017      -0.00388625
H       -1.20110300      -0.69345927       1.72163300       0.00082290       0.00047511      -0.00388626
H        1.20110400      -0.69345627       1.72163300      -0.00082291       0.00047512      -0.00388626
H       -0.00000200      -1.38690873      -1.72162100       0.00000000       0.00095017       0.00388625
H       -1.20110300       0.69345927      -1.72163200       0.00082290      -0.00047512       0.00388626
H        1.20110500       0.69345627      -1.72163300      -0.00082290      -0.00047511       0.00388626
