8
Properties=species:S:1:pos:R:3:forces:R:3 calculation_type=dimer_refinement calculation_label=Si2H6/refinement_41/point_019_distance_2.310000 d4_functional=PBE d4_method=pbe d4_energy_eV=-0.1306074716472807 source_geometry=/mnt/ceph/users/cwoodson/dft_calc/diatomics/dimer_jobs/Si2H6/refinement_41/point_019_distance_2.310000/geometry.in energy=-0.1306074716472807 free_energy=-0.1306074716472807 pbc="F F F"
Si       0.00000000      -0.00000694       1.15500000       0.00000001       0.00000002      -0.01172964
Si       0.00000000       0.00000694      -1.15500000      -0.00000001      -0.00000002       0.01172965
H       -0.00000200       1.38690906       1.66662100       0.00000000      -0.00115684      -0.00386739
H       -1.20110300      -0.69345894       1.66663300       0.00100188       0.00057845      -0.00386741
H        1.20110400      -0.69345594       1.66663300      -0.00100189       0.00057845      -0.00386741
H       -0.00000200      -1.38690906      -1.66662100       0.00000000       0.00115684       0.00386739
H       -1.20110300       0.69345894      -1.66663200       0.00100189      -0.00057845       0.00386741
H        1.20110500       0.69345594      -1.66663300      -0.00100188      -0.00057845       0.00386741
