8
Properties=species:S:1:pos:R:3:forces:R:3 calculation_type=dimer_refinement calculation_label=Si2H6/refinement_100/point_026_distance_2.08 d4_functional=PBE d4_method=pbe d4_energy_eV=-0.1356341744545845 source_geometry=/mnt/ceph/users/cwoodson/dft_calc/diatomics/dimer_jobs/Si2H6/refinement_100/point_026_distance_2.08/geometry.in energy=-0.1356341744545845 free_energy=-0.1356341744545845 pbc="F F F"
Si       0.00000000       0.00000000       1.04000000      -0.00000000      -0.00000000      -0.01104875
Si       0.00000000       0.00000000      -1.04000000      -0.00000000       0.00000000       0.01104875
H        0.00000000       1.39328600       1.55833700      -0.00000000      -0.00104877      -0.00351916
H       -1.20662100      -0.69664300       1.55833700       0.00090826       0.00052439      -0.00351916
H        1.20662100      -0.69664300       1.55833700      -0.00090826       0.00052439      -0.00351916
H        0.00000000      -1.39328600      -1.55833700      -0.00000000       0.00104877       0.00351916
H       -1.20662100       0.69664300      -1.55833700       0.00090826      -0.00052439       0.00351916
H        1.20662100       0.69664300      -1.55833700      -0.00090826      -0.00052439       0.00351916
