2
Properties=species:S:1:pos:R:3:forces:R:3 calculation_type=dimer_refinement calculation_label=SiC/refinement_100/point_042_distance_1.54 d4_functional=PBE d4_method=pbe d4_energy_eV=-0.031129131751418467 source_geometry=/mnt/ceph/users/cwoodson/dft_calc/diatomics/dimer_jobs/SiC/refinement_100/point_042_distance_1.54/geometry.in energy=-0.031129131751418467 free_energy=-0.031129131751418467 pbc="F F F"
Si       0.00000000       0.00000000      -0.77000000      -0.00000000      -0.00000000       0.00133477
C        0.00000000       0.00000000       0.77000000      -0.00000000      -0.00000000      -0.00133477
