2
Properties=species:S:1:pos:R:3:forces:R:3 calculation_type=dimer_refinement calculation_label=SiC/refinement_41/point_001_distance_1.430000 d4_functional=PBE d4_method=pbe d4_energy_eV=-0.03127817821453186 source_geometry=/mnt/ceph/users/cwoodson/dft_calc/diatomics/dimer_jobs/SiC/refinement_41/point_001_distance_1.430000/geometry.in energy=-0.03127817821453186 free_energy=-0.03127817821453186 pbc="F F F"
Si       0.00000000       0.00000000      -0.71500000      -0.00000000      -0.00000000       0.00138283
C        0.00000000       0.00000000       0.71500000      -0.00000000      -0.00000000      -0.00138283
