2
Properties=species:S:1:pos:R:3:forces:R:3 calculation_type=dimer_refinement calculation_label=SiC/refinement_100/point_066_distance_1.78 d4_functional=PBE d4_method=pbe d4_energy_eV=-0.030802532770468082 source_geometry=/mnt/ceph/users/cwoodson/dft_calc/diatomics/dimer_jobs/SiC/refinement_100/point_066_distance_1.78/geometry.in energy=-0.030802532770468082 free_energy=-0.030802532770468082 pbc="F F F"
Si       0.00000000       0.00000000      -0.89000000      -0.00000000      -0.00000000       0.00145448
C        0.00000000       0.00000000       0.89000000      -0.00000000      -0.00000000      -0.00145448
