2
Properties=species:S:1:pos:R:3:forces:R:3 calculation_type=dimer_refinement calculation_label=SiC/refinement_100/point_081_distance_1.93 d4_functional=PBE d4_method=pbe d4_energy_eV=-0.030559105557055353 source_geometry=/mnt/ceph/users/cwoodson/dft_calc/diatomics/dimer_jobs/SiC/refinement_100/point_081_distance_1.93/geometry.in energy=-0.030559105557055353 free_energy=-0.030559105557055353 pbc="F F F"
Si       0.00000000       0.00000000      -0.96500000      -0.00000000      -0.00000000       0.00185300
C        0.00000000       0.00000000       0.96500000      -0.00000000      -0.00000000      -0.00185300
