2
Properties=species:S:1:pos:R:3:forces:R:3 calculation_type=dimer_refinement calculation_label=SiC/refinement_100/point_082_distance_1.94 d4_functional=PBE d4_method=pbe d4_energy_eV=-0.030540374718788604 source_geometry=/mnt/ceph/users/cwoodson/dft_calc/diatomics/dimer_jobs/SiC/refinement_100/point_082_distance_1.94/geometry.in energy=-0.030540374718788604 free_energy=-0.030540374718788604 pbc="F F F"
Si       0.00000000       0.00000000      -0.97000000      -0.00000000      -0.00000000       0.00189345
C        0.00000000       0.00000000       0.97000000      -0.00000000      -0.00000000      -0.00189345
