2
Properties=species:S:1:pos:R:3:forces:R:3 calculation_type=dimer_refinement calculation_label=SiC/refinement_41/point_004_distance_1.460000 d4_functional=PBE d4_method=pbe d4_energy_eV=-0.031236964789515848 source_geometry=/mnt/ceph/users/cwoodson/dft_calc/diatomics/dimer_jobs/SiC/refinement_41/point_004_distance_1.460000/geometry.in energy=-0.031236964789515848 free_energy=-0.031236964789515848 pbc="F F F"
Si       0.00000000       0.00000000      -0.73000000      -0.00000000      -0.00000000       0.00136525
C        0.00000000       0.00000000       0.73000000      -0.00000000      -0.00000000      -0.00136525
