2
Properties=species:S:1:pos:R:3:forces:R:3 calculation_type=dimer_refinement calculation_label=SiC/refinement_100/point_019_distance_1.31 d4_functional=PBE d4_method=pbe d4_energy_eV=-0.031449618668627444 source_geometry=/mnt/ceph/users/cwoodson/dft_calc/diatomics/dimer_jobs/SiC/refinement_100/point_019_distance_1.31/geometry.in energy=-0.031449618668627444 free_energy=-0.031449618668627444 pbc="F F F"
Si       0.00000000       0.00000000      -0.65500000      -0.00000000      -0.00000000       0.00148162
C        0.00000000       0.00000000       0.65500000      -0.00000000      -0.00000000      -0.00148162
