------------------------------------------------------------
          Invoking FHI-aims ...

          When using FHI-aims, please cite the following reference:

            Volker Blum, Ralf Gehrke, Felix Hanke, Paula Havu,
            Ville Havu, Xinguo Ren, Karsten Reuter, and Matthias Scheffler,
            'Ab Initio Molecular Simulations with Numeric Atom-Centered Orbitals',
            Computer Physics Communications 180, 2175-2196 (2009)

          In addition, many other developments in FHI-aims are likely important for
          your particular application. If so, please cite them. A partial list of references
          is written at the end of this file. Thank you for giving credit to the authors
          of these developments.

          For general information about FHI-aims please find us at

            https://fhi-aims.org

          Online tutorials can be found at

            https://fhi-aims-club.gitlab.io/tutorials/tutorials-overview/

          For any questions about FHI-aims, please visit our slack channel at

            https://fhi-aims.slack.com

          and our main development and support site at

            https://aims-git.rz-berlin.mpg.de .

          The latter site, in particular, has a wiki to collect information, as well
          as an issue tracker to log discussions, suggest improvements, and report issues
          or bugs. https://aims-git.rz-berlin.mpg.de is also the main development site
          of the project and all new and updated code versions can be obtained there.
          Please send an email to aims-coordinators@ms1p.org and we will add
          you to these sites. They are for you and everyone is welcome there.

------------------------------------------------------------



  Date     :  20260729, Time     :  183347.982
  Time zero on CPU 1             :   0.304440000000000E+00  s.
  Internal wall clock time zero  :           554582027.982  s.

  FHI-aims created a unique identifier for this run for later identification
  aims_uuid : BA72EB3C-86BA-4F6B-A6A5-1F80D4D69D44

  Build configuration of the current instance of FHI-aims
  -------------------------------------------------------
  FHI-aims version      : 260331
  Commit number         : GITDIR-NOTFOUND
  CMake host system     : Linux-4.18.0-553.97.1.el8_10.x86_64
  CMake version         : 3.31.6
  OS Distribution       : Rocky Linux 8.10 (Green Obsidian)
  Built on              : Intel(R) Xeon(R) w5-3435X
  Fortran compiler      : /mnt/sw/nix/store/pa59vldasm7gxpr7dkijhk09q5qq63q1-openmpi-4.1.8/bin/mpifort (GNU) version 13.3.0
  Fortran compiler flags: -O2 -fallow-argument-mismatch -ffree-line-length-none
  C compiler            : /mnt/sw/nix/store/pa59vldasm7gxpr7dkijhk09q5qq63q1-openmpi-4.1.8/bin/mpicc (GNU) version 13.3.0
  C compiler flags      : -O2
  C++ compiler          : /mnt/sw/nix/store/pa59vldasm7gxpr7dkijhk09q5qq63q1-openmpi-4.1.8/bin/mpicxx (GNU) version 13.3.0
  C++ compiler flags    : -O2
  HIP compiler          :
  HIP compiler flags    :
  HIP GPU arch          :
  Using MPI
  Using ScaLAPACK
  Using LibXC
  Using i-PI
  Using RLSY
  Using GREENX
  Linking against: /mnt/sw/nix/store/dwd607jzx9m5bdd100br72s3b6g05zrf-intel-oneapi-mkl-2024.2.2/mkl/2024.2/lib/libmkl_intel_lp64.so
                   /mnt/sw/nix/store/dwd607jzx9m5bdd100br72s3b6g05zrf-intel-oneapi-mkl-2024.2.2/mkl/2024.2/lib/libmkl_sequential.so
                   /mnt/sw/nix/store/dwd607jzx9m5bdd100br72s3b6g05zrf-intel-oneapi-mkl-2024.2.2/mkl/2024.2/lib/libmkl_core.so
                   /mnt/sw/nix/store/dwd607jzx9m5bdd100br72s3b6g05zrf-intel-oneapi-mkl-2024.2.2/mkl/2024.2/lib/libmkl_blacs_openmpi_lp64.so
                   /mnt/sw/nix/store/dwd607jzx9m5bdd100br72s3b6g05zrf-intel-oneapi-mkl-2024.2.2/mkl/2024.2/lib/libmkl_scalapack_lp64.so

  Using       64 parallel tasks.
  Task        0 on host worker6121 reporting.
  Task        1 on host worker6121 reporting.
  Task        2 on host worker6121 reporting.
  Task        3 on host worker6121 reporting.
  Task        4 on host worker6121 reporting.
  Task        5 on host worker6121 reporting.
  Task        6 on host worker6121 reporting.
  Task        7 on host worker6121 reporting.
  Task        8 on host worker6121 reporting.
  Task        9 on host worker6121 reporting.
  Task       10 on host worker6121 reporting.
  Task       11 on host worker6121 reporting.
  Task       12 on host worker6121 reporting.
  Task       13 on host worker6121 reporting.
  Task       14 on host worker6121 reporting.
  Task       15 on host worker6121 reporting.
  Task       16 on host worker6121 reporting.
  Task       17 on host worker6121 reporting.
  Task       18 on host worker6121 reporting.
  Task       19 on host worker6121 reporting.
  Task       20 on host worker6121 reporting.
  Task       21 on host worker6121 reporting.
  Task       22 on host worker6121 reporting.
  Task       23 on host worker6121 reporting.
  Task       24 on host worker6121 reporting.
  Task       25 on host worker6121 reporting.
  Task       26 on host worker6121 reporting.
  Task       27 on host worker6121 reporting.
  Task       28 on host worker6121 reporting.
  Task       29 on host worker6121 reporting.
  Task       30 on host worker6121 reporting.
  Task       31 on host worker6121 reporting.
  Task       32 on host worker6122 reporting.
  Task       33 on host worker6122 reporting.
  Task       34 on host worker6122 reporting.
  Task       35 on host worker6122 reporting.
  Task       36 on host worker6122 reporting.
  Task       37 on host worker6122 reporting.
  Task       38 on host worker6122 reporting.
  Task       39 on host worker6122 reporting.
  Task       40 on host worker6122 reporting.
  Task       41 on host worker6122 reporting.
  Task       42 on host worker6122 reporting.
  Task       43 on host worker6122 reporting.
  Task       44 on host worker6122 reporting.
  Task       45 on host worker6122 reporting.
  Task       46 on host worker6122 reporting.
  Task       47 on host worker6122 reporting.
  Task       48 on host worker6122 reporting.
  Task       49 on host worker6122 reporting.
  Task       50 on host worker6122 reporting.
  Task       51 on host worker6122 reporting.
  Task       52 on host worker6122 reporting.
  Task       53 on host worker6122 reporting.
  Task       54 on host worker6122 reporting.
  Task       55 on host worker6122 reporting.
  Task       56 on host worker6122 reporting.
  Task       57 on host worker6122 reporting.
  Task       58 on host worker6122 reporting.
  Task       59 on host worker6122 reporting.
  Task       60 on host worker6122 reporting.
  Task       61 on host worker6122 reporting.
  Task       62 on host worker6122 reporting.
  Task       63 on host worker6122 reporting.

  Obtaining array dimensions for all initial allocations:
  
  -----------------------------------------------------------------------
  Parsing control.in (first pass over file, find array dimensions only).
  The contents of control.in will be repeated verbatim below
  unless switched off by setting 'verbatim_writeout .false.' .
  in the first line of control.in .
  -----------------------------------------------------------------------
  
  override_warning_libxc             True
  xc                                 hse06 0.11
  hse_unit 			   bohr-1
  
  spin                               none
  charge                             0
  
  relativistic                       atomic_zora scalar
  atomic_solver_xc                   pbe
  ionic_solver_xc                    pbe
  
  occupation_type                    gaussian 0.01
  
  sc_accuracy_rho                    1e-06
  sc_accuracy_eev                    1e-03
  sc_accuracy_etot                   1e-06
  occupation_acc                     1e-09
  
  charge_mix_param                   0.1
  n_max_pulay                        8
  max_zeroin                         20000
  
  # Species defaults for H
  ################################################################################
  #
  #  FHI-aims code project
  #  Volker Blum, 2017
  #
  #  Suggested "intermediate" defaults for H atom (to be pasted into control.in file)
  #
  ################################################################################
    species        H
  #     global species definitions
      nucleus             1
      mass                1.00794
  #
      l_hartree           6
  #
      cut_pot             4.0  2.0  1.0
      basis_dep_cutoff    1e-4
  #
      radial_base         24 7.0
      radial_multiplier   2
      angular_grids       specified
        division   0.1930   50
        division   0.3175  110
        division   0.4293  194
        division   0.5066  302
        division   0.5626  434
  #      division   0.5922  590
  #      division   0.6227  974
  #      division   0.6868 1202
  #      outer_grid  770
        outer_grid  434
  ################################################################################
  #
  #  Definition of "minimal" basis
  #
  ################################################################################
  #     valence basis states
      valence      1  s   1.
  #     ion occupancy
      ion_occ      1  s   0.5
  ################################################################################
  #
  #  Suggested additional basis functions. For production calculations,
  #  uncomment them one after another (the most important basis functions are
  #  listed first).
  #
  #  Basis constructed for dimers: 0.5 A, 0.7 A, 1.0 A, 1.5 A, 2.5 A
  #
  ################################################################################
  #  "First tier" - improvements: -1014.90 meV to -62.69 meV
       hydro 2 s 2.1
       hydro 2 p 3.5
  #  "Second tier" - improvements: -12.89 meV to -1.83 meV
       hydro 1 s 0.85
  #     hydro 2 p 3.7
  #     hydro 2 s 1.2
    for_aux    hydro 3 d 7
  #  "Third tier" - improvements: -0.25 meV to -0.12 meV
  #     hydro 4 f 11.2
  #     hydro 3 p 4.8
  #     hydro 4 d 9
  #     hydro 3 s 3.2
  
  # Species defaults for B
  ################################################################################
  #
  #  FHI-aims code project
  #  Volker Blum, 2019
  #
  #  Suggested "intermediate" defaults for B atom (to be pasted into control.in file)
  #
  ################################################################################
    species        B
  #     global species definitions
      nucleus             5
      mass                10.811
  #
      l_hartree           6
  #
      cut_pot             4.0  2.0  1.0
      basis_dep_cutoff    1e-4
  #
      radial_base         32 7.0
      radial_multiplier   2
      angular_grids       specified
        division   0.3742  110
        division   0.5197  194
        division   0.5753  302
        division   0.7664  434
  #      division   0.8392  770
  #      division   1.6522  974
  #      outer_grid   974
        outer_grid  434
  ################################################################################
  #
  #  Definition of "minimal" basis
  #
  ################################################################################
  #     valence basis states
      valence      2  s   2.
      valence      2  p   1.
  #     ion occupancy
      ion_occ      2  s   1.
  ################################################################################
  #
  #  Suggested additional basis functions. For production calculations,
  #  uncomment them one after another (the most important basis functions are
  #  listed first).
  #
  #  Constructed for dimers: 1.25 A, 1.625 A, 2.5 A, 3.5 A
  #
  ################################################################################
  #  "First tier" - improvements: -710.52 meV to -92.39 meV
       hydro 2 p 1.4
       hydro 3 d 4.8
       hydro 2 s 4
  #  "Second tier" - improvements: -33.88 meV to -2.20 meV
       hydro 4 f 7.8
  #     hydro 3 p 4.2
  #     hydro 3 s 3.3
    for_aux   hydro 5 g 11.2
  #     hydro 3 d 5.4
  #  "Third tier" - improvements: -1.28 meV to -0.36 meV
  #     hydro 2 p 4.7
  #     hydro 2 s 8.4
  #     hydro 4 d 5.8
  #  "Fourth tier" - improvements: -0.25 meV to -0.12 meV
  #     hydro 3 p 2.2
  #     hydro 3 s 3
  #     hydro 4 f 9.8
  #     hydro 5 g 12.8
  #     hydro 4 d 10
  #  Further functions
  #     hydro 4 f 14
  #     hydro 3 p 12.4
  ################################################################################
  #
  # For methods that use the localized form of the "resolution of identity" for
  # the two-electron Coulomb operator (RI_method LVL), particularly Hartree-Fock and
  # hybrid density functional calculations, the highest accuracy can be obtained by
  # uncommenting the line beginning with "for_aux"  below, thus adding an extra g radial
  # function to the construction of the product basis set for the expansion.
  # See Ref. New J. Phys. 17, 093020 (2015) for more information, particularly Figs. 1 and 6.
  #
  ################################################################################
  #
  # for_aux hydro 5 g 6.0
  
  # Species defaults for N
  ################################################################################
  #
  #  FHI-aims code project
  #  Volker Blum, 2017
  #
  #  Suggested "intermediate" defaults for N atom (to be pasted into control.in file)
  #
  ################################################################################
    species        N
  #     global species definitions
      nucleus             7
      mass                14.0067
  #
      l_hartree           6
  #
      cut_pot             4.0  2.0  1.0
      basis_dep_cutoff    1e-4
  #
      radial_base         35 7.0
      radial_multiplier   2
      angular_grids       specified
        division   0.1841   50
        division   0.3514  110
        division   0.5126  194
        division   0.6292  302
        division   0.6939  434
  #      division   0.7396  590
  #      division   0.7632  770
  #      division   0.8122  974
  #      division   1.1604 1202
  #      outer_grid  974
        outer_grid  434
  ################################################################################
  #
  #  Definition of "minimal" basis
  #
  ################################################################################
  #     valence basis states
      valence      2  s   2.
      valence      2  p   3.
  #     ion occupancy
      ion_occ      2  s   1.
      ion_occ      2  p   2.
  ################################################################################
  #
  #  Suggested additional basis functions. For production calculations,
  #  uncomment them one after another (the most important basis functions are
  #  listed first).
  #
  #  Constructed for dimers: 1.0 A, 1.1 A, 1.5 A, 2.0 A, 3.0 A
  #
  ################################################################################
  #  "First tier" - improvements: -1193.42 meV to -220.60 meV
       hydro 2 p 1.8
       hydro 3 d 6.8
       hydro 3 s 5.8
  #  "Second tier" - improvements: -80.21 meV to -6.86 meV
       hydro 4 f 10.8
  #     hydro 3 p 5.8
  #     hydro 1 s 0.8
    for_aux    hydro 5 g 16
  #     hydro 3 d 4.9
  #  "Third tier" - improvements: -4.29 meV to -0.53 meV
  #     hydro 3 s 16
  #     ionic 2 p auto
  #     hydro 3 d 6.6
  #     hydro 4 f 11.6
  #  "Fourth tier" - improvements: -0.75 meV to -0.25 meV
  #     hydro 2 p 4.5
  #     hydro 2 s 2.4
  #     hydro 5 g 14.4
  #     hydro 4 d 14.4
  #     hydro 4 f 16.8
  # Further basis functions - -0.21 meV and below
  #     hydro 3 p 14.8
  #     hydro 3 s 4.4
  #     hydro 3 d 19.6
  #     hydro 5 g 12.8
  
  -----------------------------------------------------------------------
  Completed first pass over input file control.in .
  -----------------------------------------------------------------------
  
  
  -----------------------------------------------------------------------
  Parsing geometry.in (first pass over file, find array dimensions only).
  The contents of geometry.in will be repeated verbatim below
  unless switched off by setting 'verbatim_writeout .false.' .
  in the first line of geometry.in .
  -----------------------------------------------------------------------
  
  #===============================================================================
  # Created using the Atomic Simulation Environment (ASE)
  
  # Wed Jul 29 18:25:46 2026
  
  #=======================================================
  atom -0.0000000000000000 -0.0000016348595656 0.8999999999985153 B
  atom 0.0000000000000000 0.0000016348595656 -0.8999999999985153 N
  atom 0.0000010000000000 1.1648913651404345 1.2118109999985152 H
  atom -1.0088280000000001 -0.5824486348595656 1.2118109999985152 H
  atom 1.0088269999999999 -0.5824506348595655 1.2118109999985152 H
  atom 0.0000010000000000 -0.9464243651404345 -1.2598819999985151 H
  atom -0.8196290000000001 0.4732086348595656 -1.2598839999985152 H
  atom 0.8196280000000000 0.4732106348595656 -1.2598839999985152 H
  
  -----------------------------------------------------------------------
  Completed first pass over input file geometry.in .
  -----------------------------------------------------------------------
  

  Basic array size parameters:
  | Number of species                 :        3
  | Number of atoms                   :        8
  | Max. basis fn. angular momentum   :        4
  | Max. atomic/ionic basis occupied n:        2
  | Max. number of basis fn. types    :        2
  | Max. radial fns per species/type  :        5
  | Max. logarithmic grid size        :     1290
  | Max. radial integration grid size :       71
  | Max. angular integration grid size:      434
  | Max. angular grid division number :        8
  | Radial grid for Hartree potential :     1290
  | Number of spin channels           :        1

  Definition of standardized fundamental physical constants in this FHI-aims run:
  | Using the set of values used in FHI-aims up to 2024, which combines values from
  | different CODATA sets - see constants.f90.
  | Use the 'codata' keyword in control.in to change this selection.

  Memory overcommitment is allowed on your operating system.

------------------------------------------------------------
          Reading file control.in.
------------------------------------------------------------

  XC: Using HSE-functional with OMEGA =  0.110000E+00 <units>.
  XC: For the actual units (bohr^-1 or Angstrom^-1), see below.
  hse_unit: Unit for the HSE06 hybrid functional screening parameter set to bohr^(-1).
  Spin treatment: No spin polarisation.
  Charge =   0.000000E+00: Neutral system requested explicitly.
  Scalar relativistic treatment of kinetic energy: on-site free-atom approximation to ZORA.
  Atomic Solver XC: Using user-defined functional for generating the minimal NAO basis functions.
  Note that only the following functionals are available: kli, pz-lda, pw-lda, vwn, vwn-gauss, pw91_gga, pbe, rpbe, revpbe, pbeint, pbesol, blyp.
  Ionic Solver XC: Using user-defined functional for generating the minimal NAO basis functions.
  Note that only the following functionals are available: kli, pz-lda, pw-lda, vwn, vwn-gauss, pw91_gga, pbe, rpbe, revpbe, pbeint, pbesol, blyp.
  Occupation type: Gaussian broadening, width =   0.100000E-01 eV.
  Convergence accuracy of self-consistent charge density:  0.1000E-05
  Convergence accuracy of sum of eigenvalues:  0.1000E-02
  Convergence accuracy of total energy:  0.1000E-05
  Accuracy of occupation numbers  :  0.1000E-08
  Charge density mixing - mixing parameter:     0.1000
  Pulay mixing - number of memorized iterations:    8
  Maximum # of zeroin steps  : ****

  Reading configuration options for species H                   .
  | Found nuclear charge :   1.0000
  | Found atomic mass :    1.0079400000000001      amu
  | Found l_max for Hartree potential  :   6
  | Found cutoff potl. onset [A], width [A], scale factor :    4.00000    2.00000    1.00000
  | Threshold for basis-dependent cutoff potential is   0.100000E-03
  | Found data for basic radial integration grid :    24 points, outermost radius =    7.000 A
  | Found multiplier for basic radial grid :   2
  | Found angular grid specification: user-specified.
  | Specified grid contains     6 separate shells.
  | Check grid settings after all constraints further below.
  | Found free-atom valence shell :  1 s   1.000
  | No ionic wave fns used. Skipping ion_occ.
  | Found hydrogenic basis function :  2 s   2.100
  | Found hydrogenic basis function :  2 p   3.500
  | Found hydrogenic basis function :  1 s   0.850
  | Found hydrogenic extended basis function :  3 d   7.000
 | Encountered keyword species, ending the description of species H                   .
  Species H                   : Missing cutoff potential type.
  Defaulting to exp(1/x)/(1-x)^2 type cutoff potential.
  Species H : No 'logarithmic' tag. Using default grid for free atom:
  | Default logarithmic grid data [bohr] : 0.1000E-03 0.1000E+03 0.1012E+01
  Species H : On-site basis accuracy parameter (for Gram-Schmidt orthonormalisation) not specified.
  Using default value basis_acc =  0.1000000E-03.
  Species H                   : Using default innermost maximum threshold i_radial=  2 for radial functions.
  Species H                   : Default cutoff onset for free atom density etc. : 0.40000000E+01 AA.
  Species H                   : Basic radial grid will be enhanced according to radial_multiplier =   2, to contain    49 grid points.

  Reading configuration options for species B                   .
  | Found nuclear charge :   5.0000
  | Found atomic mass :    10.811000000000000      amu
  | Found l_max for Hartree potential  :   6
  | Found cutoff potl. onset [A], width [A], scale factor :    4.00000    2.00000    1.00000
  | Threshold for basis-dependent cutoff potential is   0.100000E-03
  | Found data for basic radial integration grid :    32 points, outermost radius =    7.000 A
  | Found multiplier for basic radial grid :   2
  | Found angular grid specification: user-specified.
  | Specified grid contains     5 separate shells.
  | Check grid settings after all constraints further below.
  | Found free-atom valence shell :  2 s   2.000
  | Found free-atom valence shell :  2 p   1.000
  | No ionic wave fns used. Skipping ion_occ.
  | Found hydrogenic basis function :  2 p   1.400
  | Found hydrogenic basis function :  3 d   4.800
  | Found hydrogenic basis function :  2 s   4.000
  | Found hydrogenic basis function :  4 f   7.800
  | Found hydrogenic extended basis function :  5 g  11.200
 | Encountered keyword species, ending the description of species B                   .
  Species B                   : Missing cutoff potential type.
  Defaulting to exp(1/x)/(1-x)^2 type cutoff potential.
  Species B : No 'logarithmic' tag. Using default grid for free atom:
  | Default logarithmic grid data [bohr] : 0.1000E-03 0.1000E+03 0.1012E+01
  Species B : On-site basis accuracy parameter (for Gram-Schmidt orthonormalisation) not specified.
  Using default value basis_acc =  0.1000000E-03.
  Species B                   : Using default innermost maximum threshold i_radial=  2 for radial functions.
  Species B                   : Default cutoff onset for free atom density etc. : 0.40000000E+01 AA.
  Species B                   : Basic radial grid will be enhanced according to radial_multiplier =   2, to contain    65 grid points.

  Reading configuration options for species N                   .
  | Found nuclear charge :   7.0000
  | Found atomic mass :    14.006700000000000      amu
  | Found l_max for Hartree potential  :   6
  | Found cutoff potl. onset [A], width [A], scale factor :    4.00000    2.00000    1.00000
  | Threshold for basis-dependent cutoff potential is   0.100000E-03
  | Found data for basic radial integration grid :    35 points, outermost radius =    7.000 A
  | Found multiplier for basic radial grid :   2
  | Found angular grid specification: user-specified.
  | Specified grid contains     6 separate shells.
  | Check grid settings after all constraints further below.
  | Found free-atom valence shell :  2 s   2.000
  | Found free-atom valence shell :  2 p   3.000
  | No ionic wave fns used. Skipping ion_occ.
  | No ionic wave fns used. Skipping ion_occ.
  | Found hydrogenic basis function :  2 p   1.800
  | Found hydrogenic basis function :  3 d   6.800
  | Found hydrogenic basis function :  3 s   5.800
  | Found hydrogenic basis function :  4 f  10.800
  | Found hydrogenic extended basis function :  5 g  16.000
  Species N                   : Missing cutoff potential type.
  Defaulting to exp(1/x)/(1-x)^2 type cutoff potential.
  Species N : No 'logarithmic' tag. Using default grid for free atom:
  | Default logarithmic grid data [bohr] : 0.1000E-03 0.1000E+03 0.1012E+01
  Species N : On-site basis accuracy parameter (for Gram-Schmidt orthonormalisation) not specified.
  Using default value basis_acc =  0.1000000E-03.
  Species N                   : Using default innermost maximum threshold i_radial=  2 for radial functions.
  Species N                   : Default cutoff onset for free atom density etc. : 0.40000000E+01 AA.
  Species N                   : Basic radial grid will be enhanced according to radial_multiplier =   2, to contain    71 grid points.

  Finished reading input file 'control.in'.

------------------------------------------------------------


------------------------------------------------------------
          Reading geometry description geometry.in.
------------------------------------------------------------
  | The smallest distance between any two atoms is         1.01253793 AA.
  | The first atom of this pair is atom number                      2 .
  | The second atom of this pair is atom number                     7 .
  Input structure read successfully.
  The structure contains        8 atoms,  and a total of         18.000 electrons.

  Input geometry:
  | No unit cell requested.
  | Atomic structure:
  |       Atom                x [A]            y [A]            z [A]
  |    1: Species B            -0.00000000       -0.00000163        0.90000000
  |    2: Species N             0.00000000        0.00000163       -0.90000000
  |    3: Species H             0.00000100        1.16489137        1.21181100
  |    4: Species H            -1.00882800       -0.58244863        1.21181100
  |    5: Species H             1.00882700       -0.58245063        1.21181100
  |    6: Species H             0.00000100       -0.94642437       -1.25988200
  |    7: Species H            -0.81962900        0.47320863       -1.25988400
  |    8: Species H             0.81962800        0.47321063       -1.25988400

  Slab Identifier: This is not a periodic structure.

  Finished reading input file 'geometry.in'.



  Consistency checks for stacksize environment parameter are next.

  | Maximum stacksize for task 0: unlimited
  | Maximum stacksize for task 1: unlimited
  | Maximum stacksize for task 2: unlimited
  | Maximum stacksize for task 3: unlimited
  | Maximum stacksize for task 4: unlimited
  | Maximum stacksize for task 5: unlimited
  | Maximum stacksize for task 6: unlimited
  | Maximum stacksize for task 7: unlimited
  | Maximum stacksize for task 8: unlimited
  | Maximum stacksize for task 9: unlimited
  | Maximum stacksize for task 10: unlimited
  | Maximum stacksize for task 11: unlimited
  | Maximum stacksize for task 12: unlimited
  | Maximum stacksize for task 13: unlimited
  | Maximum stacksize for task 14: unlimited
  | Maximum stacksize for task 15: unlimited
  | Maximum stacksize for task 16: unlimited
  | Maximum stacksize for task 17: unlimited
  | Maximum stacksize for task 18: unlimited
  | Maximum stacksize for task 19: unlimited
  | Maximum stacksize for task 20: unlimited
  | Maximum stacksize for task 21: unlimited
  | Maximum stacksize for task 22: unlimited
  | Maximum stacksize for task 23: unlimited
  | Maximum stacksize for task 24: unlimited
  | Maximum stacksize for task 25: unlimited
  | Maximum stacksize for task 26: unlimited
  | Maximum stacksize for task 27: unlimited
  | Maximum stacksize for task 28: unlimited
  | Maximum stacksize for task 29: unlimited
  | Maximum stacksize for task 30: unlimited
  | Maximum stacksize for task 31: unlimited
  | Maximum stacksize for task 32: unlimited
  | Maximum stacksize for task 33: unlimited
  | Maximum stacksize for task 34: unlimited
  | Maximum stacksize for task 35: unlimited
  | Maximum stacksize for task 36: unlimited
  | Maximum stacksize for task 37: unlimited
  | Maximum stacksize for task 38: unlimited
  | Maximum stacksize for task 39: unlimited
  | Maximum stacksize for task 40: unlimited
  | Maximum stacksize for task 41: unlimited
  | Maximum stacksize for task 42: unlimited
  | Maximum stacksize for task 43: unlimited
  | Maximum stacksize for task 44: unlimited
  | Maximum stacksize for task 45: unlimited
  | Maximum stacksize for task 46: unlimited
  | Maximum stacksize for task 47: unlimited
  | Maximum stacksize for task 48: unlimited
  | Maximum stacksize for task 49: unlimited
  | Maximum stacksize for task 50: unlimited
  | Maximum stacksize for task 51: unlimited
  | Maximum stacksize for task 52: unlimited
  | Maximum stacksize for task 53: unlimited
  | Maximum stacksize for task 54: unlimited
  | Maximum stacksize for task 55: unlimited
  | Maximum stacksize for task 56: unlimited
  | Maximum stacksize for task 57: unlimited
  | Maximum stacksize for task 58: unlimited
  | Maximum stacksize for task 59: unlimited
  | Maximum stacksize for task 60: unlimited
  | Maximum stacksize for task 61: unlimited
  | Maximum stacksize for task 62: unlimited
  | Maximum stacksize for task 63: unlimited
  | Current stacksize for task 0: unlimited
  | Current stacksize for task 1: unlimited
  | Current stacksize for task 2: unlimited
  | Current stacksize for task 3: unlimited
  | Current stacksize for task 4: unlimited
  | Current stacksize for task 5: unlimited
  | Current stacksize for task 6: unlimited
  | Current stacksize for task 7: unlimited
  | Current stacksize for task 8: unlimited
  | Current stacksize for task 9: unlimited
  | Current stacksize for task 10: unlimited
  | Current stacksize for task 11: unlimited
  | Current stacksize for task 12: unlimited
  | Current stacksize for task 13: unlimited
  | Current stacksize for task 14: unlimited
  | Current stacksize for task 15: unlimited
  | Current stacksize for task 16: unlimited
  | Current stacksize for task 17: unlimited
  | Current stacksize for task 18: unlimited
  | Current stacksize for task 19: unlimited
  | Current stacksize for task 20: unlimited
  | Current stacksize for task 21: unlimited
  | Current stacksize for task 22: unlimited
  | Current stacksize for task 23: unlimited
  | Current stacksize for task 24: unlimited
  | Current stacksize for task 25: unlimited
  | Current stacksize for task 26: unlimited
  | Current stacksize for task 27: unlimited
  | Current stacksize for task 28: unlimited
  | Current stacksize for task 29: unlimited
  | Current stacksize for task 30: unlimited
  | Current stacksize for task 31: unlimited
  | Current stacksize for task 32: unlimited
  | Current stacksize for task 33: unlimited
  | Current stacksize for task 34: unlimited
  | Current stacksize for task 35: unlimited
  | Current stacksize for task 36: unlimited
  | Current stacksize for task 37: unlimited
  | Current stacksize for task 38: unlimited
  | Current stacksize for task 39: unlimited
  | Current stacksize for task 40: unlimited
  | Current stacksize for task 41: unlimited
  | Current stacksize for task 42: unlimited
  | Current stacksize for task 43: unlimited
  | Current stacksize for task 44: unlimited
  | Current stacksize for task 45: unlimited
  | Current stacksize for task 46: unlimited
  | Current stacksize for task 47: unlimited
  | Current stacksize for task 48: unlimited
  | Current stacksize for task 49: unlimited
  | Current stacksize for task 50: unlimited
  | Current stacksize for task 51: unlimited
  | Current stacksize for task 52: unlimited
  | Current stacksize for task 53: unlimited
  | Current stacksize for task 54: unlimited
  | Current stacksize for task 55: unlimited
  | Current stacksize for task 56: unlimited
  | Current stacksize for task 57: unlimited
  | Current stacksize for task 58: unlimited
  | Current stacksize for task 59: unlimited
  | Current stacksize for task 60: unlimited
  | Current stacksize for task 61: unlimited
  | Current stacksize for task 62: unlimited
  | Current stacksize for task 63: unlimited

  Consistency checks for the contents of control.in are next.

  HSE06 screening parameters: omega_HF  =      0.11000000 bohr^-1, and
                              omega_PBE =      0.11000000 bohr^-1.
  MPI_IN_PLACE appears to work with this MPI implementation.
  | Keeping use_mpi_in_place .true. (see manual).
  Explicit treatment of the Coulomb operator is needed, but the RI method is not specified.
  Coulomb operator: Defaulting to 'LVL fast' resolution of identity - RI_type = LVL_fast
  Species H: Using default value for prodbas_acc =   1.000000E-04.
  Species H: Using default value max_l_prodbas =    20.
  Species B: Using default value for prodbas_acc =   1.000000E-04.
  Species B: Using default value max_l_prodbas =    20.
  Species N: Using default value for prodbas_acc =   1.000000E-04.
  Species N: Using default value max_l_prodbas =    20.
  Target number of points in a grid batch is not set. Defaulting to  100
  Method for grid partitioning is not set. Defaulting to parallel hash+maxmin partitioning.
  Batch size limit is not set. Defaulting to    200
  By default, will store active basis functions for each batch.
  If in need of memory, prune_basis_once .false. can be used to disable this option.
  communication_type for Hartree potential was not specified.
  Defaulting to calc_hartree .
  Defaulting to Pulay charge density mixer.
  Pulay mixer: Number of initial linear mixing iterations not set.
  Defaulting to    0 iterations.
  Work space size for distributed Hartree potential not set.
  Defaulting to   0.200000E+03 MB.
  Algorithm-dependent basis array size parameters:
  | n_max_pulay                         :        8
  Maximum number of self-consistency iterations not provided.
  Presetting  1000 iterations.
  Presetting      1001 iterations before the initial mixing cycle
  is restarted anyway using the sc_init_iter criterion / keyword.
  Presetting a factor      1.000 between actual scf density residual
  and density convergence criterion sc_accuracy_rho below which sc_init_iter
  takes no effect.
  Calculation of forces was not defined in control.in. No forces will be calculated.
  Geometry relaxation not requested: no relaxation will be performed.
  No accuracy limit for integral partition fn. given. Defaulting to  0.1000E-14.
  No threshold value for u(r) in integrations given. Defaulting to  0.1000E-05.
  No threshold value for occupation numbers given. Defaulting to  0.0000E+00.
  No accuracy for fermi level given. Defaulting to  0.1000E-19.
  Preferred method for the eigenvalue solver ('KS_method') not specified in 'control.in'.
  Calling BLACS routine to test compilation state
  Since ScaLAPACK support is enabled, defaulting to ELPA (via ELSI).
  Threshold for basis singularities not set.
  Default threshold for basis singularities:  0.1000E-04
  partition_type (choice of integration weights) for integrals was not specified.
  | Using a version of the partition function of Stratmann and coworkers ('stratmann_sparse').
  | At each grid point, the set of atoms used to build the partition table is smoothly restricted to
  | only those atoms whose free-atom density would be non-zero at that grid point.
  Partitioning for Hartree potential was not defined. Using partition_type for integrals.
  | Adjusted default value of keyword multip_moments_threshold to:       0.10000000E-11
  | This value may affect high angular momentum components of the Hartree potential in periodic systems.
  Threshold for auxiliary basis singularities not set.
  Default threshold for auxiliary basis singularities:  0.1000E-04
  Use default threshold for vanishing multipole moments of auxiliary basis:  0.1000E-07
  No q(lm)/r^(l+1) cutoff set for long-range Hartree potential.
  | Using default value of  0.100000E-09 .
  | Verify using the multipole_threshold keyword.
  Defaulting to new monopole extrapolation.
  Density update method: automatic selection selected.
  Coulomb operator: Defaulting to screening threshold for four-center integrals:   0.100000E-06
  Coulomb operator: Defaulting to screening threshold for Coulomb matrix:   0.100000E-09
  Fock matrix calculation: Setting the screening threshold for overlap matrix to coul_mat_threshold:   0.100000E-09
  Coulomb operator: Defaulting to 'LVL_fast' resolution of identity - RI_type = LVL_fast 
  No other resolution of identity version is supported for periodic boundary conditions at present.
  Coulomb operator: Defaulting to logarithmic spherical Bessel transform integrals (use_logsbt .true.).
  HSE with LVL_fast: Also defaulting to logarithmic spherical Bessel transform integrals.
  Charge integration errors on the 3D integration grid will be compensated
  by explicit normalization and distribution of residual charges.
  Use the "compensate_multipole_errors" flag to change this behaviour.
  LVL not implemented with density matrix yet
  -> switching to transformed overlap
  LVL probably works better with logsbt
  Default to 1D ("use_logsbt") integrations for auxiliary 2-center integrals.
  Default onset of logarithmic r-grid for SBT is -38.000000000000
  Default onset of logarithmic k-grid for SBT is -25.000000000000
  Default range of logarithmic r- and k-grid for SBT is  45.000000000000
  Default number of logarithmic r- and k-grid for SBT is   4096
  * Use logSBT for radial HSE integration, too
  Default of use_2d_corr is to use the efficient 2D distribution where possible
  Set 'collect_eigenvectors' to be '.true.' for use_density_matrix .false.
  Found potential conflicts with setting 'use_local_index' for this calculation. Will not set it.

  Consistency checks for the contents of geometry.in are next.

  Number of empty states per atom not set in control.in - providing a guess from actual geometry.
  | Total number of empty states used during s.c.f. cycle:       15
  If you use a very high smearing, use empty_states (per atom!) in control.in to increase this value.

  Structure-dependent array size parameters: 
  | Maximum number of distinct radial functions  :       21
  | Maximum number of basis functions            :      126
  | Number of Kohn-Sham states (occupied + empty):       24
------------------------------------------------------------
  After read_input_data [GB]:   1035.29

  Performing system and environment tests:
  | Environment variable OMP_NUM_THREADS correctly set to 1.
  | Checking for ScaLAPACK...
  | Testing pdtran()...
  *** WARNING: CPU mismatch detected for Node worker6122 : Intel(R) Xeon(R) Platinum 8362 CPU @ 2.80GHz                                                 
  | All pdtran() tests passed.
  | Testing CPU compatibility for run-time vs. build-time.
  | Reading /proc/cpuinfo for CPU information ...
  | Built for  : Intel(R) Xeon(R) w5-3435X
  *** WARNING: CPU mismatch detected for Node worker6121 : Intel(R) Xeon(R) Platinum 8362 CPU @ 2.80GHz                                                 
** WARNING:
  | WARNING: This FHI-aims executable was built on a different
  CPU type than the CPUs used in this run.

  | Running on different hardware than that on which a code was compiled
  | can produce incorrect results (wrong numbers) due to architecture-specific
  | optimizations made by the compiler. Those wrong numbers may occur only spuriously.
  | They are therefore very difficult to rule out even by tests ahead of time.

** END OF WARNING
  | Running on : Intel(R) Xeon(R) Platinum 8362 CPU @ 2.80GHz
  | Runtime CPU compatibility verified.
  
  After prepare_system [GB]:   1035.27

------------------------------------------------------------
          Preparing all fixed parts of the calculation.
------------------------------------------------------------
  Determining machine precision:
     2.2250738585072014E-308
  Setting up grids for atomic and cluster calculations.

  Creating wave function, potential, and density for free atoms.
  Runtime choices for atomic solver:
  | atomic solver xc        : PBE
  | compute density gradient: 1
  | compute kinetic density : F

  Species: H

  List of occupied orbitals and eigenvalues:
    n    l              occ      energy [Ha]    energy [eV]
    1    0           1.0000        -0.238386        -6.4868


  Species: B

  List of occupied orbitals and eigenvalues:
    n    l              occ      energy [Ha]    energy [eV]
    1    0           2.0000        -6.635780      -180.5688
    2    0           2.0000        -0.345517        -9.4020
    2    1           1.0000        -0.130792        -3.5590


  Species: N

  List of occupied orbitals and eigenvalues:
    n    l              occ      energy [Ha]    energy [eV]
    1    0           2.0000       -14.144983      -384.9046
    2    0           2.0000        -0.682735       -18.5782
    2    1           3.0000        -0.260361        -7.0848


  Adding cutoff potential to free-atom effective potential.
  Creating fixed part of basis set: Ionic, confined, hydrogenic.

  H                    hydrogenic:

  List of hydrogenic basis orbitals: 
    n    l      effective z      eigenvalue [eV]  inner max. [A]     outer max. [A]     outer radius [A]   
    2    0         2.100000       -14.9965           0.193243           1.317208           5.373006
    2    1         3.500000       -41.6672           0.602369           0.602369           4.056063
    1    0         0.850000        -9.8292           0.624871           0.624871           5.373006

  List of extra hydrogenic orbitals for auxiliary basis: 
    n    l      effective z      eigenvalue [eV]  inner max. [A]     outer max. [A]     outer radius [A]   
    3    2         7.000000       -74.0753           0.680699           0.680699           3.769201


  B                    hydrogenic:

  List of hydrogenic basis orbitals: 
    n    l      effective z      eigenvalue [eV]  inner max. [A]     outer max. [A]     outer radius [A]   
    2    1         1.400000        -6.6027           1.494848           1.494848           5.462314
    3    2         4.800000       -34.8303           0.986467           0.986467           4.893206
    2    0         4.000000       -54.4226           0.101523           0.692014           3.878983
    4    3         7.800000       -51.7355           1.087819           1.087819           4.716999

  List of extra hydrogenic orbitals for auxiliary basis: 
    n    l      effective z      eigenvalue [eV]  inner max. [A]     outer max. [A]     outer radius [A]   
    5    4        11.200000       -68.2678           1.185008           1.185008           4.659684


  N                    hydrogenic:

  List of hydrogenic basis orbitals: 
    n    l      effective z      eigenvalue [eV]  inner max. [A]     outer max. [A]     outer radius [A]   
    2    1         1.800000       -11.0118           1.177451           1.177451           5.427479
    3    2         6.800000       -69.9029           0.704619           0.704619           3.854246
    3    0         5.800000       -50.8549           0.067388           1.191934           4.629968
    4    3        10.800000       -99.1854           0.786571           0.786571           3.761152

  List of extra hydrogenic orbitals for auxiliary basis: 
    n    l      effective z      eigenvalue [eV]  inner max. [A]     outer max. [A]     outer radius [A]   
    5    4        16.000000      -139.3222           0.825990           0.825990           3.625711

  Creating atomic-like basis functions for current effective potential.

  Species H                   :

  List of atomic basis orbitals and eigenvalues:
    n    l      energy [Ha]    energy [eV]    outer radius [A]
    1    0        -0.238386        -6.4868       5.373006


  Species B                   :

  List of atomic basis orbitals and eigenvalues:
    n    l      energy [Ha]    energy [eV]    outer radius [A]
    1    0        -6.635780      -180.5688       2.349843
    2    0        -0.345517        -9.4020       5.330380
    2    1        -0.130792        -3.5590       5.395944


  Species N                   :

  List of atomic basis orbitals and eigenvalues:
    n    l      energy [Ha]    energy [eV]    outer radius [A]
    1    0       -14.144983      -384.9046       1.637919
    2    0        -0.682735       -18.5782       5.168461
    2    1        -0.260361        -7.0848       5.361532

  Assembling full basis from fixed parts.
  | Species H :   atomic orbital   1 s accepted.
  | Species H :    hydro orbital   2 s accepted.
  | Species H :    hydro orbital   1 s accepted.
  | Species H :    hydro orbital   2 p accepted.
  | Species B :   atomic orbital   1 s accepted.
  | Species B :    hydro orbital   2 s accepted.
  | Species B :   atomic orbital   2 s accepted.
  | Species B :   atomic orbital   2 p accepted.
  | Species B :    hydro orbital   2 p accepted.
  | Species B :    hydro orbital   3 d accepted.
  | Species B :    hydro orbital   4 f accepted.
  | Species N :   atomic orbital   1 s accepted.
  | Species N :    hydro orbital   3 s accepted.
  | Species N :   atomic orbital   2 s accepted.
  | Species N :   atomic orbital   2 p accepted.
  | Species N :    hydro orbital   2 p accepted.
  | Species N :    hydro orbital   3 d accepted.
  | Species N :    hydro orbital   4 f accepted.

  Basis size parameters after reduction:
  | Total number of radial functions:       18
  | Total number of basis functions :       78

  Assembling extended basis for auxiliary basis.
  | Species H :   atomic orbital   1 s accepted.
  | Species H :    hydro orbital   2 s accepted.
  | Species H :    hydro orbital   1 s accepted.
  | Species H :    hydro orbital   2 p accepted.
  | Species H :    hydro orbital   3 d accepted.
  | Species B :   atomic orbital   1 s accepted.
  | Species B :    hydro orbital   2 s accepted.
  | Species B :   atomic orbital   2 s accepted.
  | Species B :   atomic orbital   2 p accepted.
  | Species B :    hydro orbital   2 p accepted.
  | Species B :    hydro orbital   3 d accepted.
  | Species B :    hydro orbital   4 f accepted.
  | Species B :    hydro orbital   5 g accepted.
  | Species N :   atomic orbital   1 s accepted.
  | Species N :    hydro orbital   3 s accepted.
  | Species N :   atomic orbital   2 s accepted.
  | Species N :   atomic orbital   2 p accepted.
  | Species N :    hydro orbital   2 p accepted.
  | Species N :    hydro orbital   3 d accepted.
  | Species N :    hydro orbital   4 f accepted.
  | Species N :    hydro orbital   5 g accepted.
  Per-task memory consumption for arrays in subroutine allocate_ext:
  |           6.939652MB.

  Extended basis size parameters after reduction:
  | Total number of radial functions:       21
  | Total number of basis functions :      126

  Testing on-site integration grid accuracy.
  |  Species  Function  <phi|h_atom|phi> (log., in eV)  <phi|h_atom|phi> (rad., in eV)
           1        1                 -6.4870767962                 -6.4871688290
           1        2                 13.5032046589                 13.5028982997
           1        3                 32.8195184817                 32.8119941656
           1        4                 25.2452007246                 25.2452010322
           2        5               -180.5687569307               -180.5687561212
           2        6                 -7.1438314513                 -7.1438317353
           2        7                 12.0187568333                 12.0189574632
           2        8                 -3.5612258789                 -3.5609079337
           2        9                  5.9635381578                  5.9675020528
           2       10                 17.1402149446                 17.1402132576
           2       11                 37.0814692226                 37.0814713082
           3       12               -384.9045837902               -384.9045810034
           3       13                 12.5603464975                 12.5603454947
           3       14                -15.7898975009                -15.7898975784
           3       15                 -7.0848925884                 -7.0848895890
           3       16                  8.3497070581                  8.3498831619
           3       17                 35.9434723765                 35.9434722970
           3       18                 72.9994981060                 72.9994982100

  Preparing densities etc. for the partition functions (integrals / Hartree potential).

  Preparations completed.
  max(cpu_time)          :      0.123 s.
  Wall clock time (cpu1) :      0.538 s.
------------------------------------------------------------
  After prepare_scf [GB]:   1034.44

  Initializing index lists of integration centers etc. from given atomic structure:
  | Consuming          0 KiB for k_phase_exx.
  | Number of centers in hartree potential                       :         8
  | Number of centers in hartree multipole                       :         8
  | Number of centers in electron density summation              :         8
  | Number of centers in basis integrals                         :         8
  | Number of centers in integrals                               :         8
  | Number of centers in hamiltonian                             :         8
  | Number of centers in partition table from touching 0-cell    :         8
  | Number of centers in partition table total                   :         8
  After initialize_bc_dependent_lists [GB]:   1034.44

------------------------------------------------------------
          Begin self-consistency loop: Initialization.

          Date     :  20260729, Time     :  183348.808
------------------------------------------------------------
  Available memory per node after initialize_hartree_non_periodic_ewald [GB]:   1034.44
  Available memory per node after initialize_recip_hartree_potential [GB]:   1034.44
  * Using 64 tasks for Scalapack Eigenvalue solver.
  Detailed listing of tasks and assigned k-points:
  (for non-periodic systems, the "k-point" denotes an internal label only)
   Task     0 k-point     1 on worker6121
   Task     1 k-point     1 on worker6121
   Task     2 k-point     1 on worker6121
   Task     3 k-point     1 on worker6121
   Task     4 k-point     1 on worker6121
   Task     5 k-point     1 on worker6121
   Task     6 k-point     1 on worker6121
   Task     7 k-point     1 on worker6121
   Task     8 k-point     1 on worker6121
   Task     9 k-point     1 on worker6121
   Task    10 k-point     1 on worker6121
   Task    11 k-point     1 on worker6121
   Task    12 k-point     1 on worker6121
   Task    13 k-point     1 on worker6121
   Task    14 k-point     1 on worker6121
   Task    15 k-point     1 on worker6121
   Task    16 k-point     1 on worker6121
   Task    17 k-point     1 on worker6121
   Task    18 k-point     1 on worker6121
   Task    19 k-point     1 on worker6121
   Task    20 k-point     1 on worker6121
   Task    21 k-point     1 on worker6121
   Task    22 k-point     1 on worker6121
   Task    23 k-point     1 on worker6121
   Task    24 k-point     1 on worker6121
   Task    25 k-point     1 on worker6121
   Task    26 k-point     1 on worker6121
   Task    27 k-point     1 on worker6121
   Task    28 k-point     1 on worker6121
   Task    29 k-point     1 on worker6121
   Task    30 k-point     1 on worker6121
   Task    31 k-point     1 on worker6121
   Task    32 k-point     1 on worker6122
   Task    33 k-point     1 on worker6122
   Task    34 k-point     1 on worker6122
   Task    35 k-point     1 on worker6122
   Task    36 k-point     1 on worker6122
   Task    37 k-point     1 on worker6122
   Task    38 k-point     1 on worker6122
   Task    39 k-point     1 on worker6122
   Task    40 k-point     1 on worker6122
   Task    41 k-point     1 on worker6122
   Task    42 k-point     1 on worker6122
   Task    43 k-point     1 on worker6122
   Task    44 k-point     1 on worker6122
   Task    45 k-point     1 on worker6122
   Task    46 k-point     1 on worker6122
   Task    47 k-point     1 on worker6122
   Task    48 k-point     1 on worker6122
   Task    49 k-point     1 on worker6122
   Task    50 k-point     1 on worker6122
   Task    51 k-point     1 on worker6122
   Task    52 k-point     1 on worker6122
   Task    53 k-point     1 on worker6122
   Task    54 k-point     1 on worker6122
   Task    55 k-point     1 on worker6122
   Task    56 k-point     1 on worker6122
   Task    57 k-point     1 on worker6122
   Task    58 k-point     1 on worker6122
   Task    59 k-point     1 on worker6122
   Task    60 k-point     1 on worker6122
   Task    61 k-point     1 on worker6122
   Task    62 k-point     1 on worker6122
   Task    63 k-point     1 on worker6122
  Tasks:    64 split into      8 X      8 BLACS grid
  Calculating block size based on n_basis =           78  max_nprow =            8  max_npcol =            8
  ScaLAPACK block size set to:            8
  Allocating        0.002 MB for ovlp
  Allocating        0.002 MB for ham
  Allocating        0.002 MB for eigenvec
  Required Scalapack workspace - INTEGER:            1  REAL:             1
  Available memory per node after initialize_scalapack [GB]:   1034.44
  Available memory per node after aims_elsi_init_scf [GB]:   1034.44
  Available memory per node after initialize_fixed_grids [GB]:   1034.44
  Partitioning the integration grid into batches with parallel hashing+maxmin method.
  | Number of batches:     1806
  | Maximal batch size:     197
  | Minimal batch size:       2
  | Average batch size:      69.526
  | Standard deviation of batch sizes:      24.732

  Integration load balanced across    64 MPI tasks.
  Work distribution over tasks is as follows:
  Task     0 has       1930 integration points.
  Task     1 has       1941 integration points.
  Task     2 has       1953 integration points.
  Task     3 has       1957 integration points.
  Task     4 has       1914 integration points.
  Task     5 has       1960 integration points.
  Task     6 has       1911 integration points.
  Task     7 has       1944 integration points.
  Task     8 has       1929 integration points.
  Task     9 has       1997 integration points.
  Task    10 has       2045 integration points.
  Task    11 has       1939 integration points.
  Task    12 has       2096 integration points.
  Task    13 has       1955 integration points.
  Task    14 has       1942 integration points.
  Task    15 has       1945 integration points.
  Task    16 has       2079 integration points.
  Task    17 has       2076 integration points.
  Task    18 has       1959 integration points.
  Task    19 has       2021 integration points.
  Task    20 has       1947 integration points.
  Task    21 has       2033 integration points.
  Task    22 has       1963 integration points.
  Task    23 has       1920 integration points.
  Task    24 has       1946 integration points.
  Task    25 has       1932 integration points.
  Task    26 has       1997 integration points.
  Task    27 has       1913 integration points.
  Task    28 has       1991 integration points.
  Task    29 has       1953 integration points.
  Task    30 has       2003 integration points.
  Task    31 has       1926 integration points.
  Task    32 has       1914 integration points.
  Task    33 has       1929 integration points.
  Task    34 has       1959 integration points.
  Task    35 has       1927 integration points.
  Task    36 has       1922 integration points.
  Task    37 has       2048 integration points.
  Task    38 has       1922 integration points.
  Task    39 has       1929 integration points.
  Task    40 has       1957 integration points.
  Task    41 has       1945 integration points.
  Task    42 has       2075 integration points.
  Task    43 has       1933 integration points.
  Task    44 has       1925 integration points.
  Task    45 has       1922 integration points.
  Task    46 has       1917 integration points.
  Task    47 has       1935 integration points.
  Task    48 has       1920 integration points.
  Task    49 has       1924 integration points.
  Task    50 has       2026 integration points.
  Task    51 has       1932 integration points.
  Task    52 has       1935 integration points.
  Task    53 has       1916 integration points.
  Task    54 has       2073 integration points.
  Task    55 has       2037 integration points.
  Task    56 has       1931 integration points.
  Task    57 has       1927 integration points.
  Task    58 has       1947 integration points.
  Task    59 has       2100 integration points.
  Task    60 has       1926 integration points.
  Task    61 has       1949 integration points.
  Task    62 has       1919 integration points.
  Task    63 has       1926 integration points.
  Available memory per node after partition_grid [GB]:   1034.09
  Initializing partition tables, free-atom densities, potentials, etc. across the integration grid (initialize_grid_storage).
  | initialize_grid_storage: Actual outermost partition radius vs. multipole_radius_free
  | (-- VB: in principle, multipole_radius_free should be larger, hence this output)
  | Species        1: Confinement radius =              6.000000000000000 AA, multipole_radius_free =              6.071692442739658 AA.
  | Species        1: outer_partition_radius set to              6.071692442739658 AA .
  | Species        2: Confinement radius =              6.000000000000000 AA, multipole_radius_free =              6.023523403561800 AA.
  | Species        2: outer_partition_radius set to              6.023523403561800 AA .
  | Species        3: Confinement radius =              6.000000000000000 AA, multipole_radius_free =              6.058726835495003 AA.
  | Species        3: outer_partition_radius set to              6.058726835495003 AA .
  | The sparse table of interatomic distances needs          0.71 kbyte instead of         0.51 kbyte of memory.
  | Using the partition_type stratmann_smoother will reduce your memory usage.
  | Net number of integration points:   125564
  | of which are non-zero points    :   105066
  Available memory per node after initialize_grid_storage_p1 [GB]:   1034.09
  Renormalizing the initial density to the exact electron count on the 3D integration grid.
  | Initial density: Formal number of electrons (from input files) :      18.0000000000
  | Integrated number of electrons on 3D grid     :      17.9999983182
  | Charge integration error                      :      -0.0000016818
  | Normalization factor for density and gradient :       1.0000000934
  Renormalizing the free-atom superposition density to the exact electron count on the 3D integration grid.
  | Formal number of electrons (from input files) :      18.0000000000
  | Integrated number of electrons on 3D grid     :      17.9999983182
  | Charge integration error                      :      -0.0000016818
  | Normalization factor for density and gradient :       1.0000000934
  Obtaining max. number of non-zero basis functions in each batch (get_n_compute_maxes).
  | Maximal number of non-zero basis functions:       78 in task     0
  | Maximal number of non-zero basis functions:       78 in task     1
  | Maximal number of non-zero basis functions:       78 in task     2
  | Maximal number of non-zero basis functions:       78 in task     3
  | Maximal number of non-zero basis functions:       78 in task     4
  | Maximal number of non-zero basis functions:       78 in task     5
  | Maximal number of non-zero basis functions:       78 in task     6
  | Maximal number of non-zero basis functions:       78 in task     7
  | Maximal number of non-zero basis functions:       78 in task     8
  | Maximal number of non-zero basis functions:       78 in task     9
  | Maximal number of non-zero basis functions:       78 in task    10
  | Maximal number of non-zero basis functions:       78 in task    11
  | Maximal number of non-zero basis functions:       78 in task    12
  | Maximal number of non-zero basis functions:       78 in task    13
  | Maximal number of non-zero basis functions:       78 in task    14
  | Maximal number of non-zero basis functions:       78 in task    15
  | Maximal number of non-zero basis functions:       78 in task    16
  | Maximal number of non-zero basis functions:       78 in task    17
  | Maximal number of non-zero basis functions:       78 in task    18
  | Maximal number of non-zero basis functions:       78 in task    19
  | Maximal number of non-zero basis functions:       78 in task    20
  | Maximal number of non-zero basis functions:       78 in task    21
  | Maximal number of non-zero basis functions:       78 in task    22
  | Maximal number of non-zero basis functions:       78 in task    23
  | Maximal number of non-zero basis functions:       78 in task    24
  | Maximal number of non-zero basis functions:       78 in task    25
  | Maximal number of non-zero basis functions:       78 in task    26
  | Maximal number of non-zero basis functions:       78 in task    27
  | Maximal number of non-zero basis functions:       78 in task    28
  | Maximal number of non-zero basis functions:       78 in task    29
  | Maximal number of non-zero basis functions:       78 in task    30
  | Maximal number of non-zero basis functions:       78 in task    31
  | Maximal number of non-zero basis functions:       78 in task    32
  | Maximal number of non-zero basis functions:       78 in task    33
  | Maximal number of non-zero basis functions:       78 in task    34
  | Maximal number of non-zero basis functions:       78 in task    35
  | Maximal number of non-zero basis functions:       78 in task    36
  | Maximal number of non-zero basis functions:       78 in task    37
  | Maximal number of non-zero basis functions:       78 in task    38
  | Maximal number of non-zero basis functions:       78 in task    39
  | Maximal number of non-zero basis functions:       78 in task    40
  | Maximal number of non-zero basis functions:       78 in task    41
  | Maximal number of non-zero basis functions:       78 in task    42
  | Maximal number of non-zero basis functions:       78 in task    43
  | Maximal number of non-zero basis functions:       78 in task    44
  | Maximal number of non-zero basis functions:       78 in task    45
  | Maximal number of non-zero basis functions:       78 in task    46
  | Maximal number of non-zero basis functions:       78 in task    47
  | Maximal number of non-zero basis functions:       78 in task    48
  | Maximal number of non-zero basis functions:       78 in task    49
  | Maximal number of non-zero basis functions:       78 in task    50
  | Maximal number of non-zero basis functions:       78 in task    51
  | Maximal number of non-zero basis functions:       78 in task    52
  | Maximal number of non-zero basis functions:       78 in task    53
  | Maximal number of non-zero basis functions:       78 in task    54
  | Maximal number of non-zero basis functions:       78 in task    55
  | Maximal number of non-zero basis functions:       78 in task    56
  | Maximal number of non-zero basis functions:       78 in task    57
  | Maximal number of non-zero basis functions:       78 in task    58
  | Maximal number of non-zero basis functions:       78 in task    59
  | Maximal number of non-zero basis functions:       78 in task    60
  | Maximal number of non-zero basis functions:       78 in task    61
  | Maximal number of non-zero basis functions:       78 in task    62
  | Maximal number of non-zero basis functions:       78 in task    63
  Selecting the method for density update.
  Loop over occupied states selected for charge density update.
  Available memory per node after get_n_compute_maxes_p1 [GB]:   1034.09
  Allocating        0.014 MB for KS_eigenvector
  Available memory per node after allocate_matrices [GB]:   1034.09
  Available memory per node after init_comm_sparse_local_matrix_scalapack [GB]:   1034.09
  Integrating Hamiltonian matrix: batch-based integration.
  Time summed over all CPUs for integration: real work        0.389 s, elapsed        0.478 s
  Available memory per node after integrate hamiltonian matrix [GB]:   1034.09
  Integrating overlap matrix.
  Time summed over all CPUs for integration: real work        0.172 s, elapsed        0.329 s
  Available memory per node after integrate ovlp matrix [GB]:   1034.09
  Deallocating overlap matrix.
  Available memory per node after save_overlap_scalapack [GB]:   1034.09

  Updating Kohn-Sham eigenvalues and eigenvectors using ELSI and the ELPA eigensolver.
  Overlap matrix is not singular
  | Lowest and highest eigenvalues :  0.2212E-02,  0.5325E+01
  Finished singularity check of overlap matrix
  | Time :     0.162 s
  Starting ELPA eigensolver
  Finished Cholesky decomposition
  | Time :     0.007 s
  Finished transformation to standard eigenproblem
  | Time :     0.001 s
  Finished solving standard eigenproblem
  | Time :     0.036 s
  Finished back-transformation of eigenvectors
  | Time :     0.000 s

  Obtaining occupation numbers and electronic chemical potential using ELSI.
  | Note that, for insulating systems, the printed 'chemical potential' value is not uniquely defined.
  | It can be anywhere in the energy gap, as long as it correctly separates occupied and unoccupied states.
  | In systems with a gap, the physically relevant chemical potential is the VBM or HOMO.

  | Chemical potential (Fermi level):    -7.39870931 eV
  Available memory per node after advance_KS_solution [GB]:   1034.08
  Writing Kohn-Sham eigenvalues.

  State    Occupation    Eigenvalue [Ha]    Eigenvalue [eV]
      1       2.00000         -14.299700         -389.11464
      2       2.00000          -6.714714         -182.71667
      3       2.00000          -1.002013          -27.26617
      4       2.00000          -0.630275          -17.15067
      5       2.00000          -0.617540          -16.80411
      6       2.00000          -0.617538          -16.80407
      7       2.00000          -0.490754          -13.35409
      8       2.00000          -0.441404          -12.01121
      9       2.00000          -0.441403          -12.01118
     10       0.00000          -0.102392           -2.78624
     11       0.00000          -0.042890           -1.16709
     12       0.00000          -0.001232           -0.03353
     13       0.00000          -0.001232           -0.03352
     14       0.00000           0.008418            0.22907
     15       0.00000           0.023866            0.64944
     16       0.00000           0.023868            0.64947
     17       0.00000           0.089437            2.43371
     18       0.00000           0.089437            2.43371
     19       0.00000           0.133148            3.62315
     20       0.00000           0.147780            4.02129
     21       0.00000           0.147781            4.02131
     22       0.00000           0.206213            5.61135
     23       0.00000           0.307092            8.35639
     24       0.00000           0.380518           10.35442

  Highest occupied state (VBM) at    -12.01117870 eV
  | Occupation number:      2.00000000

  Lowest unoccupied state (CBM) at    -2.78623991 eV
  | Occupation number:      0.00000000

  Overall HOMO-LUMO gap:      9.22493880 eV.
  Calculating total energy contributions from superposition of free atom densities.

  Total energy components:
  | Sum of eigenvalues            :         -50.51068323 Ha       -1374.46562264 eV
  | XC energy correction          :         -12.56494187 Ha        -341.90946451 eV
  | XC potential correction       :          16.14285929 Ha         439.26955109 eV
  | Free-atom electrostatic energy:         -36.43250662 Ha        -991.37894593 eV
  | Hartree energy correction     :          -0.00000000 Ha          -0.00000000 eV
  | Entropy correction            :          -0.00000000 Ha          -0.00000000 eV
  | ---------------------------
  | Total energy                  :         -83.36527243 Ha       -2268.48448199 eV
  | Total energy, T -> 0          :         -83.36527243 Ha       -2268.48448199 eV  <-- do not rely on this value for anything but (periodic) metals
  | Electronic free energy        :         -83.36527243 Ha       -2268.48448199 eV

  Derived energy quantities:
  | Kinetic energy                :          81.35357405 Ha        2213.74338397 eV
  | Electrostatic energy          :        -152.15390461 Ha       -4140.31840144 eV
  | Energy correction for multipole
  | error in Hartree potential    :           0.00000000 Ha           0.00000000 eV
  | Sum of eigenvalues per atom                           :        -171.80820283 eV
  | Total energy (T->0) per atom                          :        -283.56056025 eV  <-- do not rely on this value for anything but (periodic) metals
  | Electronic free energy per atom                       :        -283.56056025 eV
  
  --------------------------------------------
  Constructing auxiliary basis (full product) ...
  
  Product basis:
  | charge radius: extent of product basis function
  | field radius: extent of its Coulomb potential
  | Species   l  charge radius    field radius
  |    H      0     5.307721 A      9.088972 A
  |    H      0     5.373006 A     19.159255 A
  |    H      0     5.439094 A     22.459432 A
  |    H      0     5.439094 A     23.584993 A
  |    H      0     5.439094 A     24.766961 A
  |    H      0     5.439094 A     25.379976 A
  |    H      0     5.439094 A     25.071595 A
  |    H      1     4.311724 A     13.440350 A
  |    H      1     4.364758 A     20.617408 A
  |    H      1     4.418445 A     23.015333 A
  |    H      1     4.418445 A     24.168752 A
  |    H      1     4.418445 A     24.466028 A
  |    H      2     4.156456 A     19.159255 A
  |    H      2     4.207581 A     21.916959 A
  |    H      2     4.207581 A     23.584993 A
  |    H      2     4.207581 A     24.168752 A
  |    H      3     3.910002 A     21.650655 A
  |    H      3     3.862494 A     22.459432 A
  |    H      4     3.723403 A     21.916959 A
  |    B      0     5.014319 A      5.014319 A
  |    B      0     5.265613 A      8.586549 A
  |    B      0     5.330380 A     18.548166 A
  |    B      0     5.395944 A     22.281253 A
  |    B      0     5.462314 A     23.977012 A
  |    B      0     5.462314 A     24.872692 A
  |    B      0     5.462314 A     25.488324 A
  |    B      0     5.462314 A     25.488324 A
  |    B      1     5.201633 A      5.201633 A
  |    B      1     5.330380 A     15.822708 A
  |    B      1     5.395944 A     21.478892 A
  |    B      1     5.395944 A     22.832743 A
  |    B      1     5.462314 A     24.271930 A
  |    B      1     5.462314 A     25.178627 A
  |    B      1     5.462314 A     25.488324 A
  |    B      2     5.395944 A      8.482218 A
  |    B      2     5.330380 A      8.799077 A
  |    B      2     5.395944 A     19.717288 A
  |    B      2     5.462314 A     22.832743 A
  |    B      2     5.462314 A     24.271930 A
  |    B      2     5.462314 A     25.488324 A
  |    B      2     5.462314 A     25.801831 A
  |    B      3     5.075995 A      5.529500 A
  |    B      3     5.138430 A     15.252923 A
  |    B      3     5.138430 A     20.960102 A
  |    B      3     5.201633 A     23.113586 A
  |    B      3     5.201633 A     24.570475 A
  |    B      3     5.201633 A     25.178627 A
  |    B      4     5.014319 A      9.016866 A
  |    B      4     5.014319 A     12.091424 A
  |    B      4     5.014319 A     18.100163 A
  |    B      4     5.014319 A     22.010523 A
  |    B      4     5.075995 A     23.685678 A
  |    B      4     5.075995 A     24.872692 A
  |    B      5     4.953392 A     10.831641 A
  |    B      5     4.953392 A     14.174169 A
  |    B      5     4.953392 A     19.959811 A
  |    B      5     4.953392 A     22.555313 A
  |    B      5     5.014319 A     23.977012 A
  |    B      6     4.659684 A     17.026927 A
  |    B      6     4.775018 A     20.960102 A
  |    B      6     4.833750 A     23.113586 A
  |    B      7     4.716999 A     19.241047 A
  |    B      7     4.716999 A     21.217912 A
  |    B      8     4.603067 A     20.205317 A
  |    N      0     4.921803 A      4.921803 A
  |    N      0     5.105661 A      5.105661 A
  |    N      0     5.232033 A     14.789589 A
  |    N      0     5.361532 A     21.341916 A
  |    N      0     5.361532 A     23.248670 A
  |    N      0     5.427479 A     24.413783 A
  |    N      0     5.427479 A     25.018056 A
  |    N      0     5.427479 A     25.018056 A
  |    N      1     5.168461 A      5.168461 A
  |    N      1     5.296387 A      9.759821 A
  |    N      1     5.296387 A     15.530774 A
  |    N      1     5.361532 A     20.323403 A
  |    N      1     5.427479 A     22.966185 A
  |    N      1     5.427479 A     24.413783 A
  |    N      1     5.427479 A     25.325779 A
  |    N      1     5.427479 A     25.637286 A
  |    N      2     5.168461 A      5.168461 A
  |    N      2     5.232033 A      8.850502 A
  |    N      2     5.296387 A     18.656567 A
  |    N      2     5.361532 A     22.139160 A
  |    N      2     5.427479 A     23.824105 A
  |    N      2     5.427479 A     24.714073 A
  |    N      2     5.427479 A     25.325779 A
  |    N      3     3.949643 A      3.949643 A
  |    N      3     4.147581 A     10.248937 A
  |    N      3     4.198596 A     18.656567 A
  |    N      3     4.250239 A     21.604422 A
  |    N      3     4.250239 A     23.248670 A
  |    N      3     4.250239 A     24.413783 A
  |    N      4     4.047402 A      4.047402 A
  |    N      4     4.147581 A      4.147581 A
  |    N      4     4.147581 A     16.509705 A
  |    N      4     4.198596 A     20.573381 A
  |    N      4     4.147581 A     22.139160 A
  |    N      4     4.097185 A     23.534629 A
  |    N      5     3.949643 A      8.636732 A
  |    N      5     3.998224 A     17.766209 A
  |    N      5     4.047402 A     20.826434 A
  |    N      5     4.047402 A     22.687133 A
  |    N      6     3.761152 A     11.301934 A
  |    N      6     3.807414 A     18.886043 A
  |    N      6     3.854246 A     21.604422 A
  |    N      7     3.715452 A     17.337093 A
  |    N      7     3.715452 A     19.591546 A
  |    N      8     3.581656 A     17.984733 A

  | Shrink_full_auxil_basis : there are      109  radial auxiliary wave functions
                            accepted and      86 rejected.
  | Shrink_full_auxil_basis : there are totally                 984 partial auxiliary wave functions.
  prodbas_tasks_distribution_pbc not up to date - distributing tasks.

  | Maximal number of product basis functions per thread :    30    30

  | Number of local auxiliary basis funcs on node     0 :     30
  | Number of local auxiliary basis funcs on node     1 :     24
  | Number of local auxiliary basis funcs on node     2 :     15
  | Number of local auxiliary basis funcs on node     3 :     15
  | Number of local auxiliary basis funcs on node     4 :     15
  | Number of local auxiliary basis funcs on node     5 :     15
  | Number of local auxiliary basis funcs on node     6 :     15
  | Number of local auxiliary basis funcs on node     7 :     15
  | Number of local auxiliary basis funcs on node     8 :     15
  | Number of local auxiliary basis funcs on node     9 :     15
  | Number of local auxiliary basis funcs on node    10 :     15
  | Number of local auxiliary basis funcs on node    11 :     15
  | Number of local auxiliary basis funcs on node    12 :     15
  | Number of local auxiliary basis funcs on node    13 :     15
  | Number of local auxiliary basis funcs on node    14 :     15
  | Number of local auxiliary basis funcs on node    15 :     15
  | Number of local auxiliary basis funcs on node    16 :     15
  | Number of local auxiliary basis funcs on node    17 :     15
  | Number of local auxiliary basis funcs on node    18 :     15
  | Number of local auxiliary basis funcs on node    19 :     15
  | Number of local auxiliary basis funcs on node    20 :     15
  | Number of local auxiliary basis funcs on node    21 :     15
  | Number of local auxiliary basis funcs on node    22 :     15
  | Number of local auxiliary basis funcs on node    23 :     15
  | Number of local auxiliary basis funcs on node    24 :     15
  | Number of local auxiliary basis funcs on node    25 :     15
  | Number of local auxiliary basis funcs on node    26 :     15
  | Number of local auxiliary basis funcs on node    27 :     15
  | Number of local auxiliary basis funcs on node    28 :     15
  | Number of local auxiliary basis funcs on node    29 :     15
  | Number of local auxiliary basis funcs on node    30 :     15
  | Number of local auxiliary basis funcs on node    31 :     15
  | Number of local auxiliary basis funcs on node    32 :     15
  | Number of local auxiliary basis funcs on node    33 :     15
  | Number of local auxiliary basis funcs on node    34 :     15
  | Number of local auxiliary basis funcs on node    35 :     15
  | Number of local auxiliary basis funcs on node    36 :     15
  | Number of local auxiliary basis funcs on node    37 :     15
  | Number of local auxiliary basis funcs on node    38 :     15
  | Number of local auxiliary basis funcs on node    39 :     15
  | Number of local auxiliary basis funcs on node    40 :     15
  | Number of local auxiliary basis funcs on node    41 :     15
  | Number of local auxiliary basis funcs on node    42 :     15
  | Number of local auxiliary basis funcs on node    43 :     15
  | Number of local auxiliary basis funcs on node    44 :     15
  | Number of local auxiliary basis funcs on node    45 :     15
  | Number of local auxiliary basis funcs on node    46 :     15
  | Number of local auxiliary basis funcs on node    47 :     15
  | Number of local auxiliary basis funcs on node    48 :     15
  | Number of local auxiliary basis funcs on node    49 :     15
  | Number of local auxiliary basis funcs on node    50 :     15
  | Number of local auxiliary basis funcs on node    51 :     15
  | Number of local auxiliary basis funcs on node    52 :     15
  | Number of local auxiliary basis funcs on node    53 :     15
  | Number of local auxiliary basis funcs on node    54 :     15
  | Number of local auxiliary basis funcs on node    55 :     15
  | Number of local auxiliary basis funcs on node    56 :     15
  | Number of local auxiliary basis funcs on node    57 :     15
  | Number of local auxiliary basis funcs on node    58 :     15
  | Number of local auxiliary basis funcs on node    59 :     15
  | Number of local auxiliary basis funcs on node    60 :     15
  | Number of local auxiliary basis funcs on node    61 :     15
  | Number of local auxiliary basis funcs on node    62 :     15
  | Number of local auxiliary basis funcs on node    63 :     15
  Parallel distribution of product basis not up to date - distributing tasks.

  | Maximal number of product basis functions per thread :    30    30

  | Minimal total memory requirement for three-center overlap :       0.072 Gbs
  | Number of local auxiliary basis functions on task:      0    30
  | Number of local auxiliary basis functions on task:      1    24
  | Number of local auxiliary basis functions on task:      2    15
  | Number of local auxiliary basis functions on task:      3    15
  | Number of local auxiliary basis functions on task:      4    15
  | Number of local auxiliary basis functions on task:      5    15
  | Number of local auxiliary basis functions on task:      6    15
  | Number of local auxiliary basis functions on task:      7    15
  | Number of local auxiliary basis functions on task:      8    15
  | Number of local auxiliary basis functions on task:      9    15
  | Number of local auxiliary basis functions on task:     10    15
  | Number of local auxiliary basis functions on task:     11    15
  | Number of local auxiliary basis functions on task:     12    15
  | Number of local auxiliary basis functions on task:     13    15
  | Number of local auxiliary basis functions on task:     14    15
  | Number of local auxiliary basis functions on task:     15    15
  | Number of local auxiliary basis functions on task:     16    15
  | Number of local auxiliary basis functions on task:     17    15
  | Number of local auxiliary basis functions on task:     18    15
  | Number of local auxiliary basis functions on task:     19    15
  | Number of local auxiliary basis functions on task:     20    15
  | Number of local auxiliary basis functions on task:     21    15
  | Number of local auxiliary basis functions on task:     22    15
  | Number of local auxiliary basis functions on task:     23    15
  | Number of local auxiliary basis functions on task:     24    15
  | Number of local auxiliary basis functions on task:     25    15
  | Number of local auxiliary basis functions on task:     26    15
  | Number of local auxiliary basis functions on task:     27    15
  | Number of local auxiliary basis functions on task:     28    15
  | Number of local auxiliary basis functions on task:     29    15
  | Number of local auxiliary basis functions on task:     30    15
  | Number of local auxiliary basis functions on task:     31    15
  | Number of local auxiliary basis functions on task:     32    15
  | Number of local auxiliary basis functions on task:     33    15
  | Number of local auxiliary basis functions on task:     34    15
  | Number of local auxiliary basis functions on task:     35    15
  | Number of local auxiliary basis functions on task:     36    15
  | Number of local auxiliary basis functions on task:     37    15
  | Number of local auxiliary basis functions on task:     38    15
  | Number of local auxiliary basis functions on task:     39    15
  | Number of local auxiliary basis functions on task:     40    15
  | Number of local auxiliary basis functions on task:     41    15
  | Number of local auxiliary basis functions on task:     42    15
  | Number of local auxiliary basis functions on task:     43    15
  | Number of local auxiliary basis functions on task:     44    15
  | Number of local auxiliary basis functions on task:     45    15
  | Number of local auxiliary basis functions on task:     46    15
  | Number of local auxiliary basis functions on task:     47    15
  | Number of local auxiliary basis functions on task:     48    15
  | Number of local auxiliary basis functions on task:     49    15
  | Number of local auxiliary basis functions on task:     50    15
  | Number of local auxiliary basis functions on task:     51    15
  | Number of local auxiliary basis functions on task:     52    15
  | Number of local auxiliary basis functions on task:     53    15
  | Number of local auxiliary basis functions on task:     54    15
  | Number of local auxiliary basis functions on task:     55    15
  | Number of local auxiliary basis functions on task:     56    15
  | Number of local auxiliary basis functions on task:     57    15
  | Number of local auxiliary basis functions on task:     58    15
  | Number of local auxiliary basis functions on task:     59    15
  | Number of local auxiliary basis functions on task:     60    15
  | Number of local auxiliary basis functions on task:     61    15
  | Number of local auxiliary basis functions on task:     62    15
  | Number of local auxiliary basis functions on task:     63    15
  | 2D aux task distribution:      8 X      8
  | 2D block size (nb_aux_2d):     64
  Minimal free memory per node on init_fm entry [GB]:   1033.87
  -----------------------------------------
  --- Initializing Fock matrix calculations
  -----------------------------------------
  screening_threshold (crit_val) =  0.000000100000
  coul_mat_threshold =  0.000000000100
  No atoms are split internally
  Number of super-cells in X Y Z:       0       0       0
  Number of atoms pairs total:           64
  Atom pair distribution:
  Cell:        0       0       0 atom pairs:       64
  sparsity of pfbvk:   1.00000000
  Number of atoms pairs in BvK cells:           64
  Max. memory consumption per node for Pulay mixing [GB]:      0.00
  Minimal total memory per node [GB]:   1056.49
  Minimal free memory per node [GB]:   1033.87
  --- Initializing LVL triples, type HSE
  | Storage requirements for basis-basbas products (processor-local):
  |   Species H: n_prodsfn:    88; storage:        2.75 MiB.
  |   Species B: n_prodsfn:   546; storage:       17.06 MiB.
  |   Species N: n_prodsfn:   543; storage:       16.97 MiB.

  --- Initializing Coulomb matrix calculations, type HSE
  Preparing TB like auxiliary 2-center HSE-pot matrix
  SBT integration errors (all should be 'small'):
  large logFT aliasing -> increase N/lnrange
  large SBT aliasing -> decrease lnk0 & increase lnk0+lnrange
  large SBT ringing -> decrease lnr0 & increase lnr0+lnrange
  |            El't  L: logFT-al.   small-k   large-k   small-r   large-r
  | Need to store 14051 splines of   317 points taking      35024 KiB.
  | Spline reduction from  4096 to   317 points by (cutting and)     1 x coarsening gives error:  0.00E+00
  | Maximum value outside interaction range:  1.33E-13
  Finished with initialize_tb_auxmat/lvl_triples, time:        0.408
  --- Calculating Coulomb matrices
  Upper limit for memory consumption per node [GB] for Coulomb matrices if no compression occurs:       0.075
  Upper limit for temporary arrays in Coulomb matrix initalization [GB]:      9.60
  Allocating        0.691 MB for aux_mat
  Min./max. time for Coulomb matrix computation [s]:      0.00      0.00
  Max. memory consumption per node for global Coulomb matrix [GB]:      0.00
  Time to calculate Coulomb Matrices   :        0.006
  After init_coulomb_tuned [GB]:   1033.10
  Max. memory consumption per node for uncompressed ovlp3fn matrix [GB]:       0.008
  --- Calculating OVLP3FN
  --- Done calculating OVLP3FN, time:        0.402
  After init_ovlp3fn_tuned2 [GB]:   1032.73
  Max. memory consumption per node for compressed global ovlp3fn matrix [GB]:      -0.016
  Atomic logSBT for 2-center HSE-pot matrix    :  max(cpu_time)    wall_clock(cpu1)
  | TB initialization                           :        0.131 s           0.130 s
  | TB usage                                    :        0.005 s           0.006 s

  Atomic logSBT for LVL-triples                :  max(cpu_time)    wall_clock(cpu1)
  | Multiplication with kernel                  :        0.002 s           0.000 s
  | Main matrix multiplication                  :        0.066 s           0.019 s
  | Analytic angular integration                :        0.003 s           0.001 s
  | Kernel construction                         :        0.004 s           0.001 s
  | Overall 2-center overlap time               :        0.073 s           0.024 s
  | 3-center preparation multiplications        :        0.008 s           0.006 s
  | 3-center preparation SBTs                   :        0.164 s           0.102 s
  | 3-center combinations                       :        0.078 s           0.025 s
  | Overal 3-center time                        :        0.246 s           0.133 s
  | LVL initialization                          :        0.275 s           0.274 s
  | Whole LVL-triples                           :        0.275 s           0.274 s

  Assumed free memory per node for Fock matrix prefactors [GB]    928.22
  Memory per instance for Coulomb / ovlp matrix [GB]      0.01     -0.04
  Number of nodes, tasks per node     2    32
  Number of instances:    4
  -----------------------------------------------------
  Dividing atoms among tasks for exact exchange energy:
  Atom:     1 Weight:  0.49304E+06
  Atom:     2 Weight:  0.47993E+06
  Atom:     3 Weight:   30420.
  Atom:     4 Weight:   30420.
  Atom:     5 Weight:   30420.
  Atom:     6 Weight:   30420.
  Atom:     7 Weight:   30420.
  Atom:     8 Weight:   30420.

  Average weight per task:   72218.

  Number of "big" (above average) atoms  :     2
  Number of "small" (below average) atoms:     6

  There are "big" and "small" atoms
  Reserving    2 tasks for "big" atoms
  Max. weight for big atoms:  0.49304E+06 small atoms:   30420.
  Trying 3 tasks for "big" atoms:
  Max. weight for big atoms:  0.47993E+06 small atoms:   30420.
  => Atom 1 gets 2 tasks
  Trying 4 tasks for "big" atoms:
  Max. weight for big atoms:  0.24652E+06 small atoms:   30420.
  => Atom 2 gets 2 tasks
  Trying 5 tasks for "big" atoms:
  Max. weight for big atoms:  0.23997E+06 small atoms:   30420.
  => Atom 1 gets 3 tasks
  Trying 6 tasks for "big" atoms:
  Max. weight for big atoms:  0.16435E+06 small atoms:   30420.
  => Atom 2 gets 3 tasks
  Trying 7 tasks for "big" atoms:
  Max. weight for big atoms:  0.15998E+06 small atoms:   30420.
  => Atom 1 gets 4 tasks
  Trying 8 tasks for "big" atoms:
  Max. weight for big atoms:  0.12326E+06 small atoms:   30420.
  => Atom 2 gets 4 tasks
  Trying 9 tasks for "big" atoms:
  Max. weight for big atoms:  0.11998E+06 small atoms:   30420.
  => Atom 1 gets 5 tasks
  Trying 10 tasks for "big" atoms:
  Max. weight for big atoms:   98608.     small atoms:   30420.
  => Atom 2 gets 5 tasks
  Trying 11 tasks for "big" atoms:
  Max. weight for big atoms:   95987.     small atoms:   60840.
  => Atom 1 gets 6 tasks
  Trying 12 tasks for "big" atoms:
  Max. weight for big atoms:   82173.     small atoms:   60840.
  => Atom 2 gets 6 tasks
  Trying 13 tasks for "big" atoms:
  Max. weight for big atoms:   79989.     small atoms:   60840.
  => Atom 1 gets 7 tasks
  Trying 14 tasks for "big" atoms:
  Max. weight for big atoms:   70434.     small atoms:   91260.
  Last Distribution was better!
  Using 3 tasks for "small" atoms, 13 for "big" atoms

  Atom division among tasks:
  Atom     1: (initial) task:     0, # of tasks:     7
  Atom     2: (initial) task:     7, # of tasks:     6
  Atom     3: (initial) task:    15, # of tasks:     1
  Atom     4: (initial) task:    13, # of tasks:     1
  Atom     5: (initial) task:    14, # of tasks:     1
  Atom     6: (initial) task:    15, # of tasks:     1
  Atom     7: (initial) task:    13, # of tasks:     1
  Atom     8: (initial) task:    14, # of tasks:     1

  -----------------------------------------------------
  Task      0: my_n_atoms2:      1 my_atom_list:      1
  Task      1: my_n_atoms2:      1 my_atom_list:      1
  Task      2: my_n_atoms2:      1 my_atom_list:      1
  Task      3: my_n_atoms2:      1 my_atom_list:      1
  Task      4: my_n_atoms2:      1 my_atom_list:      1
  Task      5: my_n_atoms2:      1 my_atom_list:      1
  Task      6: my_n_atoms2:      1 my_atom_list:      1
  Task      7: my_n_atoms2:      1 my_atom_list:      2
  Task      8: my_n_atoms2:      1 my_atom_list:      2
  Task      9: my_n_atoms2:      1 my_atom_list:      2
  Task     10: my_n_atoms2:      1 my_atom_list:      2
  Task     11: my_n_atoms2:      1 my_atom_list:      2
  Task     12: my_n_atoms2:      1 my_atom_list:      2
  Task     13: my_n_atoms2:      2 my_atom_list:      4     7
  Task     14: my_n_atoms2:      2 my_atom_list:      5     8
  Task     15: my_n_atoms2:      2 my_atom_list:      3     6
  Task      0: my_n_atoms2:      1 my_atom_list:      1
  Task      1: my_n_atoms2:      1 my_atom_list:      1
  Task      2: my_n_atoms2:      1 my_atom_list:      1
  Task      3: my_n_atoms2:      1 my_atom_list:      1
  Task      4: my_n_atoms2:      1 my_atom_list:      1
  Task      5: my_n_atoms2:      1 my_atom_list:      1
  Task      6: my_n_atoms2:      1 my_atom_list:      1
  Task      7: my_n_atoms2:      1 my_atom_list:      2
  Task      8: my_n_atoms2:      1 my_atom_list:      2
  Task      9: my_n_atoms2:      1 my_atom_list:      2
  Task     10: my_n_atoms2:      1 my_atom_list:      2
  Task     11: my_n_atoms2:      1 my_atom_list:      2
  Task     12: my_n_atoms2:      1 my_atom_list:      2
  Task     13: my_n_atoms2:      2 my_atom_list:      4     7
  Task     14: my_n_atoms2:      2 my_atom_list:      5     8
  Task     15: my_n_atoms2:      2 my_atom_list:      3     6
  Task      0: my_n_atoms2:      1 my_atom_list:      1
  Task      1: my_n_atoms2:      1 my_atom_list:      1
  Task      2: my_n_atoms2:      1 my_atom_list:      1
  Task      3: my_n_atoms2:      1 my_atom_list:      1
  Task      4: my_n_atoms2:      1 my_atom_list:      1
  Task      5: my_n_atoms2:      1 my_atom_list:      1
  Task      6: my_n_atoms2:      1 my_atom_list:      1
  Task      7: my_n_atoms2:      1 my_atom_list:      2
  Task      8: my_n_atoms2:      1 my_atom_list:      2
  Task      9: my_n_atoms2:      1 my_atom_list:      2
  Task     10: my_n_atoms2:      1 my_atom_list:      2
  Task     11: my_n_atoms2:      1 my_atom_list:      2
  Task     12: my_n_atoms2:      1 my_atom_list:      2
  Task     13: my_n_atoms2:      2 my_atom_list:      4     7
  Task     14: my_n_atoms2:      2 my_atom_list:      5     8
  Task     15: my_n_atoms2:      2 my_atom_list:      3     6
  Task      0: my_n_atoms2:      1 my_atom_list:      1
  Task      1: my_n_atoms2:      1 my_atom_list:      1
  Task      2: my_n_atoms2:      1 my_atom_list:      1
  Task      3: my_n_atoms2:      1 my_atom_list:      1
  Task      4: my_n_atoms2:      1 my_atom_list:      1
  Task      5: my_n_atoms2:      1 my_atom_list:      1
  Task      6: my_n_atoms2:      1 my_atom_list:      1
  Task      7: my_n_atoms2:      1 my_atom_list:      2
  Task      8: my_n_atoms2:      1 my_atom_list:      2
  Task      9: my_n_atoms2:      1 my_atom_list:      2
  Task     10: my_n_atoms2:      1 my_atom_list:      2
  Task     11: my_n_atoms2:      1 my_atom_list:      2
  Task     12: my_n_atoms2:      1 my_atom_list:      2
  Task     13: my_n_atoms2:      2 my_atom_list:      4     7
  Task     14: my_n_atoms2:      2 my_atom_list:      5     8
  Task     15: my_n_atoms2:      2 my_atom_list:      3     6
  Task      0: my_n_atom_pairs:      1
  Task      1: my_n_atom_pairs:      1
  Task      2: my_n_atom_pairs:      1
  Task      3: my_n_atom_pairs:      1
  Task      4: my_n_atom_pairs:      1
  Task      5: my_n_atom_pairs:      1
  Task      6: my_n_atom_pairs:      2
  Task      7: my_n_atom_pairs:      1
  Task      8: my_n_atom_pairs:      1
  Task      9: my_n_atom_pairs:      1
  Task     10: my_n_atom_pairs:      1
  Task     11: my_n_atom_pairs:      2
  Task     12: my_n_atom_pairs:      2
  Task     13: my_n_atom_pairs:     16
  Task     14: my_n_atom_pairs:     16
  Task     15: my_n_atom_pairs:     16
  Task      0: my_n_atom_pairs:      1
  Task      1: my_n_atom_pairs:      1
  Task      2: my_n_atom_pairs:      1
  Task      3: my_n_atom_pairs:      1
  Task      4: my_n_atom_pairs:      1
  Task      5: my_n_atom_pairs:      1
  Task      6: my_n_atom_pairs:      2
  Task      7: my_n_atom_pairs:      1
  Task      8: my_n_atom_pairs:      1
  Task      9: my_n_atom_pairs:      1
  Task     10: my_n_atom_pairs:      1
  Task     11: my_n_atom_pairs:      2
  Task     12: my_n_atom_pairs:      2
  Task     13: my_n_atom_pairs:     16
  Task     14: my_n_atom_pairs:     16
  Task     15: my_n_atom_pairs:     16
  Task      0: my_n_atom_pairs:      1
  Task      1: my_n_atom_pairs:      1
  Task      2: my_n_atom_pairs:      1
  Task      3: my_n_atom_pairs:      1
  Task      4: my_n_atom_pairs:      1
  Task      5: my_n_atom_pairs:      1
  Task      6: my_n_atom_pairs:      2
  Task      7: my_n_atom_pairs:      1
  Task      8: my_n_atom_pairs:      1
  Task      9: my_n_atom_pairs:      1
  Task     10: my_n_atom_pairs:      1
  Task     11: my_n_atom_pairs:      2
  Task     12: my_n_atom_pairs:      2
  Task     13: my_n_atom_pairs:     16
  Task     14: my_n_atom_pairs:     16
  Task     15: my_n_atom_pairs:     16
  Task      0: my_n_atom_pairs:      1
  Task      1: my_n_atom_pairs:      1
  Task      2: my_n_atom_pairs:      1
  Task      3: my_n_atom_pairs:      1
  Task      4: my_n_atom_pairs:      1
  Task      5: my_n_atom_pairs:      1
  Task      6: my_n_atom_pairs:      2
  Task      7: my_n_atom_pairs:      1
  Task      8: my_n_atom_pairs:      1
  Task      9: my_n_atom_pairs:      1
  Task     10: my_n_atom_pairs:      1
  Task     11: my_n_atom_pairs:      2
  Task     12: my_n_atom_pairs:      2
  Task     13: my_n_atom_pairs:     16
  Task     14: my_n_atom_pairs:     16
  Task     15: my_n_atom_pairs:     16
  Transferring Coulomb matrix to final data layout
  Coulomb matrix communicaton time [s]    0.88
  Max. memory per node for ovlp3fn matrices:        0.018 GB
  Total memory for ovlp3fn matrices:        0.009 GB
  --- Done getting norm of OVLP3FN, time:        0.000
  Total memory for ovlp3fn matrices:        0.009 GB
  --- time for get_ovlp3fn:        0.026
  Max. memory consumption per node for Hartree Fock matrix [GB]      0.00
  Blocksize for Fock matrix computation:     7
  Minimal free memory per node after Fock matrix initialization [GB]:   1030.98
  Initialize hartree_potential_storage
  Max. number of atoms included in rho_multipole:            8

  End scf initialization - timings             :  max(cpu_time)    wall_clock(cpu1)
  | Time for scf. initialization                :        1.591 s           2.338 s
  | Boundary condition initialization           :        0.002 s           0.002 s
  | Integration                                 :        0.016 s           0.016 s
  | Solution of K.-S. eqns.                     :        0.180 s           0.211 s
  | Grid partitioning                           :        0.034 s           0.034 s
  | Preloading free-atom quantities on grid     :        0.008 s           0.008 s
  | Free-atom superposition energy              :        0.002 s           0.002 s
  | Total energy evaluation                     :        0.000 s           0.000 s
  | Product basis setup: Total time             :        1.358 s           2.066 s

  Partial memory accounting:
  | Current value for overall tracked memory usage:
  |   Minimum:        0.324 MB (on task 26)
  |   Maximum:        1.309 MB (on task 11)
  |   Average:        0.574 MB
  | Peak value for overall tracked memory usage:
  |   Minimum:        1.384 MB (on task 18 after allocating d_aux_mat)
  |   Maximum:        2.721 MB (on task  6 after allocating ovlp3fn_nosplit%tmploc)
  |   Average:        1.467 MB
  | Largest tracked array allocation so far:
  |   Minimum:        0.691 MB (aux_mat on task  1)
  |   Maximum:        1.261 MB (ovlp3fn2%dat on task 11)
  |   Average:        0.780 MB
  Note:  These values currently only include a subset of arrays which are explicitly tracked.
  The "true" memory usage will be greater.
------------------------------------------------------------
  Available memory after initialize_scf [GB]:   1030.97
  Available memory after allocating mixing [GB]:   1030.97
  Evaluating new KS density.
  Integration grid: deviation in total charge (<rho> - N_e) =   1.065814E-14

  Time for density update prior                :  max(cpu_time)    wall_clock(cpu1)
  | self-consistency iterative process          :        0.005 s           0.005 s
  Available memory before start of SCF loop [GB]:   1030.95

------------------------------------------------------------
          Begin self-consistency iteration #    1

  Date     :  20260729, Time     :  183351.151
------------------------------------------------------------
  Pulay mixing of updated and previous charge densities.
  Available memory per node after mixing [GB]:   1030.95
  Renormalizing the density to the exact electron count on the 3D integration grid.
  | Formal number of electrons (from input files) :      18.0000000000
  | Integrated number of electrons on 3D grid     :      18.0000000000
  | Charge integration error                      :       0.0000000000
  | Normalization factor for density and gradient :       1.0000000000

  Evaluating partitioned Hartree potential by multipole expansion.
  | Original multipole sum: apparent total charge =  -0.940863E-15
  | Sum of charges compensated after spline to logarithmic grids =   0.233610E-06
  | Analytical far-field extrapolation by fixed multipoles:
  | Hartree multipole sum: apparent total charge =  -0.860921E-15
  Summing up the Hartree potential.
  Time summed over all CPUs for potential: real work        0.006 s, elapsed        0.007 s
  | RMS charge density error from multipole expansion :   0.656168E-03

  Integrating Hamiltonian matrix: batch-based integration.
  Time summed over all CPUs for integration: real work        0.409 s, elapsed        0.448 s
  Max. memory consumption per node for dm_cols [GB]:      0.00
  Max. memory consumption per node for fock_matrix [GB]:      0.00
  Calculating non-local Hartree-Fock exchange by two-center RI (RI-LVL).
  screening_threshold (crit_val) =  0.000000100000
  Max. allocated memory per node for ovlp3fn_rcv [GB]:      0.00
  Max. allocated memory per node for fock_matrix_row [GB]:      0.00
  Max. memory consumption per node for m_ovlp_fact11 [GB]:      0.00
  Max. memory consumption per node for d_aux_mem [GB]:      0.00
  Max. memory consumption per node for dm_x_o3fn_aux [GB]:      0.00
  Max. allocated memory per node for tmp1/tmp2 [GB]:      0.02
   final impselect vector           4           3           6           1
   Time for autotuning:    1.4747075999999915E-002
  Exact exchange progress report - outermost block loop i_block: 1 ..       3
  |        1         2         3  
 Total ovlp3fn data transfer [GB]   1.1848031892441213E-002
  Average sparsity of tmp1/2 0.46428570
  Average sparsity of fock_matrix_row 0.27586997
  Full exact exchange energy:     322.337361086984 eV.
  Detailed communication and barrier times:
  | Comm    0:        0.000       0.000       0.000       0.001       0.000       0.000       0.000       0.000       0.000       0.001
  | Comm    1:        0.000       0.000       0.000       0.001       0.000       0.000       0.000       0.000       0.000       0.001
  | Comm    2:        0.000       0.000       0.000       0.001       0.000       0.000       0.000       0.000       0.000       0.001
  | Comm    3:        0.000       0.000       0.000       0.001       0.000       0.000       0.000       0.000       0.000       0.001
  | Comm    4:        0.000       0.000       0.000       0.001       0.000       0.000       0.000       0.000       0.000       0.001
  | Comm    5:        0.000       0.000       0.000       0.001       0.000       0.000       0.000       0.000       0.000       0.001
  | Comm    6:        0.000       0.000       0.000       0.001       0.000       0.000       0.000       0.000       0.000       0.001
  | Comm    7:        0.000       0.000       0.000       0.001       0.000       0.000       0.000       0.000       0.000       0.001
  | Comm    8:        0.000       0.000       0.000       0.001       0.000       0.000       0.000       0.000       0.000       0.001
  | Comm    9:        0.000       0.000       0.000       0.001       0.000       0.000       0.000       0.000       0.000       0.001
  | Comm   10:        0.000       0.000       0.000       0.001       0.000       0.000       0.000       0.000       0.000       0.001
  | Comm   11:        0.000       0.000       0.000       0.001       0.000       0.000       0.000       0.000       0.000       0.001
  | Comm   12:        0.000       0.000       0.000       0.001       0.000       0.000       0.000       0.000       0.000       0.001
  | Comm   13:        0.000       0.000       0.000       0.000       0.000       0.000       0.000       0.000       0.000       0.000
  | Comm   14:        0.000       0.000       0.000       0.000       0.000       0.000       0.000       0.000       0.000       0.000
  | Comm   15:        0.000       0.000       0.000       0.000       0.000       0.000       0.000       0.000       0.000       0.000
  | Comm   16:        0.000       0.000       0.000       0.001       0.000       0.000       0.000       0.000       0.000       0.001
  | Comm   17:        0.000       0.000       0.000       0.001       0.000       0.000       0.000       0.000       0.000       0.001
  | Comm   18:        0.000       0.000       0.000       0.001       0.000       0.000       0.000       0.000       0.000       0.001
  | Comm   19:        0.000       0.000       0.000       0.001       0.000       0.000       0.000       0.000       0.000       0.001
  | Comm   20:        0.000       0.000       0.000       0.001       0.000       0.000       0.000       0.000       0.000       0.001
  | Comm   21:        0.000       0.000       0.000       0.001       0.000       0.000       0.000       0.000       0.000       0.001
  | Comm   22:        0.000       0.000       0.000       0.001       0.000       0.000       0.000       0.000       0.000       0.001
  | Comm   23:        0.000       0.000       0.000       0.001       0.000       0.000       0.000       0.000       0.000       0.001
  | Comm   24:        0.000       0.000       0.000       0.001       0.000       0.000       0.000       0.000       0.000       0.001
  | Comm   25:        0.000       0.000       0.000       0.001       0.000       0.000       0.000       0.000       0.000       0.001
  | Comm   26:        0.000       0.000       0.000       0.001       0.000       0.000       0.000       0.000       0.000       0.001
  | Comm   27:        0.000       0.000       0.000       0.001       0.000       0.000       0.000       0.000       0.000       0.001
  | Comm   28:        0.000       0.000       0.000       0.001       0.000       0.000       0.000       0.000       0.000       0.001
  | Comm   29:        0.000       0.000       0.000       0.000       0.000       0.000       0.000       0.000       0.000       0.000
  | Comm   30:        0.000       0.000       0.000       0.000       0.000       0.000       0.000       0.000       0.000       0.000
  | Comm   31:        0.000       0.000       0.000       0.000       0.000       0.000       0.000       0.000       0.000       0.000
  | Comm   32:        0.000       0.000       0.000       0.001       0.000       0.000       0.000       0.000       0.000       0.001
  | Comm   33:        0.000       0.000       0.000       0.001       0.000       0.000       0.000       0.000       0.000       0.001
  | Comm   34:        0.000       0.000       0.000       0.001       0.000       0.000       0.000       0.000       0.000       0.001
  | Comm   35:        0.000       0.000       0.000       0.001       0.000       0.000       0.000       0.000       0.000       0.001
  | Comm   36:        0.000       0.000       0.000       0.001       0.000       0.000       0.000       0.000       0.000       0.001
  | Comm   37:        0.000       0.000       0.000       0.001       0.000       0.000       0.000       0.000       0.000       0.001
  | Comm   38:        0.000       0.000       0.000       0.001       0.000       0.000       0.000       0.000       0.000       0.001
  | Comm   39:        0.000       0.000       0.000       0.001       0.000       0.000       0.000       0.000       0.000       0.001
  | Comm   40:        0.000       0.000       0.000       0.001       0.000       0.000       0.000       0.000       0.000       0.001
  | Comm   41:        0.000       0.000       0.000       0.001       0.000       0.000       0.000       0.000       0.000       0.001
  | Comm   42:        0.000       0.000       0.000       0.001       0.000       0.000       0.000       0.000       0.000       0.001
  | Comm   43:        0.000       0.000       0.000       0.001       0.000       0.000       0.000       0.000       0.000       0.001
  | Comm   44:        0.000       0.000       0.000       0.001       0.000       0.000       0.000       0.000       0.000       0.001
  | Comm   45:        0.000       0.000       0.000       0.000       0.000       0.000       0.000       0.000       0.000       0.000
  | Comm   46:        0.000       0.000       0.000       0.000       0.000       0.000       0.000       0.000       0.000       0.000
  | Comm   47:        0.000       0.000       0.000       0.000       0.000       0.000       0.000       0.000       0.000       0.000
  | Comm   48:        0.000       0.000       0.000       0.001       0.000       0.000       0.000       0.000       0.000       0.001
  | Comm   49:        0.000       0.000       0.000       0.001       0.000       0.000       0.000       0.000       0.000       0.001
  | Comm   50:        0.000       0.000       0.000       0.001       0.000       0.000       0.000       0.000       0.000       0.001
  | Comm   51:        0.000       0.000       0.000       0.001       0.000       0.000       0.000       0.000       0.000       0.001
  | Comm   52:        0.000       0.000       0.000       0.001       0.000       0.000       0.000       0.000       0.000       0.001
  | Comm   53:        0.000       0.000       0.000       0.001       0.000       0.000       0.000       0.000       0.000       0.001
  | Comm   54:        0.000       0.000       0.000       0.001       0.000       0.000       0.000       0.000       0.000       0.001
  | Comm   55:        0.000       0.000       0.000       0.001       0.000       0.000       0.000       0.000       0.000       0.001
  | Comm   56:        0.000       0.000       0.000       0.001       0.000       0.000       0.000       0.000       0.000       0.001
  | Comm   57:        0.000       0.000       0.000       0.001       0.000       0.000       0.000       0.000       0.000       0.001
  | Comm   58:        0.000       0.000       0.000       0.001       0.000       0.000       0.000       0.000       0.000       0.001
  | Comm   59:        0.000       0.000       0.000       0.001       0.000       0.000       0.000       0.000       0.000       0.001
  | Comm   60:        0.000       0.000       0.000       0.001       0.000       0.000       0.000       0.000       0.000       0.001
  | Comm   61:        0.000       0.000       0.000       0.000       0.000       0.000       0.000       0.000       0.000       0.000
  | Comm   62:        0.000       0.000       0.000       0.000       0.000       0.000       0.000       0.000       0.000       0.000
  | Comm   63:        0.000       0.000       0.000       0.000       0.000       0.000       0.000       0.000       0.000       0.000
  | Imbalance    0:        0.000       0.000       0.000       0.000       0.001       0.000       0.000       0.000       0.000       0.000
  | Imbalance    1:        0.000       0.000       0.000       0.000       0.001       0.000       0.000       0.000       0.000       0.000
  | Imbalance    2:        0.000       0.000       0.000       0.000       0.001       0.000       0.000       0.000       0.000       0.003
  | Imbalance    3:        0.000       0.000       0.000       0.000       0.001       0.000       0.000       0.000       0.000       0.003
  | Imbalance    4:        0.000       0.000       0.000       0.000       0.000       0.000       0.000       0.000       0.000       0.003
  | Imbalance    5:        0.000       0.000       0.000       0.000       0.001       0.000       0.000       0.000       0.000       0.003
  | Imbalance    6:        0.000       0.000       0.000       0.000       0.000       0.000       0.000       0.000       0.000       0.002
  | Imbalance    7:        0.000       0.000       0.000       0.001       0.001       0.000       0.000       0.000       0.000       0.000
  | Imbalance    8:        0.000       0.000       0.000       0.001       0.001       0.000       0.000       0.000       0.000       0.001
  | Imbalance    9:        0.000       0.000       0.000       0.001       0.001       0.000       0.000       0.000       0.000       0.003
  | Imbalance   10:        0.000       0.000       0.000       0.001       0.001       0.000       0.000       0.000       0.000       0.002
  | Imbalance   11:        0.000       0.000       0.000       0.000       0.000       0.000       0.000       0.000       0.000       0.002
  | Imbalance   12:        0.000       0.000       0.000       0.000       0.000       0.000       0.000       0.000       0.000       0.002
  | Imbalance   13:        0.000       0.000       0.000       0.000       0.003       0.000       0.000       0.000       0.000       0.000
  | Imbalance   14:        0.000       0.000       0.000       0.000       0.003       0.000       0.000       0.000       0.000       0.000
  | Imbalance   15:        0.000       0.000       0.000       0.000       0.003       0.000       0.000       0.000       0.000       0.000
  | Imbalance   16:        0.000       0.000       0.000       0.000       0.001       0.000       0.000       0.000       0.000       0.000
  | Imbalance   17:        0.000       0.000       0.000       0.001       0.002       0.000       0.000       0.000       0.000       0.000
  | Imbalance   18:        0.000       0.000       0.000       0.000       0.002       0.000       0.000       0.000       0.000       0.002
  | Imbalance   19:        0.000       0.000       0.000       0.001       0.002       0.000       0.000       0.000       0.000       0.002
  | Imbalance   20:        0.000       0.000       0.000       0.000       0.001       0.000       0.000       0.000       0.000       0.002
  | Imbalance   21:        0.000       0.000       0.000       0.001       0.002       0.000       0.000       0.000       0.000       0.002
  | Imbalance   22:        0.000       0.000       0.000       0.000       0.001       0.000       0.000       0.000       0.000       0.002
  | Imbalance   23:        0.000       0.000       0.000       0.000       0.001       0.000       0.000       0.000       0.000       0.000
  | Imbalance   24:        0.000       0.000       0.000       0.001       0.001       0.000       0.000       0.000       0.000       0.000
  | Imbalance   25:        0.000       0.000       0.000       0.000       0.001       0.000       0.000       0.000       0.000       0.003
  | Imbalance   26:        0.000       0.000       0.000       0.001       0.001       0.000       0.000       0.000       0.000       0.002
  | Imbalance   27:        0.000       0.000       0.000       0.000       0.000       0.000       0.000       0.000       0.000       0.002
  | Imbalance   28:        0.000       0.000       0.000       0.000       0.001       0.000       0.000       0.000       0.000       0.002
  | Imbalance   29:        0.000       0.000       0.000       0.000       0.004       0.000       0.000       0.000       0.000       0.000
  | Imbalance   30:        0.000       0.000       0.000       0.000       0.004       0.000       0.000       0.000       0.000       0.000
  | Imbalance   31:        0.000       0.000       0.000       0.000       0.004       0.000       0.000       0.000       0.000       0.000
  | Imbalance   32:        0.000       0.000       0.000       0.000       0.000       0.000       0.000       0.000       0.000       0.000
  | Imbalance   33:        0.000       0.000       0.000       0.000       0.001       0.000       0.000       0.000       0.000       0.001
  | Imbalance   34:        0.000       0.000       0.000       0.000       0.001       0.000       0.000       0.000       0.000       0.002
  | Imbalance   35:        0.000       0.000       0.000       0.000       0.001       0.000       0.000       0.000       0.000       0.002
  | Imbalance   36:        0.000       0.000       0.000       0.000       0.000       0.000       0.000       0.000       0.000       0.002
  | Imbalance   37:        0.000       0.000       0.000       0.000       0.001       0.000       0.000       0.000       0.000       0.002
  | Imbalance   38:        0.000       0.000       0.000       0.000       0.001       0.000       0.000       0.000       0.000       0.002
  | Imbalance   39:        0.000       0.000       0.000       0.000       0.000       0.000       0.000       0.000       0.000       0.000
  | Imbalance   40:        0.000       0.000       0.000       0.000       0.001       0.000       0.000       0.000       0.000       0.001
  | Imbalance   41:        0.000       0.000       0.000       0.000       0.001       0.000       0.000       0.000       0.000       0.002
  | Imbalance   42:        0.000       0.000       0.000       0.000       0.001       0.000       0.000       0.000       0.000       0.002
  | Imbalance   43:        0.000       0.000       0.000       0.000       0.000       0.000       0.000       0.000       0.000       0.002
  | Imbalance   44:        0.000       0.000       0.000       0.000       0.001       0.000       0.000       0.000       0.000       0.002
  | Imbalance   45:        0.000       0.000       0.000       0.000       0.003       0.000       0.000       0.000       0.000       0.000
  | Imbalance   46:        0.000       0.000       0.000       0.000       0.003       0.000       0.000       0.000       0.000       0.000
  | Imbalance   47:        0.000       0.000       0.000       0.000       0.003       0.000       0.000       0.000       0.000       0.000
  | Imbalance   48:        0.000       0.000       0.000       0.000       0.001       0.000       0.000       0.000       0.000       0.000
  | Imbalance   49:        0.000       0.000       0.000       0.000       0.001       0.000       0.000       0.000       0.000       0.000
  | Imbalance   50:        0.000       0.000       0.000       0.000       0.001       0.000       0.000       0.000       0.000       0.001
  | Imbalance   51:        0.000       0.000       0.000       0.000       0.001       0.000       0.000       0.000       0.000       0.002
  | Imbalance   52:        0.000       0.000       0.000       0.000       0.000       0.000       0.000       0.000       0.000       0.001
  | Imbalance   53:        0.000       0.000       0.000       0.000       0.001       0.000       0.000       0.000       0.000       0.002
  | Imbalance   54:        0.000       0.000       0.000       0.000       0.001       0.000       0.000       0.000       0.000       0.001
  | Imbalance   55:        0.000       0.000       0.000       0.000       0.000       0.000       0.000       0.000       0.000       0.000
  | Imbalance   56:        0.000       0.000       0.000       0.000       0.001       0.000       0.000       0.000       0.000       0.000
  | Imbalance   57:        0.000       0.000       0.000       0.000       0.001       0.000       0.000       0.000       0.000       0.002
  | Imbalance   58:        0.000       0.000       0.000       0.000       0.001       0.000       0.000       0.000       0.000       0.002
  | Imbalance   59:        0.000       0.000       0.000       0.000       0.000       0.000       0.000       0.000       0.000       0.001
  | Imbalance   60:        0.000       0.000       0.000       0.000       0.001       0.000       0.000       0.000       0.000       0.001
  | Imbalance   61:        0.000       0.000       0.000       0.000       0.003       0.000       0.000       0.000       0.000       0.000
  | Imbalance   62:        0.000       0.000       0.000       0.000       0.002       0.000       0.000       0.000       0.000       0.000
  | Imbalance   63:        0.000       0.000       0.000       0.000       0.003       0.000       0.000       0.000       0.000       0.000
  Times            DM_x_o3fn   CM_prod_1   CM_prod_2   tmp2_prod        Sync   Imbalance       Other  Total calc
  | Times    0:        0.000       0.002       0.001       0.001       0.003       0.001       0.055       0.063
  | Times    1:        0.000       0.002       0.001       0.000       0.003       0.002       0.055       0.063
  | Times    2:        0.000       0.000       0.000       0.000       0.003       0.004       0.055       0.063
  | Times    3:        0.000       0.000       0.000       0.000       0.003       0.004       0.055       0.063
  | Times    4:        0.000       0.000       0.000       0.001       0.003       0.003       0.055       0.063
  | Times    5:        0.000       0.000       0.000       0.000       0.003       0.004       0.055       0.063
  | Times    6:        0.001       0.001       0.000       0.001       0.003       0.003       0.055       0.063
  | Times    7:        0.000       0.002       0.001       0.000       0.003       0.001       0.055       0.063
  | Times    8:        0.000       0.002       0.001       0.000       0.003       0.002       0.055       0.063
  | Times    9:        0.000       0.000       0.000       0.000       0.003       0.004       0.055       0.063
  | Times   10:        0.000       0.000       0.000       0.000       0.003       0.004       0.055       0.063
  | Times   11:        0.001       0.000       0.000       0.001       0.003       0.003       0.055       0.063
  | Times   12:        0.001       0.001       0.000       0.001       0.003       0.003       0.055       0.063
  | Times   13:        0.000       0.003       0.001       0.000       0.000       0.003       0.055       0.063
  | Times   14:        0.000       0.003       0.001       0.000       0.000       0.003       0.055       0.063
  | Times   15:        0.000       0.003       0.001       0.000       0.000       0.003       0.055       0.063
  | Times   16:        0.000       0.002       0.001       0.001       0.003       0.002       0.055       0.063
  | Times   17:        0.000       0.002       0.001       0.000       0.003       0.003       0.055       0.063
  | Times   18:        0.000       0.000       0.000       0.000       0.003       0.004       0.055       0.063
  | Times   19:        0.000       0.000       0.000       0.000       0.003       0.005       0.055       0.063
  | Times   20:        0.001       0.000       0.000       0.001       0.003       0.004       0.055       0.063
  | Times   21:        0.000       0.000       0.000       0.000       0.003       0.004       0.055       0.063
  | Times   22:        0.001       0.001       0.000       0.001       0.003       0.003       0.055       0.063
  | Times   23:        0.000       0.002       0.001       0.000       0.003       0.001       0.055       0.063
  | Times   24:        0.000       0.002       0.001       0.000       0.003       0.002       0.055       0.063
  | Times   25:        0.000       0.000       0.000       0.000       0.003       0.004       0.055       0.063
  | Times   26:        0.000       0.000       0.000       0.000       0.003       0.004       0.055       0.063
  | Times   27:        0.001       0.000       0.000       0.001       0.003       0.003       0.055       0.063
  | Times   28:        0.001       0.001       0.000       0.001       0.003       0.003       0.055       0.063
  | Times   29:        0.000       0.003       0.001       0.000       0.000       0.004       0.055       0.063
  | Times   30:        0.000       0.003       0.001       0.000       0.000       0.004       0.055       0.063
  | Times   31:        0.000       0.003       0.001       0.000       0.000       0.004       0.055       0.063
  | Times   32:        0.000       0.001       0.001       0.000       0.003       0.001       0.057       0.063
  | Times   33:        0.000       0.001       0.000       0.000       0.003       0.002       0.057       0.063
  | Times   34:        0.000       0.000       0.000       0.000       0.003       0.003       0.057       0.063
  | Times   35:        0.000       0.000       0.000       0.000       0.003       0.003       0.057       0.063
  | Times   36:        0.000       0.000       0.000       0.001       0.003       0.002       0.057       0.063
  | Times   37:        0.000       0.000       0.000       0.000       0.003       0.003       0.057       0.063
  | Times   38:        0.000       0.000       0.000       0.000       0.003       0.003       0.057       0.063
  | Times   39:        0.000       0.001       0.001       0.000       0.003       0.001       0.057       0.063
  | Times   40:        0.000       0.001       0.000       0.000       0.003       0.001       0.057       0.063
  | Times   41:        0.000       0.000       0.000       0.000       0.003       0.003       0.057       0.063
  | Times   42:        0.000       0.000       0.000       0.000       0.003       0.003       0.057       0.063
  | Times   43:        0.000       0.000       0.000       0.001       0.003       0.002       0.057       0.063
  | Times   44:        0.000       0.000       0.000       0.000       0.003       0.003       0.057       0.063
  | Times   45:        0.000       0.002       0.001       0.000       0.000       0.003       0.057       0.063
  | Times   46:        0.000       0.002       0.001       0.000       0.000       0.003       0.057       0.063
  | Times   47:        0.000       0.002       0.001       0.000       0.000       0.003       0.057       0.063
  | Times   48:        0.000       0.001       0.000       0.000       0.003       0.001       0.057       0.063
  | Times   49:        0.000       0.001       0.001       0.000       0.003       0.001       0.057       0.063
  | Times   50:        0.000       0.000       0.000       0.000       0.003       0.003       0.057       0.063
  | Times   51:        0.000       0.000       0.000       0.000       0.003       0.003       0.057       0.063
  | Times   52:        0.000       0.000       0.000       0.001       0.003       0.002       0.057       0.063
  | Times   53:        0.000       0.000       0.000       0.000       0.003       0.003       0.057       0.063
  | Times   54:        0.000       0.000       0.000       0.000       0.003       0.003       0.057       0.063
  | Times   55:        0.000       0.001       0.000       0.000       0.003       0.001       0.057       0.063
  | Times   56:        0.000       0.001       0.001       0.000       0.003       0.001       0.057       0.063
  | Times   57:        0.000       0.000       0.000       0.000       0.003       0.003       0.057       0.063
  | Times   58:        0.000       0.000       0.000       0.000       0.003       0.003       0.057       0.063
  | Times   59:        0.000       0.000       0.000       0.001       0.003       0.002       0.057       0.063
  | Times   60:        0.000       0.000       0.000       0.000       0.003       0.002       0.057       0.063
  | Times   61:        0.000       0.002       0.001       0.000       0.000       0.003       0.057       0.063
  | Times   62:        0.000       0.002       0.001       0.000       0.000       0.003       0.057       0.063
  | Times   63:        0.000       0.002       0.001       0.000       0.000       0.003       0.057       0.063
  | Times  sum:        0.021       0.065       0.025       0.022       0.147       0.177       3.594       4.050

  Decomposition of Other based on code block (only on MPI task 0):
  Times             Block #1    Block #2    Block #3    Block #4    Block #5    Block #6    Block #7    Block #8
  | Times    0:        0.045       0.000       0.000       0.000       0.000       0.000       0.000       0.000

  Times             Block #9   Block #10   Block #11   Block #12   Block #13   Block #14   Block #15   Block #16
  | Times    0:        0.000       0.000       0.000       0.001       0.000       0.007       0.000       0.000

  Times            Block Sum    Expected
  | Times    0:        0.054       0.055
  Time for Fock matrix mixing     0.016

  Updating Kohn-Sham eigenvalues and eigenvectors using ELSI and the ELPA eigensolver.
  Starting ELPA eigensolver
  Finished transformation to standard eigenproblem
  | Time :     0.001 s
  Finished solving standard eigenproblem
  | Time :     0.001 s
  Finished back-transformation of eigenvectors
  | Time :     0.000 s

  Obtaining occupation numbers and electronic chemical potential using ELSI.
  | Note that, for insulating systems, the printed 'chemical potential' value is not uniquely defined.
  | It can be anywhere in the energy gap, as long as it correctly separates occupied and unoccupied states.
  | In systems with a gap, the physically relevant chemical potential is the VBM or HOMO.

  | Chemical potential (Fermi level):    -7.01261424 eV
  Writing Kohn-Sham eigenvalues.

  State    Occupation    Eigenvalue [Ha]    Eigenvalue [eV]
      1       2.00000         -14.621610         -397.87425
      2       2.00000          -6.918272         -188.25577
      3       2.00000          -1.070209          -29.12186
      4       2.00000          -0.663288          -18.04897
      5       2.00000          -0.650427          -17.69902
      6       2.00000          -0.650426          -17.69898
      7       2.00000          -0.505648          -13.75939
      8       2.00000          -0.458552          -12.47783
      9       2.00000          -0.458551          -12.47780
     10       0.00000          -0.056867           -1.54743
     11       0.00000          -0.001077           -0.02929
     12       0.00000           0.028946            0.78767
     13       0.00000           0.028947            0.78768
     14       0.00000           0.040980            1.11513
     15       0.00000           0.064164            1.74599
     16       0.00000           0.064166            1.74603
     17       0.00000           0.119884            3.26222
     18       0.00000           0.119885            3.26223
     19       0.00000           0.177756            4.83698
     20       0.00000           0.181190            4.93043
     21       0.00000           0.181190            4.93044
     22       0.00000           0.252438            6.86919
     23       0.00000           0.366536            9.97396
     24       0.00000           0.443413           12.06587

  Highest occupied state (VBM) at    -12.47779688 eV
  | Occupation number:      2.00000000

  Lowest unoccupied state (CBM) at    -1.54743161 eV
  | Occupation number:      0.00000000

  Overall HOMO-LUMO gap:     10.93036527 eV.

  Total energy components:
  | Sum of eigenvalues            :         -51.99396419 Ha       -1414.82775135 eV
  | XC energy correction          :          -6.93852327 Ha        -188.80682462 eV
  | XC potential correction       :          12.64369348 Ha         344.05240472 eV
  | Free-atom electrostatic energy:         -36.43250662 Ha        -991.37894593 eV
  | Hartree energy correction     :          -0.63122015 Ha         -17.17637413 eV
  | Entropy correction            :          -0.00000000 Ha          -0.00000000 eV
  | ---------------------------
  | Total energy                  :         -83.35252076 Ha       -2268.13749132 eV
  | Total energy, T -> 0          :         -83.35252076 Ha       -2268.13749132 eV  <-- do not rely on this value for anything but (periodic) metals
  | Electronic free energy        :         -83.35252076 Ha       -2268.13749132 eV

  Derived energy quantities:
  | Kinetic energy                :          81.94621718 Ha        2229.87002390 eV
  | Electrostatic energy          :        -152.44030663 Ha       -4148.11179704 eV
  | Energy correction for multipole
  | error in Hartree potential    :          -0.00103370 Ha          -0.02812850 eV
  | Sum of eigenvalues per atom                           :        -176.85346892 eV
  | Total energy (T->0) per atom                          :        -283.51718641 eV  <-- do not rely on this value for anything but (periodic) metals
  | Electronic free energy per atom                       :        -283.51718641 eV
  Evaluating new KS density.
  Integration grid: deviation in total charge (<rho> - N_e) =  -7.105427E-15

  Self-consistency convergence accuracy:
  | Change of charge density      :  0.3942E+00
  | Change of unmixed KS density  :  0.8455E+01
  | Change of sum of eigenvalues  : -0.4036E+02 eV
  | Change of total energy        :  0.3470E+00 eV


------------------------------------------------------------
  End self-consistency iteration #     1       :  max(cpu_time)    wall_clock(cpu1)
  | Time for this iteration                     :        0.119 s           0.120 s
  | Charge density update                       :        0.004 s           0.004 s
  | Density mixing                              :        0.000 s           0.000 s
  | Hartree multipole update                    :        0.002 s           0.003 s
  | Hartree multipole summation                 :        0.007 s           0.007 s
  | Integration                                 :        0.007 s           0.007 s
  | Fock matrix evaluation                      :        0.095 s           0.096 s
  | Solution of K.-S. eqns.                     :        0.002 s           0.002 s
  | Total energy evaluation                     :        0.000 s           0.001 s

  Partial memory accounting:
  | Current value for overall tracked memory usage:
  |   Minimum:        1.398 MB (on task 57)
  |   Maximum:        2.477 MB (on task 59)
  |   Average:        1.666 MB
  | Peak value for overall tracked memory usage:
  |   Minimum:        1.867 MB (on task 57 after allocating gradient_basis_wave)
  |   Maximum:        2.946 MB (on task 59 after allocating gradient_basis_wave)
  |   Average:        2.165 MB
  | Largest tracked array allocation so far:
  |   Minimum:        0.691 MB (aux_mat on task  1)
  |   Maximum:        1.261 MB (ovlp3fn2%dat on task 11)
  |   Average:        0.780 MB
  Note:  These values currently only include a subset of arrays which are explicitly tracked.
  The "true" memory usage will be greater.
------------------------------------------------------------

------------------------------------------------------------
          Begin self-consistency iteration #    2

  Date     :  20260729, Time     :  183351.423
------------------------------------------------------------
  Pulay mixing of updated and previous charge densities.
  Available memory per node after mixing [GB]:   1030.95
  Renormalizing the density to the exact electron count on the 3D integration grid.
  | Formal number of electrons (from input files) :      18.0000000000
  | Integrated number of electrons on 3D grid     :      18.0000000000
  | Charge integration error                      :      -0.0000000000
  | Normalization factor for density and gradient :       1.0000000000

  Evaluating partitioned Hartree potential by multipole expansion.
  | Original multipole sum: apparent total charge =  -0.499334E-14
  | Sum of charges compensated after spline to logarithmic grids =   0.645225E-06
  | Analytical far-field extrapolation by fixed multipoles:
  | Hartree multipole sum: apparent total charge =  -0.644461E-14
  Summing up the Hartree potential.
  Time summed over all CPUs for potential: real work        0.006 s, elapsed        0.007 s
  | RMS charge density error from multipole expansion :   0.437369E-02

  Integrating Hamiltonian matrix: batch-based integration.
  Time summed over all CPUs for integration: real work        0.404 s, elapsed        0.439 s
  Calculating non-local Hartree-Fock exchange by two-center RI (RI-LVL).
  screening_threshold (crit_val) =  0.000000100000
  Exact exchange progress report - outermost block loop i_block: 1 ..       3
  |        1         2         3  
 Total ovlp3fn data transfer [GB]   5.0777279539033771E-003
  Average sparsity of tmp1/2 0.46428570
  Average sparsity of fock_matrix_row 0.27586997
  Full exact exchange energy:     322.060920576704 eV.
  Times            DM_x_o3fn   CM_prod_1   CM_prod_2   tmp2_prod        Sync   Imbalance       Other  Total calc
  | Times    0:        0.000       0.002       0.001       0.001       0.003       0.002       0.011       0.019
  | Times    1:        0.000       0.002       0.001       0.000       0.003       0.002       0.011       0.019
  | Times    2:        0.000       0.000       0.000       0.000       0.003       0.005       0.011       0.019
  | Times    3:        0.000       0.000       0.000       0.000       0.003       0.005       0.011       0.019
  | Times    4:        0.001       0.000       0.000       0.001       0.003       0.004       0.011       0.019
  | Times    5:        0.000       0.000       0.000       0.000       0.003       0.004       0.011       0.019
  | Times    6:        0.001       0.001       0.000       0.001       0.003       0.003       0.011       0.019
  | Times    7:        0.000       0.002       0.001       0.000       0.003       0.001       0.011       0.019
  | Times    8:        0.000       0.002       0.001       0.000       0.003       0.002       0.011       0.019
  | Times    9:        0.000       0.000       0.000       0.000       0.003       0.005       0.011       0.019
  | Times   10:        0.000       0.000       0.000       0.000       0.003       0.004       0.011       0.019
  | Times   11:        0.000       0.001       0.000       0.001       0.003       0.003       0.011       0.019
  | Times   12:        0.001       0.001       0.000       0.001       0.003       0.003       0.011       0.019
  | Times   13:        0.000       0.003       0.001       0.000       0.000       0.004       0.011       0.019
  | Times   14:        0.000       0.003       0.001       0.000       0.000       0.003       0.011       0.019
  | Times   15:        0.000       0.003       0.001       0.000       0.000       0.004       0.011       0.019
  | Times   16:        0.000       0.002       0.001       0.001       0.003       0.002       0.011       0.019
  | Times   17:        0.000       0.003       0.001       0.000       0.003       0.002       0.011       0.019
  | Times   18:        0.001       0.001       0.000       0.000       0.003       0.005       0.011       0.019
  | Times   19:        0.000       0.000       0.000       0.000       0.003       0.005       0.011       0.019
  | Times   20:        0.000       0.000       0.000       0.001       0.003       0.004       0.011       0.019
  | Times   21:        0.000       0.000       0.000       0.000       0.003       0.005       0.011       0.019
  | Times   22:        0.001       0.001       0.000       0.001       0.003       0.004       0.011       0.019
  | Times   23:        0.000       0.003       0.001       0.001       0.003       0.001       0.012       0.020
  | Times   24:        0.001       0.002       0.001       0.000       0.003       0.003       0.011       0.019
  | Times   25:        0.000       0.000       0.000       0.000       0.003       0.005       0.011       0.019
  | Times   26:        0.000       0.001       0.000       0.000       0.003       0.004       0.011       0.019
  | Times   27:        0.001       0.001       0.000       0.001       0.003       0.003       0.011       0.019
  | Times   28:        0.001       0.001       0.000       0.001       0.003       0.004       0.011       0.019
  | Times   29:        0.000       0.003       0.001       0.000       0.000       0.004       0.011       0.019
  | Times   30:        0.000       0.003       0.001       0.000       0.000       0.004       0.011       0.019
  | Times   31:        0.000       0.003       0.001       0.000       0.000       0.004       0.011       0.019
  | Times   32:        0.000       0.001       0.001       0.000       0.003       0.001       0.013       0.019
  | Times   33:        0.000       0.001       0.000       0.000       0.003       0.002       0.013       0.019
  | Times   34:        0.000       0.000       0.000       0.000       0.003       0.003       0.013       0.019
  | Times   35:        0.000       0.000       0.000       0.000       0.003       0.003       0.013       0.019
  | Times   36:        0.000       0.000       0.000       0.001       0.003       0.002       0.013       0.019
  | Times   37:        0.000       0.000       0.000       0.000       0.003       0.004       0.013       0.019
  | Times   38:        0.000       0.000       0.000       0.000       0.003       0.003       0.013       0.019
  | Times   39:        0.000       0.001       0.001       0.000       0.003       0.001       0.013       0.019
  | Times   40:        0.000       0.001       0.000       0.000       0.003       0.002       0.013       0.019
  | Times   41:        0.000       0.000       0.000       0.000       0.003       0.003       0.013       0.019
  | Times   42:        0.000       0.000       0.000       0.000       0.003       0.003       0.013       0.019
  | Times   43:        0.000       0.000       0.000       0.001       0.003       0.002       0.013       0.019
  | Times   44:        0.000       0.000       0.000       0.000       0.003       0.003       0.013       0.019
  | Times   45:        0.000       0.002       0.001       0.000       0.000       0.003       0.013       0.020
  | Times   46:        0.000       0.002       0.001       0.000       0.000       0.003       0.013       0.019
  | Times   47:        0.000       0.002       0.001       0.000       0.000       0.003       0.013       0.019
  | Times   48:        0.000       0.001       0.000       0.000       0.003       0.001       0.013       0.019
  | Times   49:        0.000       0.002       0.001       0.000       0.003       0.001       0.013       0.019
  | Times   50:        0.000       0.000       0.000       0.000       0.003       0.003       0.013       0.019
  | Times   51:        0.000       0.000       0.000       0.000       0.003       0.003       0.013       0.019
  | Times   52:        0.000       0.000       0.000       0.001       0.003       0.002       0.013       0.019
  | Times   53:        0.000       0.000       0.000       0.000       0.003       0.004       0.013       0.019
  | Times   54:        0.000       0.000       0.000       0.000       0.003       0.003       0.013       0.019
  | Times   55:        0.000       0.001       0.000       0.000       0.003       0.001       0.013       0.019
  | Times   56:        0.000       0.001       0.001       0.000       0.003       0.001       0.013       0.019
  | Times   57:        0.000       0.000       0.000       0.000       0.003       0.003       0.013       0.019
  | Times   58:        0.000       0.000       0.000       0.000       0.003       0.003       0.013       0.019
  | Times   59:        0.000       0.000       0.000       0.001       0.003       0.002       0.013       0.019
  | Times   60:        0.001       0.000       0.000       0.000       0.003       0.003       0.013       0.019
  | Times   61:        0.000       0.002       0.001       0.000       0.000       0.003       0.013       0.019
  | Times   62:        0.000       0.002       0.001       0.000       0.000       0.003       0.013       0.020
  | Times   63:        0.000       0.002       0.001       0.000       0.000       0.003       0.013       0.019
  | Times  sum:        0.023       0.072       0.026       0.023       0.146       0.191       0.767       1.249

  Decomposition of Other based on code block (only on MPI task 0):
  Times             Block #1    Block #2    Block #3    Block #4    Block #5    Block #6    Block #7    Block #8
  | Times    0:        0.000       0.000       0.000       0.000       0.000       0.000       0.000       0.000

  Times             Block #9   Block #10   Block #11   Block #12   Block #13   Block #14   Block #15   Block #16
  | Times    0:        0.000       0.000       0.000       0.001       0.000       0.008       0.000       0.000

  Times            Block Sum    Expected
  | Times    0:        0.010       0.011
  Time for Fock matrix mixing     0.000

  Updating Kohn-Sham eigenvalues and eigenvectors using ELSI and the ELPA eigensolver.
  Starting ELPA eigensolver
  Finished transformation to standard eigenproblem
  | Time :     0.001 s
  Finished solving standard eigenproblem
  | Time :     0.023 s
  Finished back-transformation of eigenvectors
  | Time :     0.000 s

  Obtaining occupation numbers and electronic chemical potential using ELSI.
  | Note that, for insulating systems, the printed 'chemical potential' value is not uniquely defined.
  | It can be anywhere in the energy gap, as long as it correctly separates occupied and unoccupied states.
  | In systems with a gap, the physically relevant chemical potential is the VBM or HOMO.

  | Chemical potential (Fermi level):    -4.05731194 eV
  Highest occupied state (VBM) at     -7.75581832 eV
  | Occupation number:      2.00000000

  Lowest unoccupied state (CBM) at    -0.35880556 eV
  | Occupation number:      0.00000000

  Overall HOMO-LUMO gap:      7.39701277 eV.

  Checking to see if s.c.f. parameters should be adjusted.

  Total energy components:
  | Sum of eigenvalues            :         -48.55523871 Ha       -1321.25527011 eV
  | XC energy correction          :          -7.34077322 Ha        -199.75260274 eV
  | XC potential correction       :          13.08785266 Ha         356.13859113 eV
  | Free-atom electrostatic energy:         -36.43250662 Ha        -991.37894593 eV
  | Hartree energy correction     :          -4.02726195 Ha        -109.58737331 eV
  | Entropy correction            :          -0.00000000 Ha          -0.00000000 eV
  | ---------------------------
  | Total energy                  :         -83.26792784 Ha       -2265.83560097 eV
  | Total energy, T -> 0          :         -83.26792784 Ha       -2265.83560097 eV  <-- do not rely on this value for anything but (periodic) metals
  | Electronic free energy        :         -83.26792784 Ha       -2265.83560097 eV

  Derived energy quantities:
  | Kinetic energy                :          83.60634662 Ha        2275.04444449 eV
  | Electrostatic energy          :        -153.73177300 Ha       -4183.25438500 eV
  | Energy correction for multipole
  | error in Hartree potential    :          -0.00650103 Ha          -0.17690213 eV
  | Sum of eigenvalues per atom                           :        -165.15690876 eV
  | Total energy (T->0) per atom                          :        -283.22945012 eV  <-- do not rely on this value for anything but (periodic) metals
  | Electronic free energy per atom                       :        -283.22945012 eV
  Evaluating new KS density.
  Integration grid: deviation in total charge (<rho> - N_e) =   7.105427E-15

  Self-consistency convergence accuracy:
  | Change of charge density      :  0.3509E+00
  | Change of unmixed KS density  :  0.3068E-01
  | Change of sum of eigenvalues  :  0.9357E+02 eV
  | Change of total energy        :  0.2302E+01 eV


------------------------------------------------------------
  End self-consistency iteration #     2       :  max(cpu_time)    wall_clock(cpu1)
  | Time for this iteration                     :        0.299 s           0.164 s
  | Charge density update                       :        0.004 s           0.004 s
  | Density mixing                              :        0.237 s           0.099 s
  | Hartree multipole update                    :        0.002 s           0.003 s
  | Hartree multipole summation                 :        0.007 s           0.007 s
  | Integration                                 :        0.007 s           0.007 s
  | Fock matrix evaluation                      :        0.020 s           0.020 s
  | Solution of K.-S. eqns.                     :        0.023 s           0.024 s
  | Total energy evaluation                     :        0.000 s           0.000 s

  Partial memory accounting:
  | Current value for overall tracked memory usage:
  |   Minimum:        1.399 MB (on task 57)
  |   Maximum:        2.478 MB (on task 59)
  |   Average:        1.667 MB
  | Peak value for overall tracked memory usage:
  |   Minimum:        1.868 MB (on task 57 after allocating gradient_basis_wave)
  |   Maximum:        2.947 MB (on task 59 after allocating gradient_basis_wave)
  |   Average:        2.166 MB
  | Largest tracked array allocation so far:
  |   Minimum:        0.691 MB (aux_mat on task  1)
  |   Maximum:        1.261 MB (ovlp3fn2%dat on task 11)
  |   Average:        0.780 MB
  Note:  These values currently only include a subset of arrays which are explicitly tracked.
  The "true" memory usage will be greater.
------------------------------------------------------------

------------------------------------------------------------
          Begin self-consistency iteration #    3

  Date     :  20260729, Time     :  183351.792
------------------------------------------------------------
  Pulay mixing of updated and previous charge densities.
  Available memory per node after mixing [GB]:   1030.96
  Renormalizing the density to the exact electron count on the 3D integration grid.
  | Formal number of electrons (from input files) :      18.0000000000
  | Integrated number of electrons on 3D grid     :      18.0000000000
  | Charge integration error                      :       0.0000000000
  | Normalization factor for density and gradient :       1.0000000000

  Evaluating partitioned Hartree potential by multipole expansion.
  | Original multipole sum: apparent total charge =  -0.236138E-14
  | Sum of charges compensated after spline to logarithmic grids =   0.165511E-06
  | Analytical far-field extrapolation by fixed multipoles:
  | Hartree multipole sum: apparent total charge =  -0.204161E-14
  Summing up the Hartree potential.
  Time summed over all CPUs for potential: real work        0.006 s, elapsed        0.007 s
  | RMS charge density error from multipole expansion :   0.328912E-02

  Integrating Hamiltonian matrix: batch-based integration.
  Time summed over all CPUs for integration: real work        0.405 s, elapsed        0.441 s
  Calculating non-local Hartree-Fock exchange by two-center RI (RI-LVL).
  screening_threshold (crit_val) =  0.000000100000
  Exact exchange progress report - outermost block loop i_block: 1 ..       3
  |        1         2         3  
 Total ovlp3fn data transfer [GB]   5.0777279539033771E-003
  Average sparsity of tmp1/2 0.46428570
  Average sparsity of fock_matrix_row 0.27586997
  Full exact exchange energy:     311.236181947389 eV.
  Times            DM_x_o3fn   CM_prod_1   CM_prod_2   tmp2_prod        Sync   Imbalance       Other  Total calc
  | Times    0:        0.000       0.002       0.001       0.001       0.003       0.002       0.010       0.018
  | Times    1:        0.000       0.001       0.001       0.000       0.003       0.003       0.009       0.018
  | Times    2:        0.000       0.000       0.000       0.000       0.003       0.005       0.009       0.018
  | Times    3:        0.000       0.000       0.000       0.000       0.003       0.005       0.009       0.018
  | Times    4:        0.000       0.000       0.000       0.001       0.003       0.004       0.010       0.018
  | Times    5:        0.000       0.000       0.000       0.000       0.003       0.005       0.009       0.018
  | Times    6:        0.000       0.001       0.000       0.001       0.003       0.004       0.010       0.018
  | Times    7:        0.000       0.003       0.001       0.001       0.003       0.001       0.010       0.018
  | Times    8:        0.000       0.003       0.001       0.000       0.003       0.002       0.009       0.018
  | Times    9:        0.000       0.000       0.000       0.000       0.003       0.005       0.009       0.018
  | Times   10:        0.000       0.000       0.000       0.000       0.003       0.005       0.009       0.018
  | Times   11:        0.000       0.001       0.000       0.001       0.003       0.003       0.010       0.018
  | Times   12:        0.000       0.001       0.000       0.001       0.003       0.004       0.010       0.018
  | Times   13:        0.000       0.002       0.001       0.000       0.000       0.004       0.009       0.018
  | Times   14:        0.000       0.002       0.001       0.000       0.000       0.004       0.009       0.018
  | Times   15:        0.000       0.002       0.001       0.000       0.000       0.004       0.009       0.018
  | Times   16:        0.000       0.002       0.001       0.001       0.003       0.002       0.010       0.018
  | Times   17:        0.000       0.001       0.001       0.000       0.003       0.003       0.009       0.018
  | Times   18:        0.000       0.000       0.000       0.000       0.003       0.005       0.009       0.018
  | Times   19:        0.000       0.000       0.000       0.000       0.003       0.005       0.009       0.018
  | Times   20:        0.000       0.000       0.000       0.001       0.003       0.004       0.010       0.018
  | Times   21:        0.000       0.000       0.000       0.000       0.003       0.005       0.009       0.018
  | Times   22:        0.000       0.001       0.000       0.001       0.003       0.004       0.009       0.018
  | Times   23:        0.000       0.003       0.001       0.001       0.003       0.001       0.010       0.019
  | Times   24:        0.000       0.002       0.001       0.000       0.003       0.003       0.009       0.018
  | Times   25:        0.000       0.000       0.000       0.000       0.003       0.005       0.009       0.018
  | Times   26:        0.000       0.000       0.000       0.000       0.003       0.005       0.009       0.018
  | Times   27:        0.000       0.001       0.000       0.001       0.003       0.003       0.010       0.018
  | Times   28:        0.000       0.001       0.000       0.001       0.003       0.004       0.009       0.018
  | Times   29:        0.000       0.002       0.001       0.000       0.000       0.004       0.009       0.018
  | Times   30:        0.000       0.002       0.001       0.000       0.000       0.004       0.009       0.018
  | Times   31:        0.000       0.002       0.001       0.000       0.000       0.004       0.009       0.018
  | Times   32:        0.000       0.001       0.001       0.000       0.003       0.001       0.012       0.018
  | Times   33:        0.000       0.001       0.000       0.000       0.003       0.002       0.012       0.018
  | Times   34:        0.000       0.000       0.000       0.000       0.003       0.003       0.012       0.018
  | Times   35:        0.000       0.000       0.000       0.000       0.003       0.003       0.012       0.018
  | Times   36:        0.000       0.000       0.000       0.001       0.002       0.002       0.012       0.018
  | Times   37:        0.000       0.000       0.000       0.000       0.002       0.003       0.012       0.018
  | Times   38:        0.000       0.000       0.000       0.000       0.003       0.003       0.012       0.018
  | Times   39:        0.000       0.001       0.001       0.000       0.003       0.001       0.012       0.018
  | Times   40:        0.000       0.001       0.000       0.000       0.003       0.002       0.012       0.018
  | Times   41:        0.000       0.000       0.000       0.000       0.003       0.003       0.012       0.018
  | Times   42:        0.000       0.000       0.000       0.000       0.003       0.003       0.012       0.018
  | Times   43:        0.000       0.000       0.000       0.001       0.003       0.002       0.012       0.018
  | Times   44:        0.000       0.000       0.000       0.000       0.003       0.003       0.012       0.018
  | Times   45:        0.000       0.002       0.001       0.000       0.000       0.003       0.012       0.018
  | Times   46:        0.000       0.002       0.001       0.000       0.000       0.003       0.012       0.018
  | Times   47:        0.000       0.002       0.001       0.000       0.000       0.003       0.012       0.018
  | Times   48:        0.000       0.001       0.000       0.000       0.003       0.001       0.012       0.018
  | Times   49:        0.000       0.001       0.001       0.000       0.003       0.002       0.012       0.018
  | Times   50:        0.000       0.000       0.000       0.000       0.003       0.003       0.012       0.018
  | Times   51:        0.000       0.000       0.000       0.000       0.003       0.003       0.012       0.018
  | Times   52:        0.000       0.000       0.000       0.001       0.003       0.002       0.012       0.018
  | Times   53:        0.000       0.000       0.000       0.000       0.003       0.003       0.012       0.018
  | Times   54:        0.001       0.000       0.000       0.000       0.003       0.002       0.012       0.018
  | Times   55:        0.000       0.001       0.000       0.000       0.003       0.001       0.012       0.018
  | Times   56:        0.000       0.001       0.001       0.000       0.003       0.001       0.012       0.018
  | Times   57:        0.000       0.000       0.000       0.000       0.003       0.003       0.012       0.018
  | Times   58:        0.000       0.000       0.000       0.000       0.003       0.003       0.012       0.018
  | Times   59:        0.000       0.000       0.000       0.001       0.003       0.002       0.012       0.018
  | Times   60:        0.001       0.000       0.000       0.000       0.003       0.003       0.012       0.018
  | Times   61:        0.000       0.002       0.001       0.000       0.000       0.003       0.012       0.018
  | Times   62:        0.000       0.002       0.001       0.000       0.000       0.003       0.012       0.018
  | Times   63:        0.000       0.002       0.001       0.000       0.000       0.003       0.012       0.018
  | Times  sum:        0.020       0.065       0.026       0.023       0.145       0.199       0.681       1.159

  Decomposition of Other based on code block (only on MPI task 0):
  Times             Block #1    Block #2    Block #3    Block #4    Block #5    Block #6    Block #7    Block #8
  | Times    0:        0.000       0.000       0.000       0.000       0.000       0.000       0.000       0.000

  Times             Block #9   Block #10   Block #11   Block #12   Block #13   Block #14   Block #15   Block #16
  | Times    0:        0.000       0.000       0.000       0.001       0.000       0.007       0.000       0.000

  Times            Block Sum    Expected
  | Times    0:        0.009       0.010
  Time for Fock matrix mixing     0.006

  Updating Kohn-Sham eigenvalues and eigenvectors using ELSI and the ELPA eigensolver.
  Starting ELPA eigensolver
  Finished transformation to standard eigenproblem
  | Time :     0.000 s
  Finished solving standard eigenproblem
  | Time :     0.001 s
  Finished back-transformation of eigenvectors
  | Time :     0.000 s

  Obtaining occupation numbers and electronic chemical potential using ELSI.
  | Note that, for insulating systems, the printed 'chemical potential' value is not uniquely defined.
  | It can be anywhere in the energy gap, as long as it correctly separates occupied and unoccupied states.
  | In systems with a gap, the physically relevant chemical potential is the VBM or HOMO.

  | Chemical potential (Fermi level):    -5.02821188 eV
  Highest occupied state (VBM) at     -9.33135081 eV
  | Occupation number:      2.00000000

  Lowest unoccupied state (CBM) at    -0.72507296 eV
  | Occupation number:      0.00000000

  Overall HOMO-LUMO gap:      8.60627785 eV.

  Total energy components:
  | Sum of eigenvalues            :         -49.89817621 Ha       -1357.79845868 eV
  | XC energy correction          :          -7.18689268 Ha        -195.56530004 eV
  | XC potential correction       :          12.91401325 Ha         351.40818008 eV
  | Free-atom electrostatic energy:         -36.43250662 Ha        -991.37894593 eV
  | Hartree energy correction     :          -2.63868861 Ha         -71.80237032 eV
  | Entropy correction            :          -0.00000000 Ha          -0.00000000 eV
  | ---------------------------
  | Total energy                  :         -83.24225086 Ha       -2265.13689490 eV
  | Total energy, T -> 0          :         -83.24225086 Ha       -2265.13689490 eV  <-- do not rely on this value for anything but (periodic) metals
  | Electronic free energy        :         -83.24225086 Ha       -2265.13689490 eV

  Derived energy quantities:
  | Kinetic energy                :          82.95806506 Ha        2257.40380569 eV
  | Electrostatic energy          :        -153.17186128 Ha       -4168.01841176 eV
  | Energy correction for multipole
  | error in Hartree potential    :          -0.00459092 Ha          -0.12492517 eV
  | Sum of eigenvalues per atom                           :        -169.72480734 eV
  | Total energy (T->0) per atom                          :        -283.14211186 eV  <-- do not rely on this value for anything but (periodic) metals
  | Electronic free energy per atom                       :        -283.14211186 eV
  Evaluating new KS density.
  Integration grid: deviation in total charge (<rho> - N_e) =   3.552714E-15

  Self-consistency convergence accuracy:
  | Change of charge density      :  0.1690E+00
  | Change of unmixed KS density  :  0.2193E+00
  | Change of sum of eigenvalues  : -0.3654E+02 eV
  | Change of total energy        :  0.6987E+00 eV


------------------------------------------------------------
  End self-consistency iteration #     3       :  max(cpu_time)    wall_clock(cpu1)
  | Time for this iteration                     :        0.295 s           0.101 s
  | Charge density update                       :        0.004 s           0.005 s
  | Density mixing                              :        0.248 s           0.054 s
  | Hartree multipole update                    :        0.002 s           0.002 s
  | Hartree multipole summation                 :        0.007 s           0.007 s
  | Integration                                 :        0.007 s           0.007 s
  | Fock matrix evaluation                      :        0.025 s           0.024 s
  | Solution of K.-S. eqns.                     :        0.002 s           0.002 s
  | Total energy evaluation                     :        0.000 s           0.000 s

  Partial memory accounting:
  | Current value for overall tracked memory usage:
  |   Minimum:        1.399 MB (on task 57)
  |   Maximum:        2.478 MB (on task 59)
  |   Average:        1.667 MB
  | Peak value for overall tracked memory usage:
  |   Minimum:        1.868 MB (on task 57 after allocating gradient_basis_wave)
  |   Maximum:        2.947 MB (on task 59 after allocating gradient_basis_wave)
  |   Average:        2.166 MB
  | Largest tracked array allocation so far:
  |   Minimum:        0.691 MB (aux_mat on task  1)
  |   Maximum:        1.261 MB (ovlp3fn2%dat on task 11)
  |   Average:        0.780 MB
  Note:  These values currently only include a subset of arrays which are explicitly tracked.
  The "true" memory usage will be greater.
------------------------------------------------------------

------------------------------------------------------------
          Begin self-consistency iteration #    4

  Date     :  20260729, Time     :  183351.967
------------------------------------------------------------
  Pulay mixing of updated and previous charge densities.
  Available memory per node after mixing [GB]:   1030.95
  Renormalizing the density to the exact electron count on the 3D integration grid.
  | Formal number of electrons (from input files) :      18.0000000000
  | Integrated number of electrons on 3D grid     :      18.0000000000
  | Charge integration error                      :       0.0000000000
  | Normalization factor for density and gradient :       1.0000000000

  Evaluating partitioned Hartree potential by multipole expansion.
  | Original multipole sum: apparent total charge =  -0.223839E-14
  | Sum of charges compensated after spline to logarithmic grids =  -0.102467E-05
  | Analytical far-field extrapolation by fixed multipoles:
  | Hartree multipole sum: apparent total charge =  -0.172184E-14
  Summing up the Hartree potential.
  Time summed over all CPUs for potential: real work        0.006 s, elapsed        0.007 s
  | RMS charge density error from multipole expansion :   0.578436E-02

  Integrating Hamiltonian matrix: batch-based integration.
  Time summed over all CPUs for integration: real work        0.405 s, elapsed        0.443 s
  Calculating non-local Hartree-Fock exchange by two-center RI (RI-LVL).
  screening_threshold (crit_val) =  0.000000100000
  Exact exchange progress report - outermost block loop i_block: 1 ..       3
  |        1         2         3  
 Total ovlp3fn data transfer [GB]   5.0777279539033771E-003
  Average sparsity of tmp1/2 0.46428570
  Average sparsity of fock_matrix_row 0.27586997
  Full exact exchange energy:     315.642888119582 eV.
  Times            DM_x_o3fn   CM_prod_1   CM_prod_2   tmp2_prod        Sync   Imbalance       Other  Total calc
  | Times    0:        0.000       0.003       0.001       0.001       0.003       0.003       0.010       0.019
  | Times    1:        0.000       0.002       0.001       0.000       0.003       0.004       0.009       0.019
  | Times    2:        0.000       0.000       0.000       0.000       0.003       0.006       0.010       0.019
  | Times    3:        0.000       0.000       0.000       0.000       0.003       0.006       0.009       0.019
  | Times    4:        0.000       0.000       0.000       0.001       0.003       0.005       0.010       0.019
  | Times    5:        0.000       0.000       0.000       0.000       0.003       0.006       0.010       0.019
  | Times    6:        0.001       0.001       0.000       0.001       0.003       0.005       0.010       0.019
  | Times    7:        0.000       0.003       0.001       0.001       0.003       0.002       0.010       0.019
  | Times    8:        0.000       0.004       0.001       0.000       0.003       0.002       0.009       0.019
  | Times    9:        0.000       0.000       0.000       0.000       0.003       0.006       0.010       0.019
  | Times   10:        0.000       0.000       0.000       0.000       0.003       0.006       0.009       0.019
  | Times   11:        0.001       0.001       0.000       0.001       0.003       0.004       0.010       0.019
  | Times   12:        0.001       0.001       0.000       0.001       0.003       0.005       0.010       0.019
  | Times   13:        0.000       0.003       0.001       0.000       0.000       0.005       0.009       0.019
  | Times   14:        0.000       0.003       0.001       0.000       0.000       0.004       0.010       0.019
  | Times   15:        0.000       0.003       0.001       0.000       0.000       0.005       0.009       0.019
  | Times   16:        0.000       0.002       0.001       0.001       0.003       0.003       0.011       0.019
  | Times   17:        0.000       0.001       0.001       0.000       0.003       0.004       0.010       0.019
  | Times   18:        0.000       0.000       0.000       0.000       0.003       0.005       0.010       0.019
  | Times   19:        0.000       0.000       0.000       0.000       0.003       0.005       0.010       0.019
  | Times   20:        0.000       0.000       0.000       0.001       0.003       0.005       0.011       0.019
  | Times   21:        0.000       0.000       0.000       0.000       0.003       0.005       0.010       0.019
  | Times   22:        0.000       0.001       0.000       0.001       0.003       0.004       0.010       0.019
  | Times   23:        0.000       0.002       0.001       0.001       0.003       0.002       0.011       0.020
  | Times   24:        0.000       0.003       0.001       0.000       0.003       0.002       0.010       0.019
  | Times   25:        0.000       0.000       0.000       0.000       0.003       0.005       0.010       0.019
  | Times   26:        0.000       0.000       0.000       0.000       0.003       0.005       0.010       0.019
  | Times   27:        0.001       0.001       0.000       0.001       0.003       0.004       0.011       0.019
  | Times   28:        0.000       0.001       0.000       0.001       0.003       0.004       0.010       0.019
  | Times   29:        0.000       0.003       0.001       0.000       0.000       0.004       0.010       0.019
  | Times   30:        0.000       0.003       0.001       0.000       0.000       0.003       0.010       0.019
  | Times   31:        0.000       0.003       0.001       0.000       0.000       0.004       0.010       0.019
  | Times   32:        0.000       0.001       0.001       0.000       0.003       0.001       0.013       0.019
  | Times   33:        0.000       0.001       0.000       0.000       0.003       0.002       0.013       0.019
  | Times   34:        0.000       0.000       0.000       0.000       0.003       0.003       0.013       0.019
  | Times   35:        0.000       0.000       0.000       0.000       0.003       0.003       0.013       0.019
  | Times   36:        0.000       0.000       0.000       0.001       0.003       0.002       0.013       0.019
  | Times   37:        0.000       0.000       0.000       0.000       0.003       0.003       0.013       0.019
  | Times   38:        0.000       0.000       0.000       0.000       0.003       0.003       0.013       0.019
  | Times   39:        0.000       0.001       0.001       0.000       0.003       0.001       0.013       0.019
  | Times   40:        0.000       0.001       0.000       0.000       0.003       0.002       0.013       0.019
  | Times   41:        0.000       0.000       0.000       0.000       0.003       0.003       0.013       0.019
  | Times   42:        0.000       0.000       0.000       0.000       0.003       0.003       0.013       0.019
  | Times   43:        0.000       0.000       0.000       0.001       0.003       0.002       0.013       0.019
  | Times   44:        0.000       0.000       0.000       0.000       0.003       0.003       0.013       0.019
  | Times   45:        0.000       0.002       0.001       0.000       0.000       0.003       0.013       0.019
  | Times   46:        0.000       0.002       0.001       0.000       0.000       0.003       0.013       0.019
  | Times   47:        0.000       0.002       0.001       0.000       0.000       0.003       0.013       0.019
  | Times   48:        0.000       0.001       0.000       0.000       0.003       0.001       0.013       0.019
  | Times   49:        0.000       0.001       0.001       0.000       0.003       0.001       0.013       0.019
  | Times   50:        0.000       0.000       0.000       0.000       0.003       0.003       0.013       0.019
  | Times   51:        0.000       0.000       0.000       0.000       0.003       0.003       0.013       0.019
  | Times   52:        0.000       0.000       0.000       0.001       0.003       0.002       0.013       0.019
  | Times   53:        0.000       0.000       0.000       0.000       0.003       0.003       0.013       0.019
  | Times   54:        0.000       0.000       0.000       0.000       0.003       0.003       0.013       0.019
  | Times   55:        0.000       0.001       0.000       0.001       0.003       0.001       0.013       0.019
  | Times   56:        0.000       0.001       0.001       0.000       0.003       0.001       0.013       0.019
  | Times   57:        0.000       0.000       0.000       0.000       0.003       0.003       0.013       0.019
  | Times   58:        0.000       0.000       0.000       0.000       0.003       0.003       0.013       0.019
  | Times   59:        0.000       0.000       0.000       0.001       0.003       0.002       0.013       0.019
  | Times   60:        0.000       0.000       0.000       0.000       0.003       0.003       0.013       0.019
  | Times   61:        0.000       0.002       0.001       0.000       0.000       0.002       0.013       0.019
  | Times   62:        0.000       0.002       0.001       0.000       0.000       0.003       0.013       0.020
  | Times   63:        0.000       0.002       0.001       0.000       0.000       0.002       0.013       0.019
  | Times  sum:        0.023       0.074       0.027       0.024       0.139       0.215       0.736       1.238

  Decomposition of Other based on code block (only on MPI task 0):
  Times             Block #1    Block #2    Block #3    Block #4    Block #5    Block #6    Block #7    Block #8
  | Times    0:        0.000       0.000       0.000       0.000       0.000       0.000       0.000       0.000

  Times             Block #9   Block #10   Block #11   Block #12   Block #13   Block #14   Block #15   Block #16
  | Times    0:        0.000       0.000       0.000       0.001       0.000       0.007       0.000       0.000

  Times            Block Sum    Expected
  | Times    0:        0.009       0.010
  Time for Fock matrix mixing     0.000

  Updating Kohn-Sham eigenvalues and eigenvectors using ELSI and the ELPA eigensolver.
  Starting ELPA eigensolver
  Finished transformation to standard eigenproblem
  | Time :     0.001 s
  Finished solving standard eigenproblem
  | Time :     0.001 s
  Finished back-transformation of eigenvectors
  | Time :     0.000 s

  Obtaining occupation numbers and electronic chemical potential using ELSI.
  | Note that, for insulating systems, the printed 'chemical potential' value is not uniquely defined.
  | It can be anywhere in the energy gap, as long as it correctly separates occupied and unoccupied states.
  | In systems with a gap, the physically relevant chemical potential is the VBM or HOMO.

  | Chemical potential (Fermi level):    -3.97638465 eV
  Highest occupied state (VBM) at     -7.37428562 eV
  | Occupation number:      2.00000000

  Lowest unoccupied state (CBM) at    -0.57848369 eV
  | Occupation number:      0.00000000

  Overall HOMO-LUMO gap:      6.79580193 eV.

  Total energy components:
  | Sum of eigenvalues            :         -49.23338763 Ha       -1339.70864107 eV
  | XC energy correction          :          -7.33717565 Ha        -199.65470765 eV
  | XC potential correction       :          13.05913253 Ha         355.35707642 eV
  | Free-atom electrostatic energy:         -36.43250662 Ha        -991.37894593 eV
  | Hartree energy correction     :          -3.26836154 Ha         -88.93664268 eV
  | Entropy correction            :          -0.00000000 Ha          -0.00000000 eV
  | ---------------------------
  | Total energy                  :         -83.21229892 Ha       -2264.32186091 eV
  | Total energy, T -> 0          :         -83.21229892 Ha       -2264.32186091 eV  <-- do not rely on this value for anything but (periodic) metals
  | Electronic free energy        :         -83.21229892 Ha       -2264.32186091 eV

  Derived energy quantities:
  | Kinetic energy                :          82.93606599 Ha        2256.80518065 eV
  | Electrostatic energy          :        -153.04245276 Ha       -4164.49702674 eV
  | Energy correction for multipole
  | error in Hartree potential    :          -0.00663798 Ha          -0.18062872 eV
  | Sum of eigenvalues per atom                           :        -167.46358013 eV
  | Total energy (T->0) per atom                          :        -283.04023261 eV  <-- do not rely on this value for anything but (periodic) metals
  | Electronic free energy per atom                       :        -283.04023261 eV
  Evaluating new KS density.
  Integration grid: deviation in total charge (<rho> - N_e) =  -3.552714E-15

  Self-consistency convergence accuracy:
  | Change of charge density      :  0.1501E+00
  | Change of unmixed KS density  :  0.9228E-01
  | Change of sum of eigenvalues  :  0.1809E+02 eV
  | Change of total energy        :  0.8150E+00 eV


------------------------------------------------------------
  End self-consistency iteration #     4       :  max(cpu_time)    wall_clock(cpu1)
  | Time for this iteration                     :        0.285 s           0.228 s
  | Charge density update                       :        0.005 s           0.005 s
  | Density mixing                              :        0.246 s           0.185 s
  | Hartree multipole update                    :        0.002 s           0.002 s
  | Hartree multipole summation                 :        0.007 s           0.007 s
  | Integration                                 :        0.007 s           0.007 s
  | Fock matrix evaluation                      :        0.020 s           0.020 s
  | Solution of K.-S. eqns.                     :        0.002 s           0.002 s
  | Total energy evaluation                     :        0.000 s           0.000 s

  Partial memory accounting:
  | Current value for overall tracked memory usage:
  |   Minimum:        1.399 MB (on task 57)
  |   Maximum:        2.478 MB (on task 59)
  |   Average:        1.667 MB
  | Peak value for overall tracked memory usage:
  |   Minimum:        1.868 MB (on task 57 after allocating gradient_basis_wave)
  |   Maximum:        2.947 MB (on task 59 after allocating gradient_basis_wave)
  |   Average:        2.166 MB
  | Largest tracked array allocation so far:
  |   Minimum:        0.691 MB (aux_mat on task  1)
  |   Maximum:        1.261 MB (ovlp3fn2%dat on task 11)
  |   Average:        0.780 MB
  Note:  These values currently only include a subset of arrays which are explicitly tracked.
  The "true" memory usage will be greater.
------------------------------------------------------------

------------------------------------------------------------
          Begin self-consistency iteration #    5

  Date     :  20260729, Time     :  183352.322
------------------------------------------------------------
  Pulay mixing of updated and previous charge densities.
  Available memory per node after mixing [GB]:   1030.95
  Renormalizing the density to the exact electron count on the 3D integration grid.
  | Formal number of electrons (from input files) :      18.0000000000
  | Integrated number of electrons on 3D grid     :      18.0000000000
  | Charge integration error                      :       0.0000000000
  | Normalization factor for density and gradient :       1.0000000000

  Evaluating partitioned Hartree potential by multipole expansion.
  | Original multipole sum: apparent total charge =  -0.154966E-14
  | Sum of charges compensated after spline to logarithmic grids =  -0.949323E-06
  | Analytical far-field extrapolation by fixed multipoles:
  | Hartree multipole sum: apparent total charge =  -0.688737E-15
  Summing up the Hartree potential.
  Time summed over all CPUs for potential: real work        0.006 s, elapsed        0.007 s
  | RMS charge density error from multipole expansion :   0.564481E-02

  Integrating Hamiltonian matrix: batch-based integration.
  Time summed over all CPUs for integration: real work        0.408 s, elapsed        0.443 s
  Calculating non-local Hartree-Fock exchange by two-center RI (RI-LVL).
  screening_threshold (crit_val) =  0.000000100000
  Exact exchange progress report - outermost block loop i_block: 1 ..       3
  |        1         2         3  
 Total ovlp3fn data transfer [GB]   5.0777279539033771E-003
  Average sparsity of tmp1/2 0.48214287
  Average sparsity of fock_matrix_row 0.28703067
  Full exact exchange energy:     313.167941985288 eV.
  Times            DM_x_o3fn   CM_prod_1   CM_prod_2   tmp2_prod        Sync   Imbalance       Other  Total calc
  | Times    0:        0.001       0.002       0.001       0.001       0.002       0.002       0.012       0.020
  | Times    1:        0.000       0.002       0.001       0.000       0.002       0.003       0.012       0.020
  | Times    2:        0.000       0.000       0.000       0.000       0.002       0.004       0.012       0.020
  | Times    3:        0.000       0.000       0.000       0.000       0.002       0.004       0.012       0.020
  | Times    4:        0.001       0.000       0.000       0.001       0.002       0.003       0.012       0.020
  | Times    5:        0.000       0.000       0.000       0.000       0.002       0.004       0.012       0.020
  | Times    6:        0.001       0.001       0.000       0.001       0.002       0.003       0.012       0.020
  | Times    7:        0.000       0.002       0.001       0.001       0.003       0.002       0.012       0.020
  | Times    8:        0.000       0.002       0.001       0.000       0.003       0.002       0.012       0.020
  | Times    9:        0.000       0.000       0.000       0.000       0.003       0.004       0.012       0.020
  | Times   10:        0.000       0.000       0.000       0.000       0.003       0.004       0.012       0.020
  | Times   11:        0.001       0.001       0.000       0.001       0.003       0.003       0.012       0.020
  | Times   12:        0.000       0.001       0.000       0.001       0.003       0.004       0.012       0.020
  | Times   13:        0.000       0.003       0.001       0.000       0.000       0.003       0.012       0.020
  | Times   14:        0.000       0.002       0.001       0.000       0.000       0.003       0.012       0.020
  | Times   15:        0.000       0.003       0.001       0.000       0.000       0.003       0.012       0.020
  | Times   16:        0.000       0.001       0.001       0.000       0.002       0.002       0.014       0.020
  | Times   17:        0.000       0.002       0.001       0.000       0.002       0.001       0.014       0.020
  | Times   18:        0.000       0.000       0.000       0.000       0.002       0.004       0.014       0.020
  | Times   19:        0.000       0.000       0.000       0.000       0.002       0.004       0.014       0.020
  | Times   20:        0.000       0.000       0.000       0.001       0.002       0.003       0.014       0.020
  | Times   21:        0.000       0.000       0.000       0.000       0.002       0.004       0.014       0.020
  | Times   22:        0.000       0.000       0.000       0.000       0.002       0.003       0.014       0.020
  | Times   23:        0.000       0.002       0.001       0.000       0.002       0.001       0.014       0.020
  | Times   24:        0.000       0.001       0.000       0.000       0.002       0.002       0.014       0.020
  | Times   25:        0.000       0.000       0.000       0.000       0.002       0.004       0.014       0.020
  | Times   26:        0.000       0.000       0.000       0.000       0.002       0.004       0.014       0.020
  | Times   27:        0.000       0.000       0.000       0.001       0.002       0.003       0.014       0.020
  | Times   28:        0.000       0.000       0.000       0.000       0.002       0.003       0.014       0.020
  | Times   29:        0.000       0.001       0.001       0.000       0.000       0.003       0.014       0.020
  | Times   30:        0.000       0.002       0.001       0.000       0.000       0.003       0.014       0.020
  | Times   31:        0.000       0.001       0.001       0.000       0.000       0.003       0.014       0.020
  | Times   32:        0.000       0.003       0.001       0.001       0.003       0.001       0.010       0.020
  | Times   33:        0.000       0.002       0.001       0.000       0.003       0.004       0.010       0.020
  | Times   34:        0.000       0.001       0.000       0.000       0.003       0.006       0.010       0.020
  | Times   35:        0.000       0.000       0.000       0.000       0.003       0.006       0.010       0.020
  | Times   36:        0.001       0.000       0.000       0.001       0.003       0.005       0.010       0.020
  | Times   37:        0.000       0.000       0.000       0.000       0.003       0.006       0.010       0.020
  | Times   38:        0.001       0.001       0.000       0.000       0.003       0.005       0.010       0.020
  | Times   39:        0.000       0.002       0.001       0.001       0.003       0.002       0.010       0.020
  | Times   40:        0.000       0.002       0.001       0.000       0.003       0.004       0.010       0.020
  | Times   41:        0.000       0.000       0.000       0.000       0.003       0.006       0.010       0.020
  | Times   42:        0.000       0.000       0.000       0.000       0.003       0.006       0.010       0.020
  | Times   43:        0.001       0.001       0.000       0.001       0.003       0.004       0.010       0.020
  | Times   44:        0.000       0.001       0.000       0.000       0.003       0.005       0.010       0.020
  | Times   45:        0.000       0.003       0.001       0.000       0.000       0.005       0.010       0.020
  | Times   46:        0.000       0.003       0.001       0.000       0.000       0.005       0.010       0.020
  | Times   47:        0.000       0.003       0.001       0.000       0.000       0.005       0.010       0.020
  | Times   48:        0.000       0.001       0.000       0.000       0.002       0.002       0.013       0.020
  | Times   49:        0.000       0.001       0.001       0.000       0.002       0.002       0.013       0.020
  | Times   50:        0.000       0.000       0.000       0.000       0.002       0.003       0.013       0.020
  | Times   51:        0.000       0.000       0.000       0.000       0.002       0.004       0.013       0.020
  | Times   52:        0.000       0.000       0.000       0.001       0.002       0.002       0.014       0.020
  | Times   53:        0.000       0.000       0.000       0.000       0.002       0.004       0.013       0.020
  | Times   54:        0.001       0.001       0.000       0.000       0.002       0.003       0.013       0.020
  | Times   55:        0.000       0.001       0.000       0.000       0.002       0.001       0.014       0.020
  | Times   56:        0.000       0.002       0.001       0.000       0.002       0.001       0.013       0.020
  | Times   57:        0.000       0.000       0.000       0.000       0.002       0.004       0.013       0.020
  | Times   58:        0.000       0.000       0.000       0.000       0.002       0.004       0.013       0.020
  | Times   59:        0.000       0.000       0.000       0.001       0.002       0.002       0.014       0.020
  | Times   60:        0.001       0.001       0.000       0.000       0.002       0.003       0.013       0.020
  | Times   61:        0.000       0.002       0.001       0.000       0.000       0.003       0.013       0.020
  | Times   62:        0.000       0.002       0.001       0.000       0.000       0.002       0.013       0.020
  | Times   63:        0.000       0.002       0.001       0.000       0.000       0.003       0.013       0.020
  | Times  sum:        0.023       0.068       0.027       0.023       0.128       0.215       0.793       1.278

  Decomposition of Other based on code block (only on MPI task 0):
  Times             Block #1    Block #2    Block #3    Block #4    Block #5    Block #6    Block #7    Block #8
  | Times    0:        0.000       0.000       0.000       0.000       0.000       0.000       0.000       0.000

  Times             Block #9   Block #10   Block #11   Block #12   Block #13   Block #14   Block #15   Block #16
  | Times    0:        0.000       0.000       0.000       0.001       0.000       0.008       0.000       0.000

  Times            Block Sum    Expected
  | Times    0:        0.010       0.012
  Time for Fock matrix mixing     0.000

  Updating Kohn-Sham eigenvalues and eigenvectors using ELSI and the ELPA eigensolver.
  Starting ELPA eigensolver
  Finished transformation to standard eigenproblem
  | Time :     0.001 s
  Finished solving standard eigenproblem
  | Time :     0.001 s
  Finished back-transformation of eigenvectors
  | Time :     0.000 s

  Obtaining occupation numbers and electronic chemical potential using ELSI.
  | Note that, for insulating systems, the printed 'chemical potential' value is not uniquely defined.
  | It can be anywhere in the energy gap, as long as it correctly separates occupied and unoccupied states.
  | In systems with a gap, the physically relevant chemical potential is the VBM or HOMO.

  | Chemical potential (Fermi level):    -4.05664050 eV
  Highest occupied state (VBM) at     -7.53344284 eV
  | Occupation number:      2.00000000

  Lowest unoccupied state (CBM) at    -0.57983816 eV
  | Occupation number:      0.00000000

  Overall HOMO-LUMO gap:      6.95360469 eV.

  Total energy components:
  | Sum of eigenvalues            :         -49.27439400 Ha       -1340.82448123 eV
  | XC energy correction          :          -7.32768919 Ha        -199.39656792 eV
  | XC potential correction       :          13.04866121 Ha         355.07213734 eV
  | Free-atom electrostatic energy:         -36.43250662 Ha        -991.37894593 eV
  | Hartree energy correction     :          -3.22609483 Ha         -87.78650680 eV
  | Entropy correction            :          -0.00000000 Ha          -0.00000000 eV
  | ---------------------------
  | Total energy                  :         -83.21202343 Ha       -2264.31436454 eV
  | Total energy, T -> 0          :         -83.21202343 Ha       -2264.31436454 eV  <-- do not rely on this value for anything but (periodic) metals
  | Electronic free energy        :         -83.21202343 Ha       -2264.31436454 eV

  Derived energy quantities:
  | Kinetic energy                :          82.93571431 Ha        2256.79561100 eV
  | Electrostatic energy          :        -153.04873968 Ha       -4164.66810275 eV
  | Energy correction for multipole
  | error in Hartree potential    :          -0.00651589 Ha          -0.17730625 eV
  | Sum of eigenvalues per atom                           :        -167.60306015 eV
  | Total energy (T->0) per atom                          :        -283.03929557 eV  <-- do not rely on this value for anything but (periodic) metals
  | Electronic free energy per atom                       :        -283.03929557 eV
  Evaluating new KS density.
  Integration grid: deviation in total charge (<rho> - N_e) =   7.105427E-15

  Self-consistency convergence accuracy:
  | Change of charge density      :  0.3378E-01
  | Change of unmixed KS density  :  0.4607E-01
  | Change of sum of eigenvalues  : -0.1116E+01 eV
  | Change of total energy        :  0.7496E-02 eV


------------------------------------------------------------
  End self-consistency iteration #     5       :  max(cpu_time)    wall_clock(cpu1)
  | Time for this iteration                     :        0.287 s           0.178 s
  | Charge density update                       :        0.005 s           0.005 s
  | Density mixing                              :        0.249 s           0.134 s
  | Hartree multipole update                    :        0.002 s           0.002 s
  | Hartree multipole summation                 :        0.007 s           0.007 s
  | Integration                                 :        0.007 s           0.007 s
  | Fock matrix evaluation                      :        0.021 s           0.021 s
  | Solution of K.-S. eqns.                     :        0.002 s           0.002 s
  | Total energy evaluation                     :        0.000 s           0.000 s

  Partial memory accounting:
  | Current value for overall tracked memory usage:
  |   Minimum:        1.399 MB (on task 57)
  |   Maximum:        2.478 MB (on task 59)
  |   Average:        1.667 MB
  | Peak value for overall tracked memory usage:
  |   Minimum:        1.868 MB (on task 57 after allocating gradient_basis_wave)
  |   Maximum:        2.947 MB (on task 59 after allocating gradient_basis_wave)
  |   Average:        2.166 MB
  | Largest tracked array allocation so far:
  |   Minimum:        0.691 MB (aux_mat on task  1)
  |   Maximum:        1.261 MB (ovlp3fn2%dat on task 11)
  |   Average:        0.780 MB
  Note:  These values currently only include a subset of arrays which are explicitly tracked.
  The "true" memory usage will be greater.
------------------------------------------------------------

------------------------------------------------------------
          Begin self-consistency iteration #    6

  Date     :  20260729, Time     :  183352.624
------------------------------------------------------------
  Pulay mixing of updated and previous charge densities.
  Available memory per node after mixing [GB]:   1030.94
  Renormalizing the density to the exact electron count on the 3D integration grid.
  | Formal number of electrons (from input files) :      18.0000000000
  | Integrated number of electrons on 3D grid     :      18.0000000000
  | Charge integration error                      :       0.0000000000
  | Normalization factor for density and gradient :       1.0000000000

  Evaluating partitioned Hartree potential by multipole expansion.
  | Original multipole sum: apparent total charge =  -0.784668E-14
  | Sum of charges compensated after spline to logarithmic grids =  -0.104775E-05
  | Analytical far-field extrapolation by fixed multipoles:
  | Hartree multipole sum: apparent total charge =  -0.705955E-14
  Summing up the Hartree potential.
  Time summed over all CPUs for potential: real work        0.006 s, elapsed        0.007 s
  | RMS charge density error from multipole expansion :   0.612182E-02

  Integrating Hamiltonian matrix: batch-based integration.
  Time summed over all CPUs for integration: real work        0.405 s, elapsed        0.451 s
  Calculating non-local Hartree-Fock exchange by two-center RI (RI-LVL).
  screening_threshold (crit_val) =  0.000000100000
  Exact exchange progress report - outermost block loop i_block: 1 ..       3
  |        1         2         3  
 Total ovlp3fn data transfer [GB]   5.0777279539033771E-003
  Average sparsity of tmp1/2 0.46428570
  Average sparsity of fock_matrix_row 0.27586997
  Full exact exchange energy:     313.274061473036 eV.
  Times            DM_x_o3fn   CM_prod_1   CM_prod_2   tmp2_prod        Sync   Imbalance       Other  Total calc
  | Times    0:        0.000       0.002       0.001       0.001       0.003       0.001       0.011       0.019
  | Times    1:        0.000       0.002       0.001       0.000       0.003       0.002       0.011       0.019
  | Times    2:        0.000       0.000       0.000       0.000       0.003       0.004       0.011       0.019
  | Times    3:        0.000       0.000       0.000       0.000       0.003       0.004       0.011       0.019
  | Times    4:        0.000       0.000       0.000       0.001       0.003       0.003       0.011       0.019
  | Times    5:        0.000       0.000       0.000       0.000       0.003       0.004       0.011       0.019
  | Times    6:        0.001       0.001       0.000       0.001       0.003       0.003       0.011       0.019
  | Times    7:        0.000       0.002       0.001       0.000       0.003       0.001       0.011       0.019
  | Times    8:        0.000       0.002       0.001       0.000       0.003       0.002       0.011       0.019
  | Times    9:        0.000       0.000       0.000       0.000       0.003       0.004       0.011       0.019
  | Times   10:        0.000       0.000       0.000       0.000       0.003       0.004       0.011       0.019
  | Times   11:        0.001       0.001       0.000       0.001       0.003       0.002       0.011       0.019
  | Times   12:        0.001       0.001       0.000       0.001       0.003       0.003       0.011       0.019
  | Times   13:        0.000       0.003       0.001       0.000       0.000       0.003       0.011       0.019
  | Times   14:        0.000       0.003       0.001       0.000       0.000       0.003       0.011       0.019
  | Times   15:        0.000       0.003       0.001       0.000       0.000       0.003       0.011       0.019
  | Times   16:        0.000       0.002       0.001       0.001       0.003       0.001       0.011       0.019
  | Times   17:        0.000       0.002       0.001       0.000       0.003       0.002       0.011       0.019
  | Times   18:        0.000       0.000       0.000       0.000       0.003       0.004       0.011       0.019
  | Times   19:        0.000       0.000       0.000       0.000       0.003       0.004       0.011       0.019
  | Times   20:        0.001       0.000       0.000       0.001       0.003       0.003       0.011       0.019
  | Times   21:        0.000       0.000       0.000       0.000       0.003       0.004       0.011       0.019
  | Times   22:        0.001       0.001       0.000       0.001       0.003       0.003       0.011       0.019
  | Times   23:        0.000       0.002       0.001       0.001       0.003       0.001       0.011       0.019
  | Times   24:        0.000       0.002       0.001       0.000       0.003       0.002       0.011       0.019
  | Times   25:        0.000       0.000       0.000       0.000       0.003       0.004       0.011       0.019
  | Times   26:        0.000       0.000       0.000       0.000       0.003       0.004       0.011       0.019
  | Times   27:        0.001       0.001       0.000       0.001       0.003       0.002       0.011       0.019
  | Times   28:        0.001       0.001       0.000       0.001       0.003       0.003       0.011       0.019
  | Times   29:        0.000       0.003       0.001       0.000       0.000       0.003       0.011       0.019
  | Times   30:        0.000       0.003       0.001       0.000       0.000       0.003       0.011       0.019
  | Times   31:        0.000       0.003       0.001       0.000       0.000       0.003       0.011       0.019
  | Times   32:        0.000       0.001       0.001       0.000       0.002       0.001       0.012       0.019
  | Times   33:        0.000       0.002       0.000       0.000       0.002       0.002       0.012       0.019
  | Times   34:        0.000       0.000       0.000       0.000       0.002       0.004       0.012       0.019
  | Times   35:        0.000       0.000       0.000       0.000       0.002       0.004       0.012       0.019
  | Times   36:        0.000       0.000       0.000       0.001       0.002       0.003       0.012       0.019
  | Times   37:        0.000       0.000       0.000       0.000       0.002       0.004       0.012       0.019
  | Times   38:        0.001       0.001       0.000       0.000       0.002       0.003       0.012       0.019
  | Times   39:        0.000       0.001       0.001       0.000       0.002       0.002       0.012       0.019
  | Times   40:        0.000       0.002       0.000       0.000       0.002       0.002       0.012       0.019
  | Times   41:        0.000       0.000       0.000       0.000       0.002       0.004       0.012       0.019
  | Times   42:        0.000       0.000       0.000       0.000       0.002       0.004       0.012       0.019
  | Times   43:        0.000       0.000       0.000       0.001       0.002       0.003       0.012       0.019
  | Times   44:        0.001       0.001       0.000       0.000       0.002       0.003       0.012       0.019
  | Times   45:        0.000       0.002       0.001       0.000       0.000       0.004       0.012       0.019
  | Times   46:        0.000       0.003       0.001       0.000       0.000       0.002       0.012       0.019
  | Times   47:        0.000       0.002       0.001       0.000       0.000       0.004       0.012       0.019
  | Times   48:        0.000       0.002       0.000       0.001       0.002       0.002       0.012       0.019
  | Times   49:        0.000       0.002       0.001       0.000       0.002       0.002       0.012       0.019
  | Times   50:        0.000       0.000       0.000       0.000       0.002       0.004       0.012       0.019
  | Times   51:        0.000       0.000       0.000       0.000       0.002       0.004       0.012       0.019
  | Times   52:        0.000       0.000       0.000       0.001       0.002       0.003       0.012       0.019
  | Times   53:        0.000       0.000       0.000       0.000       0.002       0.004       0.012       0.019
  | Times   54:        0.001       0.001       0.000       0.000       0.002       0.003       0.012       0.019
  | Times   55:        0.000       0.001       0.000       0.000       0.002       0.002       0.012       0.019
  | Times   56:        0.000       0.002       0.001       0.000       0.002       0.001       0.012       0.019
  | Times   57:        0.000       0.000       0.000       0.000       0.002       0.004       0.012       0.019
  | Times   58:        0.000       0.000       0.000       0.000       0.002       0.004       0.012       0.019
  | Times   59:        0.000       0.000       0.000       0.001       0.002       0.003       0.012       0.019
  | Times   60:        0.001       0.001       0.000       0.000       0.002       0.003       0.012       0.019
  | Times   61:        0.000       0.002       0.001       0.000       0.000       0.004       0.012       0.019
  | Times   62:        0.000       0.003       0.001       0.000       0.000       0.003       0.012       0.019
  | Times   63:        0.000       0.002       0.001       0.000       0.000       0.004       0.012       0.019
  | Times  sum:        0.025       0.076       0.026       0.024       0.142       0.194       0.722       1.208

  Decomposition of Other based on code block (only on MPI task 0):
  Times             Block #1    Block #2    Block #3    Block #4    Block #5    Block #6    Block #7    Block #8
  | Times    0:        0.000       0.000       0.000       0.000       0.000       0.000       0.001       0.000

  Times             Block #9   Block #10   Block #11   Block #12   Block #13   Block #14   Block #15   Block #16
  | Times    0:        0.000       0.000       0.000       0.001       0.000       0.008       0.000       0.000

  Times            Block Sum    Expected
  | Times    0:        0.010       0.011
  Time for Fock matrix mixing     0.000

  Updating Kohn-Sham eigenvalues and eigenvectors using ELSI and the ELPA eigensolver.
  Starting ELPA eigensolver
  Finished transformation to standard eigenproblem
  | Time :     0.000 s
  Finished solving standard eigenproblem
  | Time :     0.001 s
  Finished back-transformation of eigenvectors
  | Time :     0.000 s

  Obtaining occupation numbers and electronic chemical potential using ELSI.
  | Note that, for insulating systems, the printed 'chemical potential' value is not uniquely defined.
  | It can be anywhere in the energy gap, as long as it correctly separates occupied and unoccupied states.
  | In systems with a gap, the physically relevant chemical potential is the VBM or HOMO.

  | Chemical potential (Fermi level):    -3.99007090 eV
  Highest occupied state (VBM) at     -7.49795082 eV
  | Occupation number:      2.00000000

  Lowest unoccupied state (CBM) at    -0.48219098 eV
  | Occupation number:      0.00000000

  Overall HOMO-LUMO gap:      7.01575985 eV.

  Total energy components:
  | Sum of eigenvalues            :         -49.16035370 Ha       -1337.72128681 eV
  | XC energy correction          :          -7.35322736 Ha        -200.09149709 eV
  | XC potential correction       :          13.06700430 Ha         355.57127820 eV
  | Free-atom electrostatic energy:         -36.43250662 Ha        -991.37894593 eV
  | Hartree energy correction     :          -3.32854549 Ha         -90.57433126 eV
  | Entropy correction            :          -0.00000000 Ha          -0.00000000 eV
  | ---------------------------
  | Total energy                  :         -83.20762888 Ha       -2264.19478289 eV
  | Total energy, T -> 0          :         -83.20762888 Ha       -2264.19478289 eV  <-- do not rely on this value for anything but (periodic) metals
  | Electronic free energy        :         -83.20762888 Ha       -2264.19478289 eV

  Derived energy quantities:
  | Kinetic energy                :          82.91226172 Ha        2256.15743339 eV
  | Electrostatic energy          :        -153.01787655 Ha       -4163.82827405 eV
  | Energy correction for multipole
  | error in Hartree potential    :          -0.00684265 Ha          -0.18619798 eV
  | Sum of eigenvalues per atom                           :        -167.21516085 eV
  | Total energy (T->0) per atom                          :        -283.02434786 eV  <-- do not rely on this value for anything but (periodic) metals
  | Electronic free energy per atom                       :        -283.02434786 eV
  Evaluating new KS density.
  Integration grid: deviation in total charge (<rho> - N_e) =  -7.105427E-15

  Self-consistency convergence accuracy:
  | Change of charge density      :  0.3054E-01
  | Change of unmixed KS density  :  0.4261E-02
  | Change of sum of eigenvalues  :  0.3103E+01 eV
  | Change of total energy        :  0.1196E+00 eV


------------------------------------------------------------
  End self-consistency iteration #     6       :  max(cpu_time)    wall_clock(cpu1)
  | Time for this iteration                     :        0.281 s           0.174 s
  | Charge density update                       :        0.004 s           0.004 s
  | Density mixing                              :        0.242 s           0.132 s
  | Hartree multipole update                    :        0.002 s           0.002 s
  | Hartree multipole summation                 :        0.007 s           0.007 s
  | Integration                                 :        0.007 s           0.007 s
  | Fock matrix evaluation                      :        0.020 s           0.020 s
  | Solution of K.-S. eqns.                     :        0.002 s           0.002 s
  | Total energy evaluation                     :        0.000 s           0.000 s

  Partial memory accounting:
  | Current value for overall tracked memory usage:
  |   Minimum:        1.399 MB (on task 57)
  |   Maximum:        2.478 MB (on task 59)
  |   Average:        1.667 MB
  | Peak value for overall tracked memory usage:
  |   Minimum:        1.868 MB (on task 57 after allocating gradient_basis_wave)
  |   Maximum:        2.947 MB (on task 59 after allocating gradient_basis_wave)
  |   Average:        2.166 MB
  | Largest tracked array allocation so far:
  |   Minimum:        0.691 MB (aux_mat on task  1)
  |   Maximum:        1.261 MB (ovlp3fn2%dat on task 11)
  |   Average:        0.780 MB
  Note:  These values currently only include a subset of arrays which are explicitly tracked.
  The "true" memory usage will be greater.
------------------------------------------------------------

------------------------------------------------------------
          Begin self-consistency iteration #    7

  Date     :  20260729, Time     :  183353.032
------------------------------------------------------------
  Pulay mixing of updated and previous charge densities.
  Available memory per node after mixing [GB]:   1030.94
  Renormalizing the density to the exact electron count on the 3D integration grid.
  | Formal number of electrons (from input files) :      18.0000000000
  | Integrated number of electrons on 3D grid     :      18.0000000000
  | Charge integration error                      :       0.0000000000
  | Normalization factor for density and gradient :       1.0000000000

  Evaluating partitioned Hartree potential by multipole expansion.
  | Original multipole sum: apparent total charge =  -0.491955E-16
  | Sum of charges compensated after spline to logarithmic grids =  -0.988917E-06
  | Analytical far-field extrapolation by fixed multipoles:
  | Hartree multipole sum: apparent total charge =   0.245977E-16
  Summing up the Hartree potential.
  Time summed over all CPUs for potential: real work        0.006 s, elapsed        0.007 s
  | RMS charge density error from multipole expansion :   0.609979E-02

  Integrating Hamiltonian matrix: batch-based integration.
  Time summed over all CPUs for integration: real work        0.411 s, elapsed        0.464 s
  Calculating non-local Hartree-Fock exchange by two-center RI (RI-LVL).
  screening_threshold (crit_val) =  0.000000100000
  Exact exchange progress report - outermost block loop i_block: 1 ..       3
  |        1         2         3  
 Total ovlp3fn data transfer [GB]   5.0777279539033771E-003
  Average sparsity of tmp1/2 0.46428570
  Average sparsity of fock_matrix_row 0.27586997
  Full exact exchange energy:     312.476245490157 eV.
  Times            DM_x_o3fn   CM_prod_1   CM_prod_2   tmp2_prod        Sync   Imbalance       Other  Total calc
  | Times    0:        0.000       0.003       0.001       0.001       0.003       0.003       0.011       0.021
  | Times    1:        0.000       0.003       0.001       0.000       0.003       0.003       0.011       0.021
  | Times    2:        0.000       0.000       0.000       0.000       0.003       0.006       0.011       0.021
  | Times    3:        0.000       0.000       0.000       0.000       0.003       0.006       0.011       0.021
  | Times    4:        0.000       0.000       0.000       0.001       0.003       0.005       0.011       0.021
  | Times    5:        0.000       0.000       0.000       0.000       0.003       0.006       0.011       0.021
  | Times    6:        0.001       0.001       0.000       0.001       0.003       0.005       0.011       0.021
  | Times    7:        0.000       0.003       0.001       0.001       0.003       0.002       0.011       0.021
  | Times    8:        0.000       0.003       0.001       0.000       0.003       0.003       0.011       0.021
  | Times    9:        0.000       0.000       0.000       0.000       0.003       0.006       0.011       0.021
  | Times   10:        0.000       0.000       0.000       0.000       0.003       0.006       0.011       0.021
  | Times   11:        0.001       0.001       0.000       0.001       0.003       0.005       0.011       0.021
  | Times   12:        0.000       0.001       0.000       0.001       0.003       0.005       0.011       0.021
  | Times   13:        0.000       0.003       0.001       0.000       0.000       0.004       0.011       0.021
  | Times   14:        0.000       0.003       0.001       0.000       0.000       0.004       0.011       0.021
  | Times   15:        0.000       0.003       0.001       0.000       0.000       0.004       0.011       0.021
  | Times   16:        0.000       0.003       0.001       0.001       0.003       0.003       0.011       0.021
  | Times   17:        0.000       0.002       0.001       0.000       0.003       0.004       0.011       0.021
  | Times   18:        0.000       0.000       0.000       0.000       0.003       0.006       0.011       0.021
  | Times   19:        0.000       0.000       0.000       0.000       0.003       0.006       0.011       0.021
  | Times   20:        0.000       0.000       0.000       0.001       0.003       0.005       0.011       0.021
  | Times   21:        0.000       0.000       0.000       0.000       0.003       0.006       0.011       0.021
  | Times   22:        0.001       0.001       0.000       0.001       0.003       0.005       0.011       0.021
  | Times   23:        0.001       0.003       0.001       0.001       0.003       0.002       0.011       0.021
  | Times   24:        0.000       0.003       0.001       0.000       0.003       0.003       0.011       0.021
  | Times   25:        0.000       0.000       0.000       0.000       0.003       0.006       0.011       0.021
  | Times   26:        0.000       0.000       0.000       0.000       0.003       0.006       0.011       0.021
  | Times   27:        0.001       0.001       0.000       0.001       0.003       0.005       0.011       0.021
  | Times   28:        0.000       0.001       0.000       0.001       0.003       0.005       0.011       0.021
  | Times   29:        0.000       0.003       0.001       0.000       0.000       0.004       0.011       0.021
  | Times   30:        0.000       0.003       0.001       0.000       0.000       0.005       0.011       0.021
  | Times   31:        0.000       0.003       0.001       0.000       0.000       0.004       0.011       0.021
  | Times   32:        0.000       0.001       0.001       0.000       0.003       0.001       0.015       0.021
  | Times   33:        0.000       0.001       0.000       0.000       0.003       0.002       0.015       0.021
  | Times   34:        0.000       0.000       0.000       0.000       0.003       0.003       0.014       0.021
  | Times   35:        0.000       0.000       0.000       0.000       0.003       0.003       0.015       0.021
  | Times   36:        0.000       0.000       0.000       0.001       0.003       0.002       0.015       0.021
  | Times   37:        0.000       0.000       0.000       0.000       0.003       0.003       0.014       0.021
  | Times   38:        0.000       0.000       0.000       0.000       0.003       0.003       0.015       0.021
  | Times   39:        0.000       0.001       0.001       0.000       0.003       0.001       0.015       0.021
  | Times   40:        0.000       0.001       0.000       0.000       0.003       0.002       0.014       0.021
  | Times   41:        0.000       0.000       0.000       0.000       0.003       0.003       0.014       0.021
  | Times   42:        0.000       0.000       0.000       0.000       0.003       0.003       0.014       0.021
  | Times   43:        0.000       0.000       0.000       0.001       0.003       0.002       0.015       0.021
  | Times   44:        0.000       0.000       0.000       0.000       0.003       0.003       0.015       0.021
  | Times   45:        0.000       0.002       0.001       0.000       0.000       0.003       0.014       0.021
  | Times   46:        0.000       0.002       0.001       0.000       0.000       0.003       0.014       0.021
  | Times   47:        0.000       0.002       0.001       0.000       0.000       0.003       0.014       0.021
  | Times   48:        0.000       0.001       0.000       0.000       0.002       0.001       0.015       0.021
  | Times   49:        0.000       0.001       0.001       0.000       0.002       0.001       0.015       0.021
  | Times   50:        0.000       0.000       0.000       0.000       0.002       0.003       0.014       0.021
  | Times   51:        0.000       0.000       0.000       0.000       0.002       0.003       0.015       0.021
  | Times   52:        0.000       0.001       0.000       0.001       0.002       0.002       0.015       0.021
  | Times   53:        0.000       0.000       0.000       0.000       0.002       0.003       0.014       0.021
  | Times   54:        0.000       0.000       0.000       0.000       0.002       0.003       0.015       0.021
  | Times   55:        0.000       0.001       0.000       0.000       0.003       0.001       0.015       0.021
  | Times   56:        0.000       0.001       0.001       0.000       0.003       0.001       0.015       0.021
  | Times   57:        0.000       0.000       0.000       0.000       0.003       0.003       0.014       0.021
  | Times   58:        0.000       0.000       0.000       0.000       0.003       0.003       0.014       0.021
  | Times   59:        0.000       0.000       0.000       0.001       0.003       0.002       0.015       0.021
  | Times   60:        0.000       0.000       0.000       0.000       0.003       0.003       0.015       0.021
  | Times   61:        0.000       0.002       0.001       0.000       0.000       0.003       0.015       0.021
  | Times   62:        0.000       0.002       0.001       0.000       0.000       0.003       0.015       0.021
  | Times   63:        0.000       0.002       0.001       0.000       0.000       0.003       0.015       0.021
  | Times  sum:        0.022       0.079       0.027       0.023       0.139       0.226       0.815       1.331

  Decomposition of Other based on code block (only on MPI task 0):
  Times             Block #1    Block #2    Block #3    Block #4    Block #5    Block #6    Block #7    Block #8
  | Times    0:        0.000       0.000       0.000       0.000       0.000       0.000       0.000       0.000

  Times             Block #9   Block #10   Block #11   Block #12   Block #13   Block #14   Block #15   Block #16
  | Times    0:        0.000       0.000       0.000       0.001       0.000       0.008       0.000       0.000

  Times            Block Sum    Expected
  | Times    0:        0.010       0.011
  Time for Fock matrix mixing     0.000

  Updating Kohn-Sham eigenvalues and eigenvectors using ELSI and the ELPA eigensolver.
  Starting ELPA eigensolver
  Finished transformation to standard eigenproblem
  | Time :     0.001 s
  Finished solving standard eigenproblem
  | Time :     0.001 s
  Finished back-transformation of eigenvectors
  | Time :     0.000 s

  Obtaining occupation numbers and electronic chemical potential using ELSI.
  | Note that, for insulating systems, the printed 'chemical potential' value is not uniquely defined.
  | It can be anywhere in the energy gap, as long as it correctly separates occupied and unoccupied states.
  | In systems with a gap, the physically relevant chemical potential is the VBM or HOMO.

  | Chemical potential (Fermi level):    -4.03044195 eV
  Highest occupied state (VBM) at     -7.56670296 eV
  | Occupation number:      2.00000000

  Lowest unoccupied state (CBM) at    -0.49418095 eV
  | Occupation number:      0.00000000

  Overall HOMO-LUMO gap:      7.07252201 eV.

  Total energy components:
  | Sum of eigenvalues            :         -49.20251567 Ha       -1338.86857229 eV
  | XC energy correction          :          -7.34701853 Ha        -199.92254625 eV
  | XC potential correction       :          13.05715470 Ha         355.30325707 eV
  | Free-atom electrostatic energy:         -36.43250662 Ha        -991.37894593 eV
  | Hartree energy correction     :          -3.28015770 Ha         -89.25763232 eV
  | Entropy correction            :          -0.00000000 Ha          -0.00000000 eV
  | ---------------------------
  | Total energy                  :         -83.20504382 Ha       -2264.12443972 eV
  | Total energy, T -> 0          :         -83.20504382 Ha       -2264.12443972 eV  <-- do not rely on this value for anything but (periodic) metals
  | Electronic free energy        :         -83.20504382 Ha       -2264.12443972 eV

  Derived energy quantities:
  | Kinetic energy                :          82.87561029 Ha        2255.16009717 eV
  | Electrostatic energy          :        -152.98781289 Ha       -4163.01020027 eV
  | Energy correction for multipole
  | error in Hartree potential    :          -0.00676491 Ha          -0.18408257 eV
  | Sum of eigenvalues per atom                           :        -167.35857154 eV
  | Total energy (T->0) per atom                          :        -283.01555497 eV  <-- do not rely on this value for anything but (periodic) metals
  | Electronic free energy per atom                       :        -283.01555497 eV
  Evaluating new KS density.
  Integration grid: deviation in total charge (<rho> - N_e) =   3.552714E-15

  Self-consistency convergence accuracy:
  | Change of charge density      :  0.1024E-01
  | Change of unmixed KS density  :  0.1899E-01
  | Change of sum of eigenvalues  : -0.1147E+01 eV
  | Change of total energy        :  0.7034E-01 eV


------------------------------------------------------------
  End self-consistency iteration #     7       :  max(cpu_time)    wall_clock(cpu1)
  | Time for this iteration                     :        0.278 s           0.063 s
  | Charge density update                       :        0.005 s           0.005 s
  | Density mixing                              :        0.237 s           0.018 s
  | Hartree multipole update                    :        0.002 s           0.002 s
  | Hartree multipole summation                 :        0.007 s           0.007 s
  | Integration                                 :        0.008 s           0.008 s
  | Fock matrix evaluation                      :        0.022 s           0.021 s
  | Solution of K.-S. eqns.                     :        0.002 s           0.002 s
  | Total energy evaluation                     :        0.000 s           0.000 s

  Partial memory accounting:
  | Current value for overall tracked memory usage:
  |   Minimum:        1.399 MB (on task 57)
  |   Maximum:        2.478 MB (on task 59)
  |   Average:        1.667 MB
  | Peak value for overall tracked memory usage:
  |   Minimum:        1.868 MB (on task 57 after allocating gradient_basis_wave)
  |   Maximum:        2.947 MB (on task 59 after allocating gradient_basis_wave)
  |   Average:        2.166 MB
  | Largest tracked array allocation so far:
  |   Minimum:        0.691 MB (aux_mat on task  1)
  |   Maximum:        1.261 MB (ovlp3fn2%dat on task 11)
  |   Average:        0.780 MB
  Note:  These values currently only include a subset of arrays which are explicitly tracked.
  The "true" memory usage will be greater.
------------------------------------------------------------

------------------------------------------------------------
          Begin self-consistency iteration #    8

  Date     :  20260729, Time     :  183353.251
------------------------------------------------------------
  Pulay mixing of updated and previous charge densities.
  Available memory per node after mixing [GB]:   1030.94
  Renormalizing the density to the exact electron count on the 3D integration grid.
  | Formal number of electrons (from input files) :      18.0000000000
  | Integrated number of electrons on 3D grid     :      18.0000000000
  | Charge integration error                      :       0.0000000000
  | Normalization factor for density and gradient :       1.0000000000

  Evaluating partitioned Hartree potential by multipole expansion.
  | Original multipole sum: apparent total charge =   0.174644E-14
  | Sum of charges compensated after spline to logarithmic grids =  -0.975969E-06
  | Analytical far-field extrapolation by fixed multipoles:
  | Hartree multipole sum: apparent total charge =   0.182023E-14
  Summing up the Hartree potential.
  Time summed over all CPUs for potential: real work        0.006 s, elapsed        0.007 s
  | RMS charge density error from multipole expansion :   0.612918E-02

  Integrating Hamiltonian matrix: batch-based integration.
  Time summed over all CPUs for integration: real work        0.407 s, elapsed        0.448 s
  Calculating non-local Hartree-Fock exchange by two-center RI (RI-LVL).
  screening_threshold (crit_val) =  0.000000100000
  Exact exchange progress report - outermost block loop i_block: 1 ..       3
  |        1         2         3  
 Total ovlp3fn data transfer [GB]   5.0777279539033771E-003
  Average sparsity of tmp1/2 0.48214287
  Average sparsity of fock_matrix_row 0.28703067
  Full exact exchange energy:     312.588121643963 eV.
  Times            DM_x_o3fn   CM_prod_1   CM_prod_2   tmp2_prod        Sync   Imbalance       Other  Total calc
  | Times    0:        0.000       0.002       0.001       0.001       0.003       0.003       0.012       0.020
  | Times    1:        0.000       0.002       0.001       0.000       0.003       0.003       0.011       0.020
  | Times    2:        0.000       0.000       0.000       0.000       0.003       0.005       0.011       0.020
  | Times    3:        0.000       0.000       0.000       0.000       0.003       0.005       0.011       0.020
  | Times    4:        0.000       0.000       0.000       0.001       0.003       0.004       0.011       0.020
  | Times    5:        0.000       0.000       0.000       0.000       0.003       0.005       0.011       0.020
  | Times    6:        0.000       0.001       0.000       0.001       0.003       0.004       0.011       0.020
  | Times    7:        0.000       0.002       0.001       0.001       0.003       0.002       0.011       0.020
  | Times    8:        0.000       0.003       0.001       0.000       0.003       0.002       0.011       0.020
  | Times    9:        0.000       0.000       0.000       0.000       0.003       0.005       0.011       0.020
  | Times   10:        0.000       0.000       0.000       0.000       0.003       0.005       0.011       0.020
  | Times   11:        0.001       0.001       0.000       0.001       0.003       0.004       0.011       0.020
  | Times   12:        0.000       0.001       0.000       0.001       0.003       0.004       0.011       0.020
  | Times   13:        0.000       0.003       0.001       0.000       0.000       0.004       0.011       0.020
  | Times   14:        0.000       0.002       0.001       0.000       0.000       0.005       0.011       0.020
  | Times   15:        0.000       0.003       0.001       0.000       0.000       0.004       0.011       0.020
  | Times   16:        0.000       0.001       0.000       0.000       0.002       0.002       0.013       0.020
  | Times   17:        0.000       0.001       0.000       0.000       0.002       0.002       0.013       0.020
  | Times   18:        0.000       0.000       0.000       0.000       0.002       0.004       0.013       0.020
  | Times   19:        0.000       0.000       0.000       0.000       0.002       0.004       0.013       0.020
  | Times   20:        0.000       0.000       0.000       0.001       0.002       0.003       0.013       0.020
  | Times   21:        0.000       0.000       0.000       0.000       0.002       0.004       0.013       0.020
  | Times   22:        0.000       0.000       0.000       0.000       0.002       0.003       0.013       0.020
  | Times   23:        0.000       0.001       0.001       0.000       0.002       0.002       0.014       0.020
  | Times   24:        0.000       0.002       0.001       0.000       0.002       0.001       0.013       0.020
  | Times   25:        0.000       0.000       0.000       0.000       0.002       0.004       0.013       0.020
  | Times   26:        0.000       0.000       0.000       0.000       0.002       0.004       0.013       0.020
  | Times   27:        0.000       0.000       0.000       0.001       0.002       0.003       0.013       0.020
  | Times   28:        0.000       0.000       0.000       0.000       0.002       0.003       0.013       0.020
  | Times   29:        0.000       0.002       0.001       0.000       0.000       0.003       0.013       0.020
  | Times   30:        0.000       0.002       0.001       0.000       0.000       0.004       0.013       0.020
  | Times   31:        0.000       0.002       0.001       0.000       0.000       0.003       0.013       0.020
  | Times   32:        0.000       0.002       0.001       0.001       0.003       0.001       0.011       0.020
  | Times   33:        0.001       0.002       0.001       0.000       0.003       0.003       0.011       0.020
  | Times   34:        0.000       0.000       0.000       0.000       0.003       0.004       0.011       0.020
  | Times   35:        0.000       0.000       0.000       0.000       0.003       0.005       0.011       0.020
  | Times   36:        0.000       0.000       0.000       0.001       0.003       0.003       0.011       0.020
  | Times   37:        0.000       0.000       0.000       0.000       0.003       0.005       0.011       0.020
  | Times   38:        0.001       0.001       0.000       0.000       0.003       0.004       0.011       0.020
  | Times   39:        0.000       0.002       0.001       0.001       0.003       0.001       0.011       0.020
  | Times   40:        0.000       0.002       0.001       0.000       0.003       0.002       0.011       0.020
  | Times   41:        0.000       0.000       0.000       0.000       0.003       0.005       0.011       0.020
  | Times   42:        0.000       0.000       0.000       0.000       0.003       0.005       0.011       0.020
  | Times   43:        0.001       0.001       0.000       0.001       0.003       0.003       0.011       0.020
  | Times   44:        0.000       0.001       0.000       0.000       0.003       0.004       0.011       0.020
  | Times   45:        0.000       0.003       0.001       0.000       0.000       0.004       0.011       0.020
  | Times   46:        0.000       0.003       0.001       0.000       0.000       0.004       0.011       0.020
  | Times   47:        0.000       0.003       0.001       0.000       0.000       0.004       0.011       0.020
  | Times   48:        0.000       0.001       0.000       0.000       0.002       0.001       0.014       0.020
  | Times   49:        0.000       0.001       0.001       0.000       0.002       0.001       0.014       0.020
  | Times   50:        0.000       0.000       0.000       0.000       0.002       0.003       0.014       0.020
  | Times   51:        0.000       0.000       0.000       0.000       0.002       0.003       0.014       0.020
  | Times   52:        0.000       0.000       0.000       0.001       0.002       0.002       0.014       0.020
  | Times   53:        0.000       0.000       0.000       0.000       0.002       0.003       0.014       0.020
  | Times   54:        0.000       0.000       0.000       0.000       0.002       0.003       0.014       0.020
  | Times   55:        0.000       0.001       0.000       0.000       0.002       0.001       0.014       0.020
  | Times   56:        0.000       0.001       0.001       0.000       0.002       0.001       0.014       0.020
  | Times   57:        0.000       0.000       0.000       0.000       0.002       0.003       0.014       0.020
  | Times   58:        0.000       0.000       0.000       0.000       0.002       0.003       0.014       0.020
  | Times   59:        0.000       0.000       0.000       0.001       0.002       0.002       0.014       0.020
  | Times   60:        0.000       0.000       0.000       0.000       0.002       0.003       0.014       0.020
  | Times   61:        0.000       0.002       0.001       0.000       0.000       0.002       0.014       0.020
  | Times   62:        0.000       0.002       0.001       0.000       0.000       0.002       0.014       0.020
  | Times   63:        0.000       0.002       0.001       0.000       0.000       0.002       0.014       0.020
  | Times  sum:        0.021       0.069       0.026       0.023       0.133       0.205       0.787       1.264

  Decomposition of Other based on code block (only on MPI task 0):
  Times             Block #1    Block #2    Block #3    Block #4    Block #5    Block #6    Block #7    Block #8
  | Times    0:        0.000       0.000       0.000       0.000       0.000       0.000       0.000       0.000

  Times             Block #9   Block #10   Block #11   Block #12   Block #13   Block #14   Block #15   Block #16
  | Times    0:        0.000       0.000       0.000       0.002       0.000       0.008       0.000       0.000

  Times            Block Sum    Expected
  | Times    0:        0.011       0.012
  Time for Fock matrix mixing     0.000

  Updating Kohn-Sham eigenvalues and eigenvectors using ELSI and the ELPA eigensolver.
  Starting ELPA eigensolver
  Finished transformation to standard eigenproblem
  | Time :     0.000 s
  Finished solving standard eigenproblem
  | Time :     0.001 s
  Finished back-transformation of eigenvectors
  | Time :     0.000 s

  Obtaining occupation numbers and electronic chemical potential using ELSI.
  | Note that, for insulating systems, the printed 'chemical potential' value is not uniquely defined.
  | It can be anywhere in the energy gap, as long as it correctly separates occupied and unoccupied states.
  | In systems with a gap, the physically relevant chemical potential is the VBM or HOMO.

  | Chemical potential (Fermi level):    -4.01468802 eV
  Highest occupied state (VBM) at     -7.53606398 eV
  | Occupation number:      2.00000000

  Lowest unoccupied state (CBM) at    -0.49331206 eV
  | Occupation number:      0.00000000

  Overall HOMO-LUMO gap:      7.04275192 eV.

  Total energy components:
  | Sum of eigenvalues            :         -49.19198848 Ha       -1338.58211273 eV
  | XC energy correction          :          -7.34866663 Ha        -199.96739329 eV
  | XC potential correction       :          13.05815636 Ha         355.33051371 eV
  | Free-atom electrostatic energy:         -36.43250662 Ha        -991.37894593 eV
  | Hartree energy correction     :          -3.28948599 Ha         -89.51146805 eV
  | Entropy correction            :          -0.00000000 Ha          -0.00000000 eV
  | ---------------------------
  | Total energy                  :         -83.20449135 Ha       -2264.10940630 eV
  | Total energy, T -> 0          :         -83.20449135 Ha       -2264.10940630 eV  <-- do not rely on this value for anything but (periodic) metals
  | Electronic free energy        :         -83.20449135 Ha       -2264.10940630 eV

  Derived energy quantities:
  | Kinetic energy                :          82.87222497 Ha        2255.06797814 eV
  | Electrostatic energy          :        -152.98400291 Ha       -4162.90652566 eV
  | Energy correction for multipole
  | error in Hartree potential    :          -0.00678642 Ha          -0.18466795 eV
  | Sum of eigenvalues per atom                           :        -167.32276409 eV
  | Total energy (T->0) per atom                          :        -283.01367579 eV  <-- do not rely on this value for anything but (periodic) metals
  | Electronic free energy per atom                       :        -283.01367579 eV
  Evaluating new KS density.
  Integration grid: deviation in total charge (<rho> - N_e) =  -3.552714E-15

  Self-consistency convergence accuracy:
  | Change of charge density      :  0.2713E-02
  | Change of unmixed KS density  :  0.2836E-02
  | Change of sum of eigenvalues  :  0.2865E+00 eV
  | Change of total energy        :  0.1503E-01 eV


------------------------------------------------------------
  End self-consistency iteration #     8       :  max(cpu_time)    wall_clock(cpu1)
  | Time for this iteration                     :        0.276 s           0.138 s
  | Charge density update                       :        0.004 s           0.004 s
  | Density mixing                              :        0.239 s           0.095 s
  | Hartree multipole update                    :        0.002 s           0.002 s
  | Hartree multipole summation                 :        0.007 s           0.007 s
  | Integration                                 :        0.007 s           0.007 s
  | Fock matrix evaluation                      :        0.021 s           0.021 s
  | Solution of K.-S. eqns.                     :        0.002 s           0.002 s
  | Total energy evaluation                     :        0.000 s           0.000 s

  Partial memory accounting:
  | Current value for overall tracked memory usage:
  |   Minimum:        1.399 MB (on task 57)
  |   Maximum:        2.478 MB (on task 59)
  |   Average:        1.667 MB
  | Peak value for overall tracked memory usage:
  |   Minimum:        1.868 MB (on task 57 after allocating gradient_basis_wave)
  |   Maximum:        2.947 MB (on task 59 after allocating gradient_basis_wave)
  |   Average:        2.166 MB
  | Largest tracked array allocation so far:
  |   Minimum:        0.691 MB (aux_mat on task  1)
  |   Maximum:        1.261 MB (ovlp3fn2%dat on task 11)
  |   Average:        0.780 MB
  Note:  These values currently only include a subset of arrays which are explicitly tracked.
  The "true" memory usage will be greater.
------------------------------------------------------------

------------------------------------------------------------
          Begin self-consistency iteration #    9

  Date     :  20260729, Time     :  183353.514
------------------------------------------------------------
  Pulay mixing of updated and previous charge densities.
  Available memory per node after mixing [GB]:   1030.93
  Renormalizing the density to the exact electron count on the 3D integration grid.
  | Formal number of electrons (from input files) :      18.0000000000
  | Integrated number of electrons on 3D grid     :      18.0000000000
  | Charge integration error                      :       0.0000000000
  | Normalization factor for density and gradient :       1.0000000000

  Evaluating partitioned Hartree potential by multipole expansion.
  | Original multipole sum: apparent total charge =   0.420621E-14
  | Sum of charges compensated after spline to logarithmic grids =  -0.971204E-06
  | Analytical far-field extrapolation by fixed multipoles:
  | Hartree multipole sum: apparent total charge =   0.381265E-14
  Summing up the Hartree potential.
  Time summed over all CPUs for potential: real work        0.006 s, elapsed        0.007 s
  | RMS charge density error from multipole expansion :   0.613369E-02

  Integrating Hamiltonian matrix: batch-based integration.
  Time summed over all CPUs for integration: real work        0.409 s, elapsed        0.445 s
  Calculating non-local Hartree-Fock exchange by two-center RI (RI-LVL).
  screening_threshold (crit_val) =  0.000000100000
  Exact exchange progress report - outermost block loop i_block: 1 ..       3
  |        1         2         3  
 Total ovlp3fn data transfer [GB]   5.0777279539033771E-003
  Average sparsity of tmp1/2 0.48214287
  Average sparsity of fock_matrix_row 0.28703067
  Full exact exchange energy:     312.550912093036 eV.
  Times            DM_x_o3fn   CM_prod_1   CM_prod_2   tmp2_prod        Sync   Imbalance       Other  Total calc
  | Times    0:        0.000       0.002       0.001       0.001       0.003       0.002       0.011       0.020
  | Times    1:        0.000       0.002       0.001       0.000       0.003       0.002       0.011       0.020
  | Times    2:        0.000       0.000       0.000       0.000       0.003       0.005       0.011       0.020
  | Times    3:        0.000       0.000       0.000       0.000       0.003       0.005       0.011       0.020
  | Times    4:        0.000       0.000       0.000       0.001       0.003       0.004       0.011       0.020
  | Times    5:        0.000       0.000       0.000       0.000       0.003       0.005       0.011       0.020
  | Times    6:        0.000       0.001       0.000       0.001       0.003       0.004       0.011       0.020
  | Times    7:        0.000       0.003       0.001       0.001       0.003       0.001       0.011       0.020
  | Times    8:        0.000       0.002       0.001       0.000       0.003       0.003       0.011       0.020
  | Times    9:        0.000       0.000       0.000       0.000       0.003       0.005       0.011       0.020
  | Times   10:        0.000       0.000       0.000       0.000       0.003       0.004       0.011       0.020
  | Times   11:        0.000       0.001       0.000       0.001       0.003       0.003       0.011       0.020
  | Times   12:        0.000       0.001       0.000       0.001       0.003       0.004       0.011       0.020
  | Times   13:        0.000       0.002       0.001       0.000       0.000       0.004       0.011       0.020
  | Times   14:        0.000       0.002       0.001       0.000       0.000       0.004       0.011       0.020
  | Times   15:        0.000       0.002       0.001       0.000       0.000       0.004       0.011       0.020
  | Times   16:        0.000       0.001       0.000       0.000       0.002       0.002       0.013       0.020
  | Times   17:        0.000       0.001       0.000       0.000       0.002       0.003       0.013       0.020
  | Times   18:        0.000       0.000       0.000       0.000       0.002       0.004       0.013       0.020
  | Times   19:        0.000       0.000       0.000       0.000       0.002       0.004       0.013       0.020
  | Times   20:        0.000       0.000       0.000       0.000       0.002       0.003       0.013       0.020
  | Times   21:        0.000       0.000       0.000       0.000       0.002       0.004       0.013       0.020
  | Times   22:        0.000       0.000       0.000       0.000       0.002       0.003       0.013       0.020
  | Times   23:        0.000       0.002       0.001       0.000       0.002       0.000       0.014       0.020
  | Times   24:        0.000       0.001       0.000       0.000       0.002       0.002       0.013       0.020
  | Times   25:        0.000       0.000       0.000       0.000       0.002       0.004       0.013       0.020
  | Times   26:        0.000       0.000       0.000       0.000       0.002       0.004       0.013       0.020
  | Times   27:        0.000       0.000       0.000       0.001       0.002       0.003       0.013       0.020
  | Times   28:        0.000       0.000       0.000       0.000       0.002       0.003       0.013       0.020
  | Times   29:        0.000       0.001       0.001       0.000       0.000       0.003       0.013       0.020
  | Times   30:        0.000       0.002       0.001       0.000       0.000       0.003       0.013       0.020
  | Times   31:        0.000       0.002       0.001       0.000       0.000       0.003       0.013       0.020
  | Times   32:        0.000       0.002       0.001       0.001       0.003       0.001       0.011       0.020
  | Times   33:        0.000       0.002       0.001       0.000       0.003       0.002       0.011       0.020
  | Times   34:        0.000       0.000       0.000       0.000       0.003       0.004       0.011       0.020
  | Times   35:        0.000       0.000       0.000       0.000       0.003       0.005       0.011       0.020
  | Times   36:        0.000       0.000       0.000       0.001       0.003       0.004       0.011       0.020
  | Times   37:        0.000       0.000       0.000       0.000       0.003       0.005       0.011       0.020
  | Times   38:        0.001       0.001       0.000       0.000       0.003       0.004       0.011       0.020
  | Times   39:        0.000       0.002       0.001       0.001       0.003       0.001       0.011       0.020
  | Times   40:        0.000       0.002       0.001       0.000       0.003       0.003       0.011       0.020
  | Times   41:        0.000       0.000       0.000       0.000       0.003       0.005       0.011       0.020
  | Times   42:        0.000       0.000       0.000       0.000       0.003       0.005       0.011       0.020
  | Times   43:        0.001       0.001       0.000       0.001       0.003       0.003       0.011       0.020
  | Times   44:        0.001       0.001       0.000       0.000       0.003       0.004       0.011       0.020
  | Times   45:        0.000       0.003       0.001       0.000       0.000       0.004       0.011       0.020
  | Times   46:        0.000       0.003       0.001       0.000       0.000       0.003       0.011       0.020
  | Times   47:        0.000       0.003       0.001       0.000       0.000       0.004       0.011       0.020
  | Times   48:        0.000       0.002       0.000       0.000       0.002       0.001       0.013       0.020
  | Times   49:        0.000       0.002       0.001       0.000       0.002       0.001       0.013       0.020
  | Times   50:        0.000       0.000       0.000       0.000       0.002       0.003       0.013       0.020
  | Times   51:        0.000       0.000       0.000       0.000       0.002       0.004       0.013       0.020
  | Times   52:        0.000       0.000       0.000       0.001       0.002       0.002       0.013       0.020
  | Times   53:        0.000       0.000       0.000       0.000       0.002       0.004       0.013       0.020
  | Times   54:        0.000       0.000       0.000       0.000       0.002       0.003       0.013       0.020
  | Times   55:        0.000       0.001       0.000       0.000       0.002       0.001       0.014       0.020
  | Times   56:        0.000       0.002       0.001       0.000       0.002       0.001       0.013       0.020
  | Times   57:        0.000       0.000       0.000       0.000       0.002       0.003       0.013       0.020
  | Times   58:        0.000       0.000       0.000       0.000       0.002       0.003       0.013       0.020
  | Times   59:        0.000       0.000       0.000       0.001       0.002       0.002       0.014       0.020
  | Times   60:        0.000       0.000       0.000       0.000       0.002       0.003       0.013       0.020
  | Times   61:        0.000       0.002       0.001       0.000       0.000       0.003       0.013       0.020
  | Times   62:        0.000       0.002       0.001       0.000       0.000       0.002       0.013       0.020
  | Times   63:        0.000       0.002       0.001       0.000       0.000       0.003       0.013       0.020
  | Times  sum:        0.021       0.066       0.026       0.022       0.133       0.201       0.784       1.252

  Decomposition of Other based on code block (only on MPI task 0):
  Times             Block #1    Block #2    Block #3    Block #4    Block #5    Block #6    Block #7    Block #8
  | Times    0:        0.000       0.000       0.000       0.000       0.000       0.000       0.000       0.000

  Times             Block #9   Block #10   Block #11   Block #12   Block #13   Block #14   Block #15   Block #16
  | Times    0:        0.000       0.000       0.000       0.001       0.000       0.009       0.000       0.000

  Times            Block Sum    Expected
  | Times    0:        0.010       0.011
  Time for Fock matrix mixing     0.000

  Updating Kohn-Sham eigenvalues and eigenvectors using ELSI and the ELPA eigensolver.
  Starting ELPA eigensolver
  Finished transformation to standard eigenproblem
  | Time :     0.000 s
  Finished solving standard eigenproblem
  | Time :     0.001 s
  Finished back-transformation of eigenvectors
  | Time :     0.000 s

  Obtaining occupation numbers and electronic chemical potential using ELSI.
  | Note that, for insulating systems, the printed 'chemical potential' value is not uniquely defined.
  | It can be anywhere in the energy gap, as long as it correctly separates occupied and unoccupied states.
  | In systems with a gap, the physically relevant chemical potential is the VBM or HOMO.

  | Chemical potential (Fermi level):    -4.02160023 eV
  Highest occupied state (VBM) at     -7.54554291 eV
  | Occupation number:      2.00000000

  Lowest unoccupied state (CBM) at    -0.49765755 eV
  | Occupation number:      0.00000000

  Overall HOMO-LUMO gap:      7.04788536 eV.

  Total energy components:
  | Sum of eigenvalues            :         -49.19955612 Ha       -1338.78803894 eV
  | XC energy correction          :          -7.34830163 Ha        -199.95746095 eV
  | XC potential correction       :          13.05711883 Ha         355.30228100 eV
  | Free-atom electrostatic energy:         -36.43250662 Ha        -991.37894593 eV
  | Hartree energy correction     :          -3.28077280 Ha         -89.27437023 eV
  | Entropy correction            :          -0.00000000 Ha          -0.00000000 eV
  | ---------------------------
  | Total energy                  :         -83.20401834 Ha       -2264.09653505 eV
  | Total energy, T -> 0          :         -83.20401834 Ha       -2264.09653505 eV  <-- do not rely on this value for anything but (periodic) metals
  | Electronic free energy        :         -83.20401834 Ha       -2264.09653505 eV

  Derived energy quantities:
  | Kinetic energy                :          82.86863478 Ha        2254.97028394 eV
  | Electrostatic energy          :        -152.98119431 Ha       -4162.83009962 eV
  | Energy correction for multipole
  | error in Hartree potential    :          -0.00678501 Ha          -0.18462947 eV
  | Sum of eigenvalues per atom                           :        -167.34850487 eV
  | Total energy (T->0) per atom                          :        -283.01206688 eV  <-- do not rely on this value for anything but (periodic) metals
  | Electronic free energy per atom                       :        -283.01206688 eV
  Evaluating new KS density.
  Integration grid: deviation in total charge (<rho> - N_e) =   3.552714E-15

  Self-consistency convergence accuracy:
  | Change of charge density      :  0.8540E-03
  | Change of unmixed KS density  :  0.1295E-02
  | Change of sum of eigenvalues  : -0.2059E+00 eV
  | Change of total energy        :  0.1287E-01 eV


------------------------------------------------------------
  End self-consistency iteration #     9       :  max(cpu_time)    wall_clock(cpu1)
  | Time for this iteration                     :        0.272 s           0.169 s
  | Charge density update                       :        0.004 s           0.005 s
  | Density mixing                              :        0.232 s           0.126 s
  | Hartree multipole update                    :        0.002 s           0.002 s
  | Hartree multipole summation                 :        0.007 s           0.007 s
  | Integration                                 :        0.007 s           0.007 s
  | Fock matrix evaluation                      :        0.020 s           0.021 s
  | Solution of K.-S. eqns.                     :        0.002 s           0.001 s
  | Total energy evaluation                     :        0.000 s           0.000 s

  Partial memory accounting:
  | Current value for overall tracked memory usage:
  |   Minimum:        1.399 MB (on task 57)
  |   Maximum:        2.478 MB (on task 59)
  |   Average:        1.667 MB
  | Peak value for overall tracked memory usage:
  |   Minimum:        1.868 MB (on task 57 after allocating gradient_basis_wave)
  |   Maximum:        2.947 MB (on task 59 after allocating gradient_basis_wave)
  |   Average:        2.166 MB
  | Largest tracked array allocation so far:
  |   Minimum:        0.691 MB (aux_mat on task  1)
  |   Maximum:        1.261 MB (ovlp3fn2%dat on task 11)
  |   Average:        0.780 MB
  Note:  These values currently only include a subset of arrays which are explicitly tracked.
  The "true" memory usage will be greater.
------------------------------------------------------------

------------------------------------------------------------
          Begin self-consistency iteration #   10

  Date     :  20260729, Time     :  183353.812
------------------------------------------------------------
  Pulay mixing of updated and previous charge densities.
  Available memory per node after mixing [GB]:   1030.93
  Renormalizing the density to the exact electron count on the 3D integration grid.
  | Formal number of electrons (from input files) :      18.0000000000
  | Integrated number of electrons on 3D grid     :      18.0000000000
  | Charge integration error                      :      -0.0000000000
  | Normalization factor for density and gradient :       1.0000000000

  Evaluating partitioned Hartree potential by multipole expansion.
  | Original multipole sum: apparent total charge =  -0.147586E-15
  | Sum of charges compensated after spline to logarithmic grids =  -0.970041E-06
  | Analytical far-field extrapolation by fixed multipoles:
  | Hartree multipole sum: apparent total charge =  -0.295173E-15
  Summing up the Hartree potential.
  Time summed over all CPUs for potential: real work        0.006 s, elapsed        0.007 s
  | RMS charge density error from multipole expansion :   0.613463E-02

  Integrating Hamiltonian matrix: batch-based integration.
  Time summed over all CPUs for integration: real work        0.408 s, elapsed        0.455 s
  Calculating non-local Hartree-Fock exchange by two-center RI (RI-LVL).
  screening_threshold (crit_val) =  0.000000100000
  Exact exchange progress report - outermost block loop i_block: 1 ..       3
  |        1         2         3  
 Total ovlp3fn data transfer [GB]   5.0777279539033771E-003
  Average sparsity of tmp1/2 0.46428570
  Average sparsity of fock_matrix_row 0.27586997
  Full exact exchange energy:     312.553896532734 eV.
  Times            DM_x_o3fn   CM_prod_1   CM_prod_2   tmp2_prod        Sync   Imbalance       Other  Total calc
  | Times    0:        0.000       0.002       0.001       0.001       0.003       0.002       0.010       0.019
  | Times    1:        0.000       0.003       0.001       0.000       0.003       0.002       0.010       0.019
  | Times    2:        0.000       0.000       0.000       0.000       0.003       0.005       0.010       0.019
  | Times    3:        0.000       0.000       0.000       0.000       0.003       0.005       0.010       0.019
  | Times    4:        0.000       0.000       0.000       0.001       0.003       0.004       0.010       0.019
  | Times    5:        0.000       0.000       0.000       0.000       0.003       0.005       0.010       0.019
  | Times    6:        0.001       0.001       0.000       0.001       0.003       0.004       0.010       0.019
  | Times    7:        0.000       0.003       0.001       0.001       0.003       0.001       0.010       0.019
  | Times    8:        0.000       0.002       0.001       0.000       0.003       0.003       0.010       0.019
  | Times    9:        0.000       0.000       0.000       0.000       0.003       0.005       0.010       0.019
  | Times   10:        0.000       0.000       0.000       0.000       0.003       0.005       0.010       0.019
  | Times   11:        0.001       0.001       0.000       0.001       0.003       0.004       0.010       0.019
  | Times   12:        0.001       0.001       0.000       0.001       0.003       0.004       0.010       0.019
  | Times   13:        0.000       0.002       0.001       0.000       0.000       0.005       0.010       0.019
  | Times   14:        0.000       0.003       0.001       0.000       0.000       0.004       0.010       0.020
  | Times   15:        0.000       0.002       0.001       0.000       0.000       0.005       0.010       0.019
  | Times   16:        0.000       0.002       0.001       0.001       0.003       0.002       0.010       0.019
  | Times   17:        0.000       0.003       0.001       0.000       0.003       0.002       0.010       0.019
  | Times   18:        0.000       0.000       0.000       0.000       0.003       0.005       0.010       0.019
  | Times   19:        0.000       0.000       0.000       0.000       0.003       0.006       0.010       0.019
  | Times   20:        0.000       0.000       0.000       0.001       0.003       0.005       0.010       0.019
  | Times   21:        0.000       0.000       0.000       0.000       0.003       0.006       0.010       0.019
  | Times   22:        0.001       0.001       0.000       0.001       0.003       0.004       0.010       0.019
  | Times   23:        0.000       0.003       0.001       0.001       0.003       0.001       0.010       0.019
  | Times   24:        0.000       0.003       0.001       0.000       0.003       0.003       0.010       0.019
  | Times   25:        0.000       0.000       0.000       0.000       0.003       0.005       0.010       0.019
  | Times   26:        0.000       0.000       0.000       0.000       0.003       0.005       0.010       0.019
  | Times   27:        0.000       0.001       0.000       0.001       0.003       0.004       0.010       0.019
  | Times   28:        0.001       0.001       0.000       0.001       0.003       0.004       0.010       0.019
  | Times   29:        0.000       0.002       0.001       0.000       0.000       0.005       0.010       0.019
  | Times   30:        0.000       0.003       0.001       0.000       0.000       0.004       0.010       0.019
  | Times   31:        0.000       0.002       0.001       0.000       0.000       0.005       0.010       0.019
  | Times   32:        0.000       0.002       0.001       0.000       0.003       0.001       0.013       0.019
  | Times   33:        0.000       0.001       0.000       0.000       0.003       0.002       0.013       0.019
  | Times   34:        0.000       0.000       0.000       0.000       0.003       0.003       0.013       0.019
  | Times   35:        0.000       0.000       0.000       0.000       0.003       0.003       0.013       0.019
  | Times   36:        0.000       0.000       0.000       0.001       0.003       0.002       0.013       0.019
  | Times   37:        0.000       0.000       0.000       0.000       0.003       0.004       0.012       0.019
  | Times   38:        0.000       0.001       0.000       0.000       0.003       0.003       0.013       0.019
  | Times   39:        0.000       0.001       0.001       0.000       0.002       0.001       0.013       0.019
  | Times   40:        0.000       0.001       0.000       0.000       0.002       0.002       0.013       0.019
  | Times   41:        0.000       0.000       0.000       0.000       0.002       0.004       0.012       0.019
  | Times   42:        0.000       0.000       0.000       0.000       0.002       0.004       0.012       0.019
  | Times   43:        0.000       0.000       0.000       0.001       0.002       0.002       0.013       0.019
  | Times   44:        0.000       0.000       0.000       0.000       0.002       0.003       0.013       0.019
  | Times   45:        0.000       0.002       0.001       0.000       0.000       0.003       0.013       0.020
  | Times   46:        0.000       0.002       0.001       0.000       0.000       0.003       0.013       0.019
  | Times   47:        0.000       0.002       0.001       0.000       0.000       0.003       0.013       0.019
  | Times   48:        0.000       0.001       0.000       0.000       0.002       0.001       0.013       0.019
  | Times   49:        0.000       0.001       0.001       0.000       0.002       0.001       0.013       0.019
  | Times   50:        0.000       0.000       0.000       0.000       0.002       0.003       0.013       0.019
  | Times   51:        0.000       0.000       0.000       0.000       0.002       0.003       0.013       0.019
  | Times   52:        0.000       0.000       0.000       0.001       0.002       0.002       0.013       0.019
  | Times   53:        0.000       0.000       0.000       0.000       0.002       0.003       0.013       0.019
  | Times   54:        0.000       0.000       0.000       0.000       0.002       0.003       0.013       0.019
  | Times   55:        0.000       0.001       0.000       0.000       0.002       0.001       0.013       0.019
  | Times   56:        0.000       0.001       0.001       0.000       0.002       0.001       0.013       0.019
  | Times   57:        0.000       0.000       0.000       0.000       0.002       0.003       0.013       0.019
  | Times   58:        0.000       0.000       0.000       0.000       0.002       0.003       0.013       0.019
  | Times   59:        0.000       0.000       0.000       0.001       0.002       0.002       0.013       0.019
  | Times   60:        0.000       0.000       0.000       0.000       0.002       0.003       0.013       0.019
  | Times   61:        0.000       0.002       0.001       0.000       0.000       0.002       0.013       0.019
  | Times   62:        0.000       0.002       0.001       0.000       0.000       0.002       0.014       0.020
  | Times   63:        0.000       0.002       0.001       0.000       0.000       0.002       0.013       0.019
  | Times  sum:        0.021       0.073       0.027       0.023       0.142       0.212       0.738       1.237

  Decomposition of Other based on code block (only on MPI task 0):
  Times             Block #1    Block #2    Block #3    Block #4    Block #5    Block #6    Block #7    Block #8
  | Times    0:        0.000       0.000       0.000       0.000       0.000       0.000       0.000       0.000

  Times             Block #9   Block #10   Block #11   Block #12   Block #13   Block #14   Block #15   Block #16
  | Times    0:        0.000       0.000       0.000       0.001       0.000       0.007       0.000       0.000

  Times            Block Sum    Expected
  | Times    0:        0.009       0.010
  Time for Fock matrix mixing     0.000

  Updating Kohn-Sham eigenvalues and eigenvectors using ELSI and the ELPA eigensolver.
  Starting ELPA eigensolver
  Finished transformation to standard eigenproblem
  | Time :     0.000 s
  Finished solving standard eigenproblem
  | Time :     0.001 s
  Finished back-transformation of eigenvectors
  | Time :     0.000 s

  Obtaining occupation numbers and electronic chemical potential using ELSI.
  | Note that, for insulating systems, the printed 'chemical potential' value is not uniquely defined.
  | It can be anywhere in the energy gap, as long as it correctly separates occupied and unoccupied states.
  | In systems with a gap, the physically relevant chemical potential is the VBM or HOMO.

  | Chemical potential (Fermi level):    -4.01961931 eV
  Highest occupied state (VBM) at     -7.54214063 eV
  | Occupation number:      2.00000000

  Lowest unoccupied state (CBM) at    -0.49709799 eV
  | Occupation number:      0.00000000

  Overall HOMO-LUMO gap:      7.04504264 eV.

  Total energy components:
  | Sum of eigenvalues            :         -49.19716402 Ha       -1338.72294655 eV
  | XC energy correction          :          -7.34854996 Ha        -199.96421844 eV
  | XC potential correction       :          13.05742676 Ha         355.31066010 eV
  | Free-atom electrostatic energy:         -36.43250662 Ha        -991.37894593 eV
  | Hartree energy correction     :          -3.28327705 Ha         -89.34251428 eV
  | Entropy correction            :          -0.00000000 Ha          -0.00000000 eV
  | ---------------------------
  | Total energy                  :         -83.20407090 Ha       -2264.09796510 eV
  | Total energy, T -> 0          :         -83.20407090 Ha       -2264.09796510 eV  <-- do not rely on this value for anything but (periodic) metals
  | Electronic free energy        :         -83.20407090 Ha       -2264.09796510 eV

  Derived energy quantities:
  | Kinetic energy                :          82.86984680 Ha        2255.00326473 eV
  | Electrostatic energy          :        -152.98223363 Ha       -4162.85838094 eV
  | Energy correction for multipole
  | error in Hartree potential    :          -0.00678807 Ha          -0.18471267 eV
  | Sum of eigenvalues per atom                           :        -167.34036832 eV
  | Total energy (T->0) per atom                          :        -283.01224564 eV  <-- do not rely on this value for anything but (periodic) metals
  | Electronic free energy per atom                       :        -283.01224564 eV
  Evaluating new KS density.
  Integration grid: deviation in total charge (<rho> - N_e) =   1.421085E-14

  Self-consistency convergence accuracy:
  | Change of charge density      :  0.2597E-03
  | Change of unmixed KS density  :  0.3158E-03
  | Change of sum of eigenvalues  :  0.6509E-01 eV
  | Change of total energy        : -0.1430E-02 eV


------------------------------------------------------------
  End self-consistency iteration #    10       :  max(cpu_time)    wall_clock(cpu1)
  | Time for this iteration                     :        0.289 s           0.172 s
  | Charge density update                       :        0.005 s           0.004 s
  | Density mixing                              :        0.247 s           0.129 s
  | Hartree multipole update                    :        0.002 s           0.002 s
  | Hartree multipole summation                 :        0.007 s           0.007 s
  | Integration                                 :        0.007 s           0.008 s
  | Fock matrix evaluation                      :        0.020 s           0.020 s
  | Solution of K.-S. eqns.                     :        0.002 s           0.002 s
  | Total energy evaluation                     :        0.000 s           0.000 s

  Partial memory accounting:
  | Current value for overall tracked memory usage:
  |   Minimum:        1.399 MB (on task 57)
  |   Maximum:        2.478 MB (on task 59)
  |   Average:        1.667 MB
  | Peak value for overall tracked memory usage:
  |   Minimum:        1.868 MB (on task 57 after allocating gradient_basis_wave)
  |   Maximum:        2.947 MB (on task 59 after allocating gradient_basis_wave)
  |   Average:        2.166 MB
  | Largest tracked array allocation so far:
  |   Minimum:        0.691 MB (aux_mat on task  1)
  |   Maximum:        1.261 MB (ovlp3fn2%dat on task 11)
  |   Average:        0.780 MB
  Note:  These values currently only include a subset of arrays which are explicitly tracked.
  The "true" memory usage will be greater.
------------------------------------------------------------

------------------------------------------------------------
          Begin self-consistency iteration #   11

  Date     :  20260729, Time     :  183354.065
------------------------------------------------------------
  Pulay mixing of updated and previous charge densities.
  Available memory per node after mixing [GB]:   1030.93
  Renormalizing the density to the exact electron count on the 3D integration grid.
  | Formal number of electrons (from input files) :      18.0000000000
  | Integrated number of electrons on 3D grid     :      18.0000000000
  | Charge integration error                      :       0.0000000000
  | Normalization factor for density and gradient :       1.0000000000

  Evaluating partitioned Hartree potential by multipole expansion.
  | Original multipole sum: apparent total charge =   0.157426E-14
  | Sum of charges compensated after spline to logarithmic grids =  -0.969288E-06
  | Analytical far-field extrapolation by fixed multipoles:
  | Hartree multipole sum: apparent total charge =   0.125448E-14
  Summing up the Hartree potential.
  Time summed over all CPUs for potential: real work        0.006 s, elapsed        0.007 s
  | RMS charge density error from multipole expansion :   0.613557E-02

  Integrating Hamiltonian matrix: batch-based integration.
  Time summed over all CPUs for integration: real work        0.408 s, elapsed        0.441 s
  Calculating non-local Hartree-Fock exchange by two-center RI (RI-LVL).
  screening_threshold (crit_val) =  0.000000100000
  Exact exchange progress report - outermost block loop i_block: 1 ..       3
  |        1         2         3  
 Total ovlp3fn data transfer [GB]   5.0777279539033771E-003
  Average sparsity of tmp1/2 0.46428570
  Average sparsity of fock_matrix_row 0.27586997
  Full exact exchange energy:     312.546906862110 eV.
  Times            DM_x_o3fn   CM_prod_1   CM_prod_2   tmp2_prod        Sync   Imbalance       Other  Total calc
  | Times    0:        0.000       0.002       0.001       0.001       0.003       0.002       0.011       0.019
  | Times    1:        0.000       0.003       0.001       0.000       0.003       0.002       0.010       0.019
  | Times    2:        0.000       0.000       0.000       0.000       0.003       0.004       0.011       0.019
  | Times    3:        0.000       0.000       0.000       0.000       0.003       0.005       0.010       0.019
  | Times    4:        0.001       0.000       0.000       0.001       0.003       0.004       0.011       0.019
  | Times    5:        0.000       0.000       0.000       0.000       0.003       0.005       0.011       0.019
  | Times    6:        0.001       0.001       0.000       0.001       0.003       0.004       0.011       0.019
  | Times    7:        0.000       0.002       0.001       0.000       0.003       0.002       0.011       0.019
  | Times    8:        0.000       0.002       0.001       0.000       0.003       0.002       0.010       0.019
  | Times    9:        0.000       0.000       0.000       0.000       0.003       0.005       0.011       0.019
  | Times   10:        0.000       0.000       0.000       0.000       0.003       0.004       0.011       0.019
  | Times   11:        0.001       0.001       0.000       0.001       0.003       0.003       0.011       0.019
  | Times   12:        0.001       0.001       0.000       0.001       0.003       0.003       0.011       0.019
  | Times   13:        0.000       0.002       0.001       0.000       0.000       0.004       0.011       0.019
  | Times   14:        0.000       0.003       0.001       0.000       0.000       0.003       0.011       0.019
  | Times   15:        0.000       0.002       0.001       0.000       0.000       0.004       0.011       0.019
  | Times   16:        0.000       0.002       0.001       0.001       0.003       0.002       0.011       0.019
  | Times   17:        0.000       0.003       0.001       0.000       0.003       0.002       0.011       0.019
  | Times   18:        0.000       0.000       0.000       0.000       0.003       0.005       0.011       0.019
  | Times   19:        0.000       0.000       0.000       0.000       0.003       0.005       0.011       0.019
  | Times   20:        0.000       0.001       0.000       0.001       0.003       0.004       0.011       0.019
  | Times   21:        0.000       0.000       0.000       0.000       0.003       0.005       0.011       0.019
  | Times   22:        0.001       0.001       0.000       0.001       0.003       0.004       0.011       0.019
  | Times   23:        0.000       0.002       0.001       0.000       0.003       0.002       0.011       0.019
  | Times   24:        0.000       0.002       0.001       0.000       0.003       0.002       0.011       0.019
  | Times   25:        0.000       0.000       0.000       0.000       0.003       0.005       0.011       0.019
  | Times   26:        0.001       0.000       0.000       0.000       0.003       0.004       0.011       0.019
  | Times   27:        0.001       0.001       0.000       0.001       0.003       0.003       0.011       0.019
  | Times   28:        0.001       0.001       0.000       0.001       0.003       0.003       0.011       0.019
  | Times   29:        0.000       0.002       0.001       0.000       0.000       0.004       0.011       0.019
  | Times   30:        0.000       0.003       0.001       0.000       0.000       0.003       0.011       0.019
  | Times   31:        0.000       0.002       0.001       0.000       0.000       0.004       0.011       0.019
  | Times   32:        0.000       0.001       0.001       0.000       0.002       0.001       0.013       0.019
  | Times   33:        0.000       0.001       0.000       0.000       0.002       0.002       0.013       0.019
  | Times   34:        0.000       0.000       0.000       0.000       0.002       0.003       0.013       0.019
  | Times   35:        0.000       0.000       0.000       0.000       0.002       0.003       0.013       0.019
  | Times   36:        0.000       0.000       0.000       0.001       0.002       0.002       0.013       0.019
  | Times   37:        0.000       0.000       0.000       0.000       0.002       0.003       0.013       0.019
  | Times   38:        0.000       0.000       0.000       0.000       0.002       0.003       0.013       0.019
  | Times   39:        0.000       0.001       0.001       0.000       0.002       0.001       0.013       0.019
  | Times   40:        0.000       0.001       0.000       0.000       0.002       0.002       0.013       0.019
  | Times   41:        0.000       0.000       0.000       0.000       0.002       0.003       0.013       0.019
  | Times   42:        0.000       0.000       0.000       0.000       0.002       0.003       0.013       0.019
  | Times   43:        0.000       0.000       0.000       0.001       0.002       0.002       0.013       0.019
  | Times   44:        0.000       0.000       0.000       0.000       0.002       0.003       0.013       0.019
  | Times   45:        0.000       0.002       0.001       0.000       0.000       0.003       0.013       0.019
  | Times   46:        0.000       0.002       0.001       0.000       0.000       0.002       0.013       0.019
  | Times   47:        0.000       0.002       0.001       0.000       0.000       0.003       0.013       0.019
  | Times   48:        0.000       0.001       0.000       0.001       0.002       0.001       0.013       0.019
  | Times   49:        0.000       0.001       0.001       0.000       0.002       0.001       0.013       0.019
  | Times   50:        0.000       0.000       0.000       0.000       0.002       0.003       0.013       0.019
  | Times   51:        0.000       0.000       0.000       0.000       0.002       0.003       0.013       0.019
  | Times   52:        0.000       0.000       0.000       0.001       0.002       0.002       0.013       0.019
  | Times   53:        0.000       0.000       0.000       0.000       0.002       0.003       0.013       0.019
  | Times   54:        0.000       0.000       0.000       0.000       0.002       0.003       0.013       0.019
  | Times   55:        0.000       0.001       0.000       0.000       0.002       0.001       0.013       0.019
  | Times   56:        0.000       0.001       0.001       0.000       0.002       0.001       0.013       0.019
  | Times   57:        0.000       0.000       0.000       0.000       0.002       0.003       0.013       0.019
  | Times   58:        0.000       0.000       0.000       0.000       0.002       0.003       0.013       0.019
  | Times   59:        0.000       0.000       0.000       0.001       0.002       0.002       0.013       0.019
  | Times   60:        0.000       0.000       0.000       0.000       0.002       0.003       0.013       0.019
  | Times   61:        0.000       0.002       0.001       0.000       0.000       0.002       0.013       0.019
  | Times   62:        0.000       0.002       0.001       0.000       0.000       0.002       0.013       0.019
  | Times   63:        0.000       0.002       0.001       0.000       0.000       0.002       0.013       0.019
  | Times  sum:        0.022       0.070       0.026       0.022       0.139       0.189       0.757       1.226

  Decomposition of Other based on code block (only on MPI task 0):
  Times             Block #1    Block #2    Block #3    Block #4    Block #5    Block #6    Block #7    Block #8
  | Times    0:        0.000       0.000       0.000       0.000       0.000       0.000       0.000       0.000

  Times             Block #9   Block #10   Block #11   Block #12   Block #13   Block #14   Block #15   Block #16
  | Times    0:        0.000       0.000       0.000       0.002       0.000       0.007       0.000       0.000

  Times            Block Sum    Expected
  | Times    0:        0.010       0.011
  Time for Fock matrix mixing     0.000

  Updating Kohn-Sham eigenvalues and eigenvectors using ELSI and the ELPA eigensolver.
  Starting ELPA eigensolver
  Finished transformation to standard eigenproblem
  | Time :     0.000 s
  Finished solving standard eigenproblem
  | Time :     0.001 s
  Finished back-transformation of eigenvectors
  | Time :     0.000 s

  Obtaining occupation numbers and electronic chemical potential using ELSI.
  | Note that, for insulating systems, the printed 'chemical potential' value is not uniquely defined.
  | It can be anywhere in the energy gap, as long as it correctly separates occupied and unoccupied states.
  | In systems with a gap, the physically relevant chemical potential is the VBM or HOMO.

  | Chemical potential (Fermi level):    -4.02010552 eV
  Highest occupied state (VBM) at     -7.54246534 eV
  | Occupation number:      2.00000000

  Lowest unoccupied state (CBM) at    -0.49774569 eV
  | Occupation number:      0.00000000

  Overall HOMO-LUMO gap:      7.04471965 eV.

  Total energy components:
  | Sum of eigenvalues            :         -49.19804330 Ha       -1338.74687294 eV
  | XC energy correction          :          -7.34853899 Ha        -199.96391989 eV
  | XC potential correction       :          13.05728427 Ha         355.30678282 eV
  | Free-atom electrostatic energy:         -36.43250662 Ha        -991.37894593 eV
  | Hartree energy correction     :          -3.28217068 Ha         -89.31240844 eV
  | Entropy correction            :          -0.00000000 Ha          -0.00000000 eV
  | ---------------------------
  | Total energy                  :         -83.20397532 Ha       -2264.09536438 eV
  | Total energy, T -> 0          :         -83.20397532 Ha       -2264.09536438 eV  <-- do not rely on this value for anything but (periodic) metals
  | Electronic free energy        :         -83.20397532 Ha       -2264.09536438 eV

  Derived energy quantities:
  | Kinetic energy                :          82.86924469 Ha        2254.98688047 eV
  | Electrostatic energy          :        -152.98174689 Ha       -4162.84513613 eV
  | Energy correction for multipole
  | error in Hartree potential    :          -0.00678863 Ha          -0.18472815 eV
  | Sum of eigenvalues per atom                           :        -167.34335912 eV
  | Total energy (T->0) per atom                          :        -283.01192055 eV  <-- do not rely on this value for anything but (periodic) metals
  | Electronic free energy per atom                       :        -283.01192055 eV
  Evaluating new KS density.
  Integration grid: deviation in total charge (<rho> - N_e) =   1.421085E-14

  Self-consistency convergence accuracy:
  | Change of charge density      :  0.8646E-04
  | Change of unmixed KS density  :  0.1397E-03
  | Change of sum of eigenvalues  : -0.2393E-01 eV
  | Change of total energy        :  0.2601E-02 eV


------------------------------------------------------------
  End self-consistency iteration #    11       :  max(cpu_time)    wall_clock(cpu1)
  | Time for this iteration                     :        0.282 s           0.220 s
  | Charge density update                       :        0.005 s           0.004 s
  | Density mixing                              :        0.244 s           0.178 s
  | Hartree multipole update                    :        0.002 s           0.002 s
  | Hartree multipole summation                 :        0.007 s           0.007 s
  | Integration                                 :        0.007 s           0.007 s
  | Fock matrix evaluation                      :        0.020 s           0.020 s
  | Solution of K.-S. eqns.                     :        0.002 s           0.002 s
  | Total energy evaluation                     :        0.000 s           0.000 s

  Partial memory accounting:
  | Current value for overall tracked memory usage:
  |   Minimum:        1.399 MB (on task 57)
  |   Maximum:        2.478 MB (on task 59)
  |   Average:        1.667 MB
  | Peak value for overall tracked memory usage:
  |   Minimum:        1.868 MB (on task 57 after allocating gradient_basis_wave)
  |   Maximum:        2.947 MB (on task 59 after allocating gradient_basis_wave)
  |   Average:        2.166 MB
  | Largest tracked array allocation so far:
  |   Minimum:        0.691 MB (aux_mat on task  1)
  |   Maximum:        1.261 MB (ovlp3fn2%dat on task 11)
  |   Average:        0.780 MB
  Note:  These values currently only include a subset of arrays which are explicitly tracked.
  The "true" memory usage will be greater.
------------------------------------------------------------

------------------------------------------------------------
          Begin self-consistency iteration #   12

  Date     :  20260729, Time     :  183354.371
------------------------------------------------------------
  Pulay mixing of updated and previous charge densities.
  Available memory per node after mixing [GB]:   1030.92
  Renormalizing the density to the exact electron count on the 3D integration grid.
  | Formal number of electrons (from input files) :      18.0000000000
  | Integrated number of electrons on 3D grid     :      18.0000000000
  | Charge integration error                      :      -0.0000000000
  | Normalization factor for density and gradient :       1.0000000000

  Evaluating partitioned Hartree potential by multipole expansion.
  | Original multipole sum: apparent total charge =  -0.860921E-14
  | Sum of charges compensated after spline to logarithmic grids =  -0.969254E-06
  | Analytical far-field extrapolation by fixed multipoles:
  | Hartree multipole sum: apparent total charge =  -0.878139E-14
  Summing up the Hartree potential.
  Time summed over all CPUs for potential: real work        0.006 s, elapsed        0.007 s
  | RMS charge density error from multipole expansion :   0.613553E-02

  Integrating Hamiltonian matrix: batch-based integration.
  Time summed over all CPUs for integration: real work        0.406 s, elapsed        0.440 s
  Calculating non-local Hartree-Fock exchange by two-center RI (RI-LVL).
  screening_threshold (crit_val) =  0.000000100000
  Exact exchange progress report - outermost block loop i_block: 1 ..       3
  |        1         2         3  
 Total ovlp3fn data transfer [GB]   5.0777279539033771E-003
  Average sparsity of tmp1/2 0.46428570
  Average sparsity of fock_matrix_row 0.27586997
  Full exact exchange energy:     312.546430138178 eV.
  Times            DM_x_o3fn   CM_prod_1   CM_prod_2   tmp2_prod        Sync   Imbalance       Other  Total calc
  | Times    0:        0.000       0.003       0.001       0.001       0.003       0.001       0.010       0.018
  | Times    1:        0.000       0.002       0.001       0.000       0.003       0.002       0.010       0.018
  | Times    2:        0.000       0.000       0.000       0.000       0.003       0.005       0.010       0.018
  | Times    3:        0.000       0.000       0.000       0.000       0.003       0.005       0.010       0.018
  | Times    4:        0.000       0.000       0.000       0.001       0.003       0.004       0.010       0.018
  | Times    5:        0.000       0.000       0.000       0.000       0.003       0.005       0.010       0.018
  | Times    6:        0.001       0.001       0.000       0.001       0.003       0.004       0.010       0.018
  | Times    7:        0.000       0.002       0.001       0.001       0.003       0.002       0.010       0.018
  | Times    8:        0.000       0.003       0.001       0.000       0.003       0.002       0.010       0.018
  | Times    9:        0.000       0.000       0.000       0.000       0.003       0.005       0.010       0.018
  | Times   10:        0.000       0.000       0.000       0.000       0.003       0.004       0.010       0.018
  | Times   11:        0.001       0.000       0.000       0.001       0.003       0.003       0.010       0.018
  | Times   12:        0.000       0.001       0.000       0.001       0.003       0.004       0.010       0.018
  | Times   13:        0.000       0.002       0.001       0.000       0.000       0.004       0.010       0.018
  | Times   14:        0.000       0.002       0.001       0.000       0.000       0.004       0.010       0.018
  | Times   15:        0.000       0.002       0.001       0.000       0.000       0.004       0.010       0.018
  | Times   16:        0.000       0.002       0.001       0.001       0.003       0.002       0.010       0.018
  | Times   17:        0.000       0.001       0.001       0.000       0.003       0.003       0.010       0.018
  | Times   18:        0.000       0.000       0.000       0.000       0.003       0.005       0.010       0.018
  | Times   19:        0.000       0.000       0.000       0.000       0.003       0.005       0.010       0.018
  | Times   20:        0.000       0.000       0.000       0.001       0.003       0.004       0.010       0.018
  | Times   21:        0.000       0.000       0.000       0.000       0.003       0.005       0.010       0.018
  | Times   22:        0.000       0.001       0.000       0.001       0.003       0.004       0.010       0.018
  | Times   23:        0.000       0.003       0.001       0.001       0.003       0.001       0.010       0.018
  | Times   24:        0.000       0.003       0.001       0.000       0.003       0.002       0.010       0.018
  | Times   25:        0.000       0.000       0.000       0.000       0.003       0.005       0.010       0.018
  | Times   26:        0.000       0.000       0.000       0.000       0.003       0.004       0.010       0.018
  | Times   27:        0.000       0.001       0.000       0.001       0.003       0.003       0.010       0.018
  | Times   28:        0.000       0.001       0.000       0.001       0.003       0.004       0.010       0.018
  | Times   29:        0.000       0.002       0.001       0.000       0.000       0.004       0.010       0.018
  | Times   30:        0.000       0.002       0.001       0.000       0.000       0.004       0.010       0.018
  | Times   31:        0.000       0.002       0.001       0.000       0.000       0.004       0.010       0.018
  | Times   32:        0.000       0.001       0.001       0.001       0.002       0.001       0.012       0.018
  | Times   33:        0.000       0.001       0.000       0.000       0.002       0.002       0.012       0.018
  | Times   34:        0.000       0.000       0.000       0.000       0.002       0.003       0.012       0.018
  | Times   35:        0.000       0.000       0.000       0.000       0.002       0.003       0.012       0.018
  | Times   36:        0.000       0.000       0.000       0.001       0.002       0.002       0.012       0.018
  | Times   37:        0.000       0.000       0.000       0.000       0.002       0.003       0.012       0.018
  | Times   38:        0.000       0.000       0.000       0.000       0.002       0.003       0.012       0.018
  | Times   39:        0.000       0.001       0.001       0.000       0.002       0.001       0.012       0.018
  | Times   40:        0.000       0.001       0.000       0.000       0.002       0.002       0.012       0.018
  | Times   41:        0.000       0.000       0.000       0.000       0.002       0.003       0.012       0.018
  | Times   42:        0.000       0.000       0.000       0.000       0.002       0.003       0.012       0.018
  | Times   43:        0.000       0.000       0.000       0.001       0.002       0.002       0.012       0.018
  | Times   44:        0.000       0.000       0.000       0.000       0.002       0.003       0.012       0.018
  | Times   45:        0.000       0.002       0.001       0.000       0.000       0.003       0.012       0.018
  | Times   46:        0.000       0.002       0.001       0.000       0.000       0.003       0.012       0.018
  | Times   47:        0.000       0.002       0.001       0.000       0.000       0.003       0.012       0.018
  | Times   48:        0.000       0.001       0.000       0.001       0.002       0.001       0.012       0.018
  | Times   49:        0.000       0.001       0.001       0.000       0.002       0.001       0.012       0.018
  | Times   50:        0.000       0.000       0.000       0.000       0.002       0.003       0.012       0.018
  | Times   51:        0.000       0.000       0.000       0.000       0.002       0.003       0.012       0.018
  | Times   52:        0.000       0.000       0.000       0.001       0.002       0.002       0.012       0.018
  | Times   53:        0.000       0.000       0.000       0.000       0.002       0.003       0.012       0.018
  | Times   54:        0.000       0.000       0.000       0.000       0.002       0.003       0.012       0.018
  | Times   55:        0.000       0.001       0.000       0.000       0.003       0.001       0.012       0.018
  | Times   56:        0.000       0.001       0.001       0.000       0.003       0.001       0.012       0.018
  | Times   57:        0.000       0.000       0.000       0.000       0.003       0.003       0.012       0.018
  | Times   58:        0.000       0.000       0.000       0.000       0.003       0.003       0.012       0.018
  | Times   59:        0.000       0.000       0.000       0.001       0.003       0.002       0.012       0.018
  | Times   60:        0.000       0.000       0.000       0.000       0.003       0.002       0.012       0.018
  | Times   61:        0.000       0.002       0.001       0.000       0.000       0.003       0.012       0.018
  | Times   62:        0.000       0.002       0.001       0.000       0.000       0.002       0.012       0.018
  | Times   63:        0.000       0.002       0.001       0.000       0.000       0.002       0.012       0.018
  | Times  sum:        0.019       0.067       0.027       0.022       0.140       0.190       0.694       1.160

  Decomposition of Other based on code block (only on MPI task 0):
  Times             Block #1    Block #2    Block #3    Block #4    Block #5    Block #6    Block #7    Block #8
  | Times    0:        0.000       0.000       0.000       0.000       0.000       0.000       0.000       0.000

  Times             Block #9   Block #10   Block #11   Block #12   Block #13   Block #14   Block #15   Block #16
  | Times    0:        0.000       0.000       0.000       0.001       0.000       0.007       0.000       0.000

  Times            Block Sum    Expected
  | Times    0:        0.009       0.010
  Time for Fock matrix mixing     0.000

  Updating Kohn-Sham eigenvalues and eigenvectors using ELSI and the ELPA eigensolver.
  Starting ELPA eigensolver
  Finished transformation to standard eigenproblem
  | Time :     0.000 s
  Finished solving standard eigenproblem
  | Time :     0.002 s
  Finished back-transformation of eigenvectors
  | Time :     0.000 s

  Obtaining occupation numbers and electronic chemical potential using ELSI.
  | Note that, for insulating systems, the printed 'chemical potential' value is not uniquely defined.
  | It can be anywhere in the energy gap, as long as it correctly separates occupied and unoccupied states.
  | In systems with a gap, the physically relevant chemical potential is the VBM or HOMO.

  | Chemical potential (Fermi level):    -4.02011977 eV
  Highest occupied state (VBM) at     -7.54250193 eV
  | Occupation number:      2.00000000

  Lowest unoccupied state (CBM) at    -0.49773761 eV
  | Occupation number:      0.00000000

  Overall HOMO-LUMO gap:      7.04476432 eV.

  Total energy components:
  | Sum of eigenvalues            :         -49.19803013 Ha       -1338.74651442 eV
  | XC energy correction          :          -7.34854031 Ha        -199.96395585 eV
  | XC potential correction       :          13.05728400 Ha         355.30677553 eV
  | Free-atom electrostatic energy:         -36.43250662 Ha        -991.37894593 eV
  | Hartree energy correction     :          -3.28218184 Ha         -89.31271205 eV
  | Entropy correction            :          -0.00000000 Ha          -0.00000000 eV
  | ---------------------------
  | Total energy                  :         -83.20397489 Ha       -2264.09535273 eV
  | Total energy, T -> 0          :         -83.20397489 Ha       -2264.09535273 eV  <-- do not rely on this value for anything but (periodic) metals
  | Electronic free energy        :         -83.20397489 Ha       -2264.09535273 eV

  Derived energy quantities:
  | Kinetic energy                :          82.86926685 Ha        2254.98748359 eV
  | Electrostatic energy          :        -152.98177046 Ha       -4162.84577742 eV
  | Energy correction for multipole
  | error in Hartree potential    :          -0.00678867 Ha          -0.18472900 eV
  | Sum of eigenvalues per atom                           :        -167.34331430 eV
  | Total energy (T->0) per atom                          :        -283.01191909 eV  <-- do not rely on this value for anything but (periodic) metals
  | Electronic free energy per atom                       :        -283.01191909 eV
  Evaluating new KS density.
  Integration grid: deviation in total charge (<rho> - N_e) =   1.065814E-14

  Self-consistency convergence accuracy:
  | Change of charge density      :  0.1188E-04
  | Change of unmixed KS density  :  0.3096E-04
  | Change of sum of eigenvalues  :  0.3585E-03 eV
  | Change of total energy        :  0.1165E-04 eV


------------------------------------------------------------
  End self-consistency iteration #    12       :  max(cpu_time)    wall_clock(cpu1)
  | Time for this iteration                     :        0.289 s           0.213 s
  | Charge density update                       :        0.004 s           0.004 s
  | Density mixing                              :        0.249 s           0.172 s
  | Hartree multipole update                    :        0.002 s           0.002 s
  | Hartree multipole summation                 :        0.007 s           0.007 s
  | Integration                                 :        0.007 s           0.007 s
  | Fock matrix evaluation                      :        0.019 s           0.019 s
  | Solution of K.-S. eqns.                     :        0.002 s           0.002 s
  | Total energy evaluation                     :        0.000 s           0.000 s

  Partial memory accounting:
  | Current value for overall tracked memory usage:
  |   Minimum:        1.399 MB (on task 57)
  |   Maximum:        2.478 MB (on task 59)
  |   Average:        1.667 MB
  | Peak value for overall tracked memory usage:
  |   Minimum:        1.868 MB (on task 57 after allocating gradient_basis_wave)
  |   Maximum:        2.947 MB (on task 59 after allocating gradient_basis_wave)
  |   Average:        2.166 MB
  | Largest tracked array allocation so far:
  |   Minimum:        0.691 MB (aux_mat on task  1)
  |   Maximum:        1.261 MB (ovlp3fn2%dat on task 11)
  |   Average:        0.780 MB
  Note:  These values currently only include a subset of arrays which are explicitly tracked.
  The "true" memory usage will be greater.
------------------------------------------------------------

------------------------------------------------------------
          Begin self-consistency iteration #   13

  Date     :  20260729, Time     :  183354.679
------------------------------------------------------------
  Pulay mixing of updated and previous charge densities.
  Available memory per node after mixing [GB]:   1030.92
  Renormalizing the density to the exact electron count on the 3D integration grid.
  | Formal number of electrons (from input files) :      18.0000000000
  | Integrated number of electrons on 3D grid     :      18.0000000000
  | Charge integration error                      :       0.0000000000
  | Normalization factor for density and gradient :       1.0000000000

  Evaluating partitioned Hartree potential by multipole expansion.
  | Original multipole sum: apparent total charge =  -0.147586E-15
  | Sum of charges compensated after spline to logarithmic grids =  -0.969305E-06
  | Analytical far-field extrapolation by fixed multipoles:
  | Hartree multipole sum: apparent total charge =   0.442759E-15
  Summing up the Hartree potential.
  Time summed over all CPUs for potential: real work        0.006 s, elapsed        0.007 s
  | RMS charge density error from multipole expansion :   0.613544E-02

  Integrating Hamiltonian matrix: batch-based integration.
  Time summed over all CPUs for integration: real work        0.405 s, elapsed        0.447 s
  Calculating non-local Hartree-Fock exchange by two-center RI (RI-LVL).
  screening_threshold (crit_val) =  0.000000100000
  Exact exchange progress report - outermost block loop i_block: 1 ..       3
  |        1         2         3  
 Total ovlp3fn data transfer [GB]   5.0777279539033771E-003
  Average sparsity of tmp1/2 0.46428570
  Average sparsity of fock_matrix_row 0.27586997
  Full exact exchange energy:     312.546304985535 eV.
  Times            DM_x_o3fn   CM_prod_1   CM_prod_2   tmp2_prod        Sync   Imbalance       Other  Total calc
  | Times    0:        0.001       0.002       0.001       0.001       0.003       0.002       0.011       0.019
  | Times    1:        0.000       0.002       0.001       0.000       0.003       0.002       0.010       0.018
  | Times    2:        0.000       0.001       0.000       0.000       0.003       0.004       0.010       0.018
  | Times    3:        0.000       0.000       0.000       0.000       0.003       0.005       0.010       0.018
  | Times    4:        0.001       0.000       0.000       0.001       0.003       0.004       0.010       0.018
  | Times    5:        0.000       0.000       0.000       0.000       0.003       0.004       0.010       0.018
  | Times    6:        0.001       0.001       0.000       0.001       0.003       0.003       0.010       0.018
  | Times    7:        0.000       0.003       0.001       0.000       0.003       0.001       0.010       0.018
  | Times    8:        0.000       0.002       0.001       0.000       0.003       0.002       0.010       0.018
  | Times    9:        0.000       0.000       0.000       0.000       0.003       0.005       0.010       0.018
  | Times   10:        0.000       0.000       0.000       0.000       0.003       0.004       0.010       0.018
  | Times   11:        0.001       0.001       0.000       0.001       0.003       0.003       0.010       0.018
  | Times   12:        0.001       0.001       0.000       0.001       0.003       0.003       0.010       0.018
  | Times   13:        0.000       0.003       0.001       0.000       0.000       0.003       0.010       0.018
  | Times   14:        0.000       0.003       0.001       0.000       0.000       0.004       0.010       0.019
  | Times   15:        0.000       0.003       0.001       0.000       0.000       0.003       0.010       0.018
  | Times   16:        0.000       0.002       0.001       0.001       0.003       0.002       0.010       0.018
  | Times   17:        0.000       0.003       0.001       0.000       0.003       0.002       0.010       0.018
  | Times   18:        0.000       0.000       0.000       0.000       0.003       0.004       0.010       0.018
  | Times   19:        0.000       0.000       0.000       0.000       0.003       0.005       0.010       0.018
  | Times   20:        0.001       0.001       0.000       0.001       0.003       0.004       0.010       0.018
  | Times   21:        0.000       0.000       0.000       0.000       0.003       0.005       0.010       0.018
  | Times   22:        0.001       0.001       0.000       0.001       0.003       0.003       0.010       0.018
  | Times   23:        0.000       0.003       0.001       0.001       0.003       0.001       0.010       0.018
  | Times   24:        0.000       0.002       0.001       0.000       0.003       0.002       0.010       0.018
  | Times   25:        0.000       0.000       0.000       0.000       0.003       0.005       0.010       0.018
  | Times   26:        0.000       0.000       0.000       0.000       0.003       0.004       0.010       0.018
  | Times   27:        0.001       0.001       0.000       0.001       0.003       0.003       0.010       0.018
  | Times   28:        0.001       0.001       0.000       0.001       0.003       0.003       0.010       0.018
  | Times   29:        0.000       0.003       0.001       0.000       0.000       0.003       0.010       0.018
  | Times   30:        0.000       0.003       0.001       0.000       0.000       0.004       0.010       0.018
  | Times   31:        0.000       0.003       0.001       0.000       0.000       0.003       0.010       0.018
  | Times   32:        0.000       0.001       0.001       0.000       0.002       0.001       0.012       0.018
  | Times   33:        0.000       0.001       0.000       0.000       0.002       0.002       0.012       0.018
  | Times   34:        0.000       0.000       0.000       0.000       0.002       0.003       0.012       0.018
  | Times   35:        0.000       0.000       0.000       0.000       0.002       0.003       0.012       0.018
  | Times   36:        0.000       0.000       0.000       0.001       0.002       0.002       0.012       0.018
  | Times   37:        0.000       0.000       0.000       0.000       0.002       0.003       0.012       0.018
  | Times   38:        0.000       0.000       0.000       0.000       0.002       0.003       0.012       0.018
  | Times   39:        0.000       0.001       0.001       0.000       0.002       0.001       0.012       0.018
  | Times   40:        0.000       0.001       0.000       0.000       0.002       0.002       0.012       0.018
  | Times   41:        0.000       0.000       0.000       0.000       0.002       0.003       0.012       0.018
  | Times   42:        0.000       0.000       0.000       0.000       0.002       0.003       0.012       0.018
  | Times   43:        0.000       0.000       0.000       0.001       0.002       0.002       0.012       0.018
  | Times   44:        0.000       0.000       0.000       0.000       0.002       0.003       0.012       0.018
  | Times   45:        0.000       0.002       0.001       0.000       0.000       0.003       0.013       0.019
  | Times   46:        0.000       0.002       0.001       0.000       0.000       0.003       0.012       0.018
  | Times   47:        0.000       0.002       0.001       0.000       0.000       0.003       0.012       0.018
  | Times   48:        0.000       0.001       0.000       0.000       0.002       0.001       0.012       0.018
  | Times   49:        0.000       0.001       0.001       0.000       0.002       0.001       0.012       0.018
  | Times   50:        0.000       0.000       0.000       0.000       0.002       0.003       0.012       0.018
  | Times   51:        0.000       0.000       0.000       0.000       0.002       0.003       0.012       0.018
  | Times   52:        0.000       0.000       0.000       0.001       0.002       0.002       0.012       0.018
  | Times   53:        0.000       0.000       0.000       0.000       0.002       0.003       0.012       0.018
  | Times   54:        0.000       0.000       0.000       0.000       0.002       0.003       0.012       0.018
  | Times   55:        0.000       0.001       0.000       0.000       0.002       0.001       0.012       0.018
  | Times   56:        0.000       0.001       0.001       0.000       0.002       0.001       0.012       0.018
  | Times   57:        0.000       0.000       0.000       0.000       0.002       0.003       0.012       0.018
  | Times   58:        0.000       0.000       0.000       0.000       0.002       0.003       0.012       0.018
  | Times   59:        0.000       0.000       0.000       0.001       0.002       0.002       0.012       0.018
  | Times   60:        0.000       0.000       0.000       0.000       0.002       0.003       0.012       0.018
  | Times   61:        0.000       0.002       0.001       0.000       0.000       0.002       0.013       0.019
  | Times   62:        0.000       0.002       0.001       0.000       0.000       0.002       0.013       0.019
  | Times   63:        0.000       0.002       0.001       0.000       0.000       0.002       0.012       0.018
  | Times  sum:        0.024       0.074       0.026       0.023       0.139       0.181       0.707       1.174

  Decomposition of Other based on code block (only on MPI task 0):
  Times             Block #1    Block #2    Block #3    Block #4    Block #5    Block #6    Block #7    Block #8
  | Times    0:        0.000       0.000       0.000       0.000       0.000       0.000       0.000       0.000

  Times             Block #9   Block #10   Block #11   Block #12   Block #13   Block #14   Block #15   Block #16
  | Times    0:        0.000       0.000       0.000       0.001       0.000       0.008       0.000       0.000

  Times            Block Sum    Expected
  | Times    0:        0.010       0.011
  Time for Fock matrix mixing     0.000

  Updating Kohn-Sham eigenvalues and eigenvectors using ELSI and the ELPA eigensolver.
  Starting ELPA eigensolver
  Finished transformation to standard eigenproblem
  | Time :     0.000 s
  Finished solving standard eigenproblem
  | Time :     0.001 s
  Finished back-transformation of eigenvectors
  | Time :     0.000 s

  Obtaining occupation numbers and electronic chemical potential using ELSI.
  | Note that, for insulating systems, the printed 'chemical potential' value is not uniquely defined.
  | It can be anywhere in the energy gap, as long as it correctly separates occupied and unoccupied states.
  | In systems with a gap, the physically relevant chemical potential is the VBM or HOMO.

  | Chemical potential (Fermi level):    -4.02009720 eV
  Highest occupied state (VBM) at     -7.54251994 eV
  | Occupation number:      2.00000000

  Lowest unoccupied state (CBM) at    -0.49767446 eV
  | Occupation number:      0.00000000

  Overall HOMO-LUMO gap:      7.04484548 eV.

  Total energy components:
  | Sum of eigenvalues            :         -49.19799718 Ha       -1338.74561793 eV
  | XC energy correction          :          -7.34854256 Ha        -199.96401702 eV
  | XC potential correction       :          13.05728813 Ha         355.30688784 eV
  | Free-atom electrostatic energy:         -36.43250662 Ha        -991.37894593 eV
  | Hartree energy correction     :          -3.28221755 Ha         -89.31368388 eV
  | Entropy correction            :          -0.00000000 Ha          -0.00000000 eV
  | ---------------------------
  | Total energy                  :         -83.20397578 Ha       -2264.09537691 eV
  | Total energy, T -> 0          :         -83.20397578 Ha       -2264.09537691 eV  <-- do not rely on this value for anything but (periodic) metals
  | Electronic free energy        :         -83.20397578 Ha       -2264.09537691 eV

  Derived energy quantities:
  | Kinetic energy                :          82.86929851 Ha        2254.98834508 eV
  | Electrostatic energy          :        -152.98179882 Ha       -4162.84654914 eV
  | Energy correction for multipole
  | error in Hartree potential    :          -0.00678868 Ha          -0.18472943 eV
  | Sum of eigenvalues per atom                           :        -167.34320224 eV
  | Total energy (T->0) per atom                          :        -283.01192211 eV  <-- do not rely on this value for anything but (periodic) metals
  | Electronic free energy per atom                       :        -283.01192211 eV
  Evaluating new KS density.
  Integration grid: deviation in total charge (<rho> - N_e) =   1.421085E-14

  Self-consistency convergence accuracy:
  | Change of charge density      :  0.7309E-05
  | Change of unmixed KS density  :  0.4766E-05
  | Change of sum of eigenvalues  :  0.8965E-03 eV
  | Change of total energy        : -0.2418E-04 eV


------------------------------------------------------------
  End self-consistency iteration #    13       :  max(cpu_time)    wall_clock(cpu1)
  | Time for this iteration                     :        0.284 s           0.201 s
  | Charge density update                       :        0.004 s           0.004 s
  | Density mixing                              :        0.242 s           0.159 s
  | Hartree multipole update                    :        0.002 s           0.002 s
  | Hartree multipole summation                 :        0.007 s           0.007 s
  | Integration                                 :        0.007 s           0.008 s
  | Fock matrix evaluation                      :        0.019 s           0.019 s
  | Solution of K.-S. eqns.                     :        0.002 s           0.002 s
  | Total energy evaluation                     :        0.000 s           0.000 s

  Partial memory accounting:
  | Current value for overall tracked memory usage:
  |   Minimum:        1.399 MB (on task 57)
  |   Maximum:        2.478 MB (on task 59)
  |   Average:        1.667 MB
  | Peak value for overall tracked memory usage:
  |   Minimum:        1.868 MB (on task 57 after allocating gradient_basis_wave)
  |   Maximum:        2.947 MB (on task 59 after allocating gradient_basis_wave)
  |   Average:        2.166 MB
  | Largest tracked array allocation so far:
  |   Minimum:        0.691 MB (aux_mat on task  1)
  |   Maximum:        1.261 MB (ovlp3fn2%dat on task 11)
  |   Average:        0.780 MB
  Note:  These values currently only include a subset of arrays which are explicitly tracked.
  The "true" memory usage will be greater.
------------------------------------------------------------

------------------------------------------------------------
          Begin self-consistency iteration #   14

  Date     :  20260729, Time     :  183355.079
------------------------------------------------------------
  Pulay mixing of updated and previous charge densities.
  Available memory per node after mixing [GB]:   1030.92
  Renormalizing the density to the exact electron count on the 3D integration grid.
  | Formal number of electrons (from input files) :      18.0000000000
  | Integrated number of electrons on 3D grid     :      18.0000000000
  | Charge integration error                      :       0.0000000000
  | Normalization factor for density and gradient :       1.0000000000

  Evaluating partitioned Hartree potential by multipole expansion.
  | Original multipole sum: apparent total charge =  -0.260736E-14
  | Sum of charges compensated after spline to logarithmic grids =  -0.969323E-06
  | Analytical far-field extrapolation by fixed multipoles:
  | Hartree multipole sum: apparent total charge =  -0.199242E-14
  Summing up the Hartree potential.
  Time summed over all CPUs for potential: real work        0.006 s, elapsed        0.007 s
  | RMS charge density error from multipole expansion :   0.613544E-02

  Integrating Hamiltonian matrix: batch-based integration.
  Time summed over all CPUs for integration: real work        0.407 s, elapsed        0.446 s
  Calculating non-local Hartree-Fock exchange by two-center RI (RI-LVL).
  screening_threshold (crit_val) =  0.000000100000
  Exact exchange progress report - outermost block loop i_block: 1 ..       3
  |        1         2         3  
 Total ovlp3fn data transfer [GB]   5.0777279539033771E-003
  Average sparsity of tmp1/2 0.48214287
  Average sparsity of fock_matrix_row 0.28703067
  Full exact exchange energy:     312.546313505515 eV.
  Times            DM_x_o3fn   CM_prod_1   CM_prod_2   tmp2_prod        Sync   Imbalance       Other  Total calc
  | Times    0:        0.000       0.002       0.001       0.001       0.003       0.003       0.009       0.018
  | Times    1:        0.000       0.002       0.001       0.000       0.003       0.003       0.009       0.018
  | Times    2:        0.000       0.000       0.000       0.000       0.003       0.005       0.009       0.018
  | Times    3:        0.000       0.000       0.000       0.000       0.003       0.005       0.009       0.018
  | Times    4:        0.001       0.000       0.000       0.001       0.003       0.004       0.009       0.018
  | Times    5:        0.000       0.000       0.000       0.000       0.003       0.005       0.009       0.018
  | Times    6:        0.001       0.001       0.000       0.001       0.003       0.004       0.009       0.018
  | Times    7:        0.000       0.003       0.001       0.001       0.003       0.001       0.009       0.018
  | Times    8:        0.000       0.002       0.001       0.000       0.003       0.003       0.009       0.018
  | Times    9:        0.000       0.000       0.000       0.000       0.003       0.005       0.009       0.018
  | Times   10:        0.000       0.000       0.000       0.000       0.003       0.005       0.009       0.018
  | Times   11:        0.000       0.001       0.000       0.001       0.003       0.004       0.009       0.018
  | Times   12:        0.001       0.001       0.000       0.001       0.003       0.004       0.009       0.018
  | Times   13:        0.000       0.002       0.001       0.000       0.000       0.005       0.009       0.018
  | Times   14:        0.000       0.003       0.001       0.000       0.000       0.004       0.009       0.018
  | Times   15:        0.000       0.002       0.001       0.000       0.000       0.005       0.009       0.018
  | Times   16:        0.000       0.001       0.000       0.000       0.002       0.001       0.013       0.018
  | Times   17:        0.000       0.001       0.000       0.000       0.002       0.001       0.013       0.018
  | Times   18:        0.000       0.000       0.000       0.000       0.002       0.002       0.013       0.018
  | Times   19:        0.000       0.000       0.000       0.000       0.002       0.002       0.013       0.018
  | Times   20:        0.000       0.000       0.000       0.001       0.002       0.002       0.013       0.018
  | Times   21:        0.000       0.000       0.000       0.000       0.002       0.002       0.013       0.018
  | Times   22:        0.000       0.000       0.000       0.000       0.002       0.002       0.013       0.018
  | Times   23:        0.000       0.001       0.001       0.000       0.002       0.001       0.013       0.018
  | Times   24:        0.000       0.001       0.000       0.000       0.002       0.001       0.013       0.018
  | Times   25:        0.000       0.000       0.000       0.000       0.002       0.002       0.013       0.018
  | Times   26:        0.000       0.000       0.000       0.000       0.002       0.002       0.013       0.018
  | Times   27:        0.000       0.000       0.000       0.001       0.002       0.002       0.013       0.018
  | Times   28:        0.000       0.000       0.000       0.000       0.002       0.002       0.013       0.018
  | Times   29:        0.000       0.001       0.001       0.000       0.000       0.002       0.013       0.018
  | Times   30:        0.000       0.002       0.001       0.000       0.000       0.002       0.013       0.018
  | Times   31:        0.000       0.002       0.001       0.000       0.000       0.002       0.013       0.018
  | Times   32:        0.000       0.002       0.001       0.001       0.003       0.001       0.010       0.018
  | Times   33:        0.000       0.002       0.001       0.000       0.003       0.003       0.009       0.018
  | Times   34:        0.000       0.000       0.000       0.000       0.003       0.004       0.010       0.018
  | Times   35:        0.000       0.000       0.000       0.000       0.003       0.005       0.009       0.018
  | Times   36:        0.000       0.000       0.000       0.001       0.003       0.003       0.010       0.018
  | Times   37:        0.000       0.000       0.000       0.000       0.003       0.005       0.009       0.018
  | Times   38:        0.001       0.001       0.000       0.000       0.003       0.004       0.010       0.018
  | Times   39:        0.000       0.002       0.001       0.001       0.003       0.001       0.010       0.018
  | Times   40:        0.000       0.002       0.001       0.000       0.003       0.002       0.009       0.018
  | Times   41:        0.000       0.000       0.000       0.000       0.003       0.005       0.009       0.018
  | Times   42:        0.000       0.000       0.000       0.000       0.003       0.005       0.010       0.018
  | Times   43:        0.001       0.001       0.000       0.001       0.003       0.003       0.010       0.018
  | Times   44:        0.000       0.001       0.000       0.000       0.003       0.004       0.010       0.018
  | Times   45:        0.000       0.003       0.001       0.000       0.000       0.004       0.010       0.018
  | Times   46:        0.000       0.003       0.001       0.000       0.000       0.003       0.010       0.018
  | Times   47:        0.000       0.003       0.001       0.000       0.000       0.004       0.010       0.018
  | Times   48:        0.000       0.001       0.000       0.000       0.002       0.001       0.012       0.018
  | Times   49:        0.000       0.001       0.001       0.000       0.002       0.001       0.012       0.018
  | Times   50:        0.000       0.000       0.000       0.000       0.002       0.003       0.012       0.018
  | Times   51:        0.000       0.000       0.000       0.000       0.002       0.003       0.012       0.018
  | Times   52:        0.000       0.000       0.000       0.001       0.002       0.002       0.012       0.018
  | Times   53:        0.000       0.000       0.000       0.000       0.002       0.003       0.012       0.018
  | Times   54:        0.000       0.000       0.000       0.000       0.002       0.003       0.012       0.018
  | Times   55:        0.000       0.001       0.001       0.000       0.002       0.001       0.012       0.018
  | Times   56:        0.000       0.001       0.001       0.000       0.002       0.001       0.012       0.018
  | Times   57:        0.000       0.000       0.000       0.000       0.002       0.003       0.012       0.018
  | Times   58:        0.000       0.000       0.000       0.000       0.002       0.003       0.012       0.018
  | Times   59:        0.000       0.000       0.000       0.001       0.002       0.002       0.012       0.018
  | Times   60:        0.000       0.000       0.000       0.000       0.002       0.003       0.012       0.018
  | Times   61:        0.000       0.002       0.001       0.000       0.000       0.002       0.012       0.018
  | Times   62:        0.000       0.002       0.001       0.000       0.000       0.002       0.012       0.018
  | Times   63:        0.000       0.002       0.001       0.000       0.000       0.002       0.012       0.018
  | Times  sum:        0.022       0.066       0.026       0.023       0.130       0.184       0.702       1.154

  Decomposition of Other based on code block (only on MPI task 0):
  Times             Block #1    Block #2    Block #3    Block #4    Block #5    Block #6    Block #7    Block #8
  | Times    0:        0.000       0.000       0.000       0.000       0.000       0.000       0.000       0.000

  Times             Block #9   Block #10   Block #11   Block #12   Block #13   Block #14   Block #15   Block #16
  | Times    0:        0.000       0.000       0.000       0.001       0.000       0.007       0.000       0.000

  Times            Block Sum    Expected
  | Times    0:        0.009       0.009
  Time for Fock matrix mixing     0.000

  Updating Kohn-Sham eigenvalues and eigenvectors using ELSI and the ELPA eigensolver.
  Starting ELPA eigensolver
  Finished transformation to standard eigenproblem
  | Time :     0.000 s
  Finished solving standard eigenproblem
  | Time :     0.001 s
  Finished back-transformation of eigenvectors
  | Time :     0.000 s

  Obtaining occupation numbers and electronic chemical potential using ELSI.
  | Note that, for insulating systems, the printed 'chemical potential' value is not uniquely defined.
  | It can be anywhere in the energy gap, as long as it correctly separates occupied and unoccupied states.
  | In systems with a gap, the physically relevant chemical potential is the VBM or HOMO.

  | Chemical potential (Fermi level):    -4.02009550 eV
  Highest occupied state (VBM) at     -7.54252304 eV
  | Occupation number:      2.00000000

  Lowest unoccupied state (CBM) at    -0.49766796 eV
  | Occupation number:      0.00000000

  Overall HOMO-LUMO gap:      7.04485508 eV.

  Total energy components:
  | Sum of eigenvalues            :         -49.19799418 Ha       -1338.74553639 eV
  | XC energy correction          :          -7.34854316 Ha        -199.96403344 eV
  | XC potential correction       :          13.05728897 Ha         355.30691077 eV
  | Free-atom electrostatic energy:         -36.43250662 Ha        -991.37894593 eV
  | Hartree energy correction     :          -3.28222094 Ha         -89.31377601 eV
  | Entropy correction            :          -0.00000000 Ha          -0.00000000 eV
  | ---------------------------
  | Total energy                  :         -83.20397593 Ha       -2264.09538100 eV
  | Total energy, T -> 0          :         -83.20397593 Ha       -2264.09538100 eV  <-- do not rely on this value for anything but (periodic) metals
  | Electronic free energy        :         -83.20397593 Ha       -2264.09538100 eV

  Derived energy quantities:
  | Kinetic energy                :          82.86930153 Ha        2254.98842714 eV
  | Electrostatic energy          :        -152.98180125 Ha       -4162.84661530 eV
  | Energy correction for multipole
  | error in Hartree potential    :          -0.00678869 Ha          -0.18472970 eV
  | Sum of eigenvalues per atom                           :        -167.34319205 eV
  | Total energy (T->0) per atom                          :        -283.01192263 eV  <-- do not rely on this value for anything but (periodic) metals
  | Electronic free energy per atom                       :        -283.01192263 eV
  Evaluating new KS density.
  Integration grid: deviation in total charge (<rho> - N_e) =   2.486900E-14

  Self-consistency convergence accuracy:
  | Change of charge density      :  0.1915E-05
  | Change of unmixed KS density  :  0.2277E-05
  | Change of sum of eigenvalues  :  0.8153E-04 eV
  | Change of total energy        : -0.4092E-05 eV


------------------------------------------------------------
  End self-consistency iteration #    14       :  max(cpu_time)    wall_clock(cpu1)
  | Time for this iteration                     :        0.272 s           0.095 s
  | Charge density update                       :        0.004 s           0.005 s
  | Density mixing                              :        0.237 s           0.054 s
  | Hartree multipole update                    :        0.002 s           0.002 s
  | Hartree multipole summation                 :        0.007 s           0.007 s
  | Integration                                 :        0.007 s           0.007 s
  | Fock matrix evaluation                      :        0.019 s           0.019 s
  | Solution of K.-S. eqns.                     :        0.002 s           0.001 s
  | Total energy evaluation                     :        0.000 s           0.000 s

  Partial memory accounting:
  | Current value for overall tracked memory usage:
  |   Minimum:        1.399 MB (on task 57)
  |   Maximum:        2.478 MB (on task 59)
  |   Average:        1.667 MB
  | Peak value for overall tracked memory usage:
  |   Minimum:        1.868 MB (on task 57 after allocating gradient_basis_wave)
  |   Maximum:        2.947 MB (on task 59 after allocating gradient_basis_wave)
  |   Average:        2.166 MB
  | Largest tracked array allocation so far:
  |   Minimum:        0.691 MB (aux_mat on task  1)
  |   Maximum:        1.261 MB (ovlp3fn2%dat on task 11)
  |   Average:        0.780 MB
  Note:  These values currently only include a subset of arrays which are explicitly tracked.
  The "true" memory usage will be greater.
------------------------------------------------------------

------------------------------------------------------------
          Begin self-consistency iteration #   15

  Date     :  20260729, Time     :  183355.254
------------------------------------------------------------
  Pulay mixing of updated and previous charge densities.
  Available memory per node after mixing [GB]:   1030.92
  Renormalizing the density to the exact electron count on the 3D integration grid.
  | Formal number of electrons (from input files) :      18.0000000000
  | Integrated number of electrons on 3D grid     :      18.0000000000
  | Charge integration error                      :       0.0000000000
  | Normalization factor for density and gradient :       1.0000000000

  Evaluating partitioned Hartree potential by multipole expansion.
  | Original multipole sum: apparent total charge =   0.241058E-14
  | Sum of charges compensated after spline to logarithmic grids =  -0.969322E-06
  | Analytical far-field extrapolation by fixed multipoles:
  | Hartree multipole sum: apparent total charge =   0.295173E-14
  Summing up the Hartree potential.
  Time summed over all CPUs for potential: real work        0.006 s, elapsed        0.007 s
  | RMS charge density error from multipole expansion :   0.613544E-02

  Integrating Hamiltonian matrix: batch-based integration.
  Time summed over all CPUs for integration: real work        0.408 s, elapsed        0.457 s
  Calculating non-local Hartree-Fock exchange by two-center RI (RI-LVL).
  screening_threshold (crit_val) =  0.000000100000
  Exact exchange progress report - outermost block loop i_block: 1 ..       3
  |        1         2         3  
 Total ovlp3fn data transfer [GB]   5.0777279539033771E-003
  Average sparsity of tmp1/2 0.46428570
  Average sparsity of fock_matrix_row 0.27586997
  Full exact exchange energy:     312.546304207028 eV.
  Times            DM_x_o3fn   CM_prod_1   CM_prod_2   tmp2_prod        Sync   Imbalance       Other  Total calc
  | Times    0:        0.000       0.003       0.001       0.001       0.003       0.001       0.010       0.018
  | Times    1:        0.000       0.002       0.001       0.000       0.003       0.002       0.009       0.018
  | Times    2:        0.000       0.000       0.000       0.000       0.003       0.005       0.010       0.018
  | Times    3:        0.000       0.000       0.000       0.000       0.003       0.005       0.009       0.018
  | Times    4:        0.000       0.000       0.000       0.001       0.003       0.004       0.010       0.018
  | Times    5:        0.000       0.000       0.000       0.000       0.003       0.005       0.010       0.018
  | Times    6:        0.001       0.001       0.000       0.001       0.003       0.004       0.010       0.018
  | Times    7:        0.000       0.002       0.001       0.001       0.003       0.002       0.010       0.018
  | Times    8:        0.000       0.003       0.001       0.000       0.003       0.002       0.009       0.018
  | Times    9:        0.000       0.000       0.000       0.000       0.003       0.005       0.010       0.018
  | Times   10:        0.000       0.000       0.000       0.000       0.003       0.005       0.010       0.019
  | Times   11:        0.001       0.001       0.000       0.001       0.003       0.004       0.010       0.019
  | Times   12:        0.000       0.001       0.000       0.001       0.003       0.004       0.010       0.018
  | Times   13:        0.000       0.003       0.001       0.000       0.000       0.003       0.010       0.018
  | Times   14:        0.000       0.002       0.001       0.000       0.000       0.004       0.010       0.018
  | Times   15:        0.000       0.003       0.001       0.000       0.000       0.003       0.010       0.019
  | Times   16:        0.000       0.003       0.001       0.001       0.003       0.001       0.010       0.019
  | Times   17:        0.000       0.002       0.001       0.000       0.003       0.002       0.009       0.019
  | Times   18:        0.000       0.000       0.000       0.000       0.003       0.005       0.010       0.019
  | Times   19:        0.000       0.000       0.000       0.000       0.003       0.005       0.010       0.018
  | Times   20:        0.000       0.000       0.000       0.001       0.003       0.004       0.010       0.018
  | Times   21:        0.000       0.000       0.000       0.000       0.003       0.005       0.010       0.019
  | Times   22:        0.001       0.001       0.000       0.001       0.003       0.004       0.010       0.018
  | Times   23:        0.000       0.002       0.001       0.001       0.003       0.002       0.010       0.019
  | Times   24:        0.000       0.003       0.001       0.000       0.003       0.002       0.010       0.018
  | Times   25:        0.000       0.000       0.000       0.000       0.003       0.005       0.010       0.019
  | Times   26:        0.000       0.000       0.000       0.000       0.003       0.005       0.010       0.018
  | Times   27:        0.000       0.001       0.000       0.001       0.003       0.004       0.010       0.019
  | Times   28:        0.000       0.001       0.000       0.001       0.003       0.004       0.010       0.019
  | Times   29:        0.000       0.003       0.001       0.000       0.000       0.003       0.010       0.018
  | Times   30:        0.000       0.002       0.001       0.000       0.000       0.004       0.010       0.019
  | Times   31:        0.000       0.003       0.001       0.000       0.000       0.003       0.010       0.019
  | Times   32:        0.000       0.001       0.001       0.000       0.002       0.001       0.012       0.019
  | Times   33:        0.000       0.001       0.000       0.000       0.002       0.002       0.012       0.019
  | Times   34:        0.000       0.000       0.000       0.000       0.002       0.003       0.012       0.019
  | Times   35:        0.000       0.000       0.000       0.000       0.002       0.003       0.012       0.018
  | Times   36:        0.000       0.000       0.000       0.001       0.002       0.002       0.012       0.019
  | Times   37:        0.000       0.000       0.000       0.000       0.002       0.003       0.012       0.019
  | Times   38:        0.000       0.000       0.000       0.000       0.002       0.003       0.012       0.019
  | Times   39:        0.000       0.001       0.001       0.000       0.003       0.001       0.012       0.018
  | Times   40:        0.000       0.001       0.000       0.000       0.003       0.002       0.012       0.019
  | Times   41:        0.000       0.000       0.000       0.000       0.003       0.003       0.012       0.019
  | Times   42:        0.000       0.000       0.000       0.000       0.003       0.003       0.012       0.018
  | Times   43:        0.000       0.000       0.000       0.001       0.003       0.002       0.012       0.019
  | Times   44:        0.000       0.000       0.000       0.000       0.003       0.003       0.012       0.019
  | Times   45:        0.000       0.002       0.001       0.000       0.000       0.003       0.013       0.019
  | Times   46:        0.000       0.002       0.001       0.000       0.000       0.003       0.012       0.019
  | Times   47:        0.000       0.002       0.001       0.000       0.000       0.003       0.012       0.019
  | Times   48:        0.000       0.001       0.000       0.001       0.002       0.001       0.012       0.018
  | Times   49:        0.000       0.001       0.001       0.000       0.002       0.001       0.012       0.018
  | Times   50:        0.000       0.000       0.000       0.000       0.002       0.003       0.012       0.019
  | Times   51:        0.000       0.000       0.000       0.000       0.002       0.003       0.012       0.019
  | Times   52:        0.000       0.000       0.000       0.001       0.002       0.002       0.012       0.019
  | Times   53:        0.000       0.000       0.000       0.000       0.002       0.003       0.012       0.018
  | Times   54:        0.000       0.000       0.000       0.000       0.002       0.003       0.012       0.018
  | Times   55:        0.000       0.001       0.000       0.000       0.003       0.001       0.012       0.019
  | Times   56:        0.000       0.001       0.001       0.000       0.003       0.001       0.012       0.018
  | Times   57:        0.000       0.000       0.000       0.000       0.003       0.003       0.012       0.018
  | Times   58:        0.000       0.000       0.000       0.000       0.003       0.003       0.012       0.018
  | Times   59:        0.000       0.000       0.000       0.001       0.003       0.002       0.012       0.018
  | Times   60:        0.000       0.000       0.000       0.000       0.003       0.003       0.012       0.018
  | Times   61:        0.000       0.002       0.001       0.000       0.000       0.003       0.013       0.019
  | Times   62:        0.000       0.002       0.001       0.000       0.000       0.002       0.013       0.019
  | Times   63:        0.000       0.002       0.001       0.000       0.000       0.003       0.012       0.018
  | Times  sum:        0.021       0.072       0.028       0.023       0.142       0.196       0.704       1.186

  Decomposition of Other based on code block (only on MPI task 0):
  Times             Block #1    Block #2    Block #3    Block #4    Block #5    Block #6    Block #7    Block #8
  | Times    0:        0.000       0.000       0.000       0.000       0.000       0.000       0.000       0.000

  Times             Block #9   Block #10   Block #11   Block #12   Block #13   Block #14   Block #15   Block #16
  | Times    0:        0.000       0.000       0.000       0.001       0.000       0.007       0.000       0.000

  Times            Block Sum    Expected
  | Times    0:        0.009       0.010
  Time for Fock matrix mixing     0.000

  Updating Kohn-Sham eigenvalues and eigenvectors using ELSI and the ELPA eigensolver.
  Starting ELPA eigensolver
  Finished transformation to standard eigenproblem
  | Time :     0.000 s
  Finished solving standard eigenproblem
  | Time :     0.001 s
  Finished back-transformation of eigenvectors
  | Time :     0.000 s

  Obtaining occupation numbers and electronic chemical potential using ELSI.
  | Note that, for insulating systems, the printed 'chemical potential' value is not uniquely defined.
  | It can be anywhere in the energy gap, as long as it correctly separates occupied and unoccupied states.
  | In systems with a gap, the physically relevant chemical potential is the VBM or HOMO.

  | Chemical potential (Fermi level):    -4.02009493 eV
  Highest occupied state (VBM) at     -7.54252043 eV
  | Occupation number:      2.00000000

  Lowest unoccupied state (CBM) at    -0.49766943 eV
  | Occupation number:      0.00000000

  Overall HOMO-LUMO gap:      7.04485101 eV.

  Total energy components:
  | Sum of eigenvalues            :         -49.19799457 Ha       -1338.74554693 eV
  | XC energy correction          :          -7.34854324 Ha        -199.96403571 eV
  | XC potential correction       :          13.05728892 Ha         355.30690932 eV
  | Free-atom electrostatic energy:         -36.43250662 Ha        -991.37894593 eV
  | Hartree energy correction     :          -3.28222031 Ha         -89.31375884 eV
  | Entropy correction            :          -0.00000000 Ha          -0.00000000 eV
  | ---------------------------
  | Total energy                  :         -83.20397583 Ha       -2264.09537810 eV
  | Total energy, T -> 0          :         -83.20397583 Ha       -2264.09537810 eV  <-- do not rely on this value for anything but (periodic) metals
  | Electronic free energy        :         -83.20397583 Ha       -2264.09537810 eV

  Derived energy quantities:
  | Kinetic energy                :          82.86930177 Ha        2254.98843364 eV
  | Electrostatic energy          :        -152.98180155 Ha       -4162.84662346 eV
  | Energy correction for multipole
  | error in Hartree potential    :          -0.00678869 Ha          -0.18472978 eV
  | Sum of eigenvalues per atom                           :        -167.34319337 eV
  | Total energy (T->0) per atom                          :        -283.01192226 eV  <-- do not rely on this value for anything but (periodic) metals
  | Electronic free energy per atom                       :        -283.01192226 eV
  Evaluating new KS density.
  Integration grid: deviation in total charge (<rho> - N_e) =   3.552714E-15

  Self-consistency convergence accuracy:
  | Change of charge density      :  0.3233E-06
  | Change of unmixed KS density  :  0.5192E-06
  | Change of sum of eigenvalues  : -0.1054E-04 eV
  | Change of total energy        :  0.2897E-05 eV


------------------------------------------------------------
  End self-consistency iteration #    15       :  max(cpu_time)    wall_clock(cpu1)
  | Time for this iteration                     :        0.277 s           0.215 s
  | Charge density update                       :        0.005 s           0.004 s
  | Density mixing                              :        0.238 s           0.173 s
  | Hartree multipole update                    :        0.002 s           0.002 s
  | Hartree multipole summation                 :        0.007 s           0.007 s
  | Integration                                 :        0.007 s           0.007 s
  | Fock matrix evaluation                      :        0.019 s           0.020 s
  | Solution of K.-S. eqns.                     :        0.002 s           0.001 s
  | Total energy evaluation                     :        0.000 s           0.000 s

  Partial memory accounting:
  | Current value for overall tracked memory usage:
  |   Minimum:        1.399 MB (on task 57)
  |   Maximum:        2.478 MB (on task 59)
  |   Average:        1.667 MB
  | Peak value for overall tracked memory usage:
  |   Minimum:        1.868 MB (on task 57 after allocating gradient_basis_wave)
  |   Maximum:        2.947 MB (on task 59 after allocating gradient_basis_wave)
  |   Average:        2.166 MB
  | Largest tracked array allocation so far:
  |   Minimum:        0.691 MB (aux_mat on task  1)
  |   Maximum:        1.261 MB (ovlp3fn2%dat on task 11)
  |   Average:        0.780 MB
  Note:  These values currently only include a subset of arrays which are explicitly tracked.
  The "true" memory usage will be greater.
------------------------------------------------------------

------------------------------------------------------------
          Begin self-consistency iteration #   16

  Date     :  20260729, Time     :  183355.680
------------------------------------------------------------
  Pulay mixing of updated and previous charge densities.
  Available memory per node after mixing [GB]:   1030.91
  Renormalizing the density to the exact electron count on the 3D integration grid.
  | Formal number of electrons (from input files) :      18.0000000000
  | Integrated number of electrons on 3D grid     :      18.0000000000
  | Charge integration error                      :       0.0000000000
  | Normalization factor for density and gradient :       1.0000000000

  Evaluating partitioned Hartree potential by multipole expansion.
  | Original multipole sum: apparent total charge =   0.132828E-14
  | Sum of charges compensated after spline to logarithmic grids =  -0.969322E-06
  | Analytical far-field extrapolation by fixed multipoles:
  | Hartree multipole sum: apparent total charge =   0.245977E-14
  Summing up the Hartree potential.
  Time summed over all CPUs for potential: real work        0.006 s, elapsed        0.007 s
  | RMS charge density error from multipole expansion :   0.613544E-02

  Integrating Hamiltonian matrix: batch-based integration.
  Time summed over all CPUs for integration: real work        0.407 s, elapsed        0.442 s
  Calculating non-local Hartree-Fock exchange by two-center RI (RI-LVL).
  screening_threshold (crit_val) =  0.000000100000
  Exact exchange progress report - outermost block loop i_block: 1 ..       3
  |        1         2         3  
 Total ovlp3fn data transfer [GB]   5.0777279539033771E-003
  Average sparsity of tmp1/2 0.48214287
  Average sparsity of fock_matrix_row 0.28703067
  Full exact exchange energy:     312.546302120275 eV.
  Times            DM_x_o3fn   CM_prod_1   CM_prod_2   tmp2_prod        Sync   Imbalance       Other  Total calc
  | Times    0:        0.000       0.002       0.001       0.001       0.003       0.002       0.034       0.042
  | Times    1:        0.000       0.001       0.001       0.000       0.003       0.003       0.033       0.041
  | Times    2:        0.000       0.000       0.000       0.000       0.003       0.004       0.033       0.041
  | Times    3:        0.000       0.000       0.000       0.000       0.003       0.004       0.033       0.041
  | Times    4:        0.000       0.000       0.000       0.001       0.003       0.004       0.033       0.041
  | Times    5:        0.000       0.000       0.000       0.000       0.003       0.004       0.033       0.041
  | Times    6:        0.000       0.001       0.000       0.001       0.003       0.003       0.033       0.041
  | Times    7:        0.000       0.002       0.001       0.000       0.003       0.001       0.033       0.041
  | Times    8:        0.000       0.002       0.001       0.000       0.003       0.003       0.033       0.041
  | Times    9:        0.000       0.000       0.000       0.000       0.003       0.004       0.033       0.041
  | Times   10:        0.000       0.000       0.000       0.000       0.003       0.004       0.033       0.041
  | Times   11:        0.001       0.001       0.000       0.001       0.003       0.002       0.033       0.041
  | Times   12:        0.000       0.001       0.000       0.001       0.003       0.004       0.033       0.041
  | Times   13:        0.000       0.003       0.001       0.000       0.000       0.003       0.033       0.041
  | Times   14:        0.000       0.002       0.001       0.000       0.000       0.003       0.034       0.041
  | Times   15:        0.000       0.003       0.001       0.000       0.000       0.003       0.033       0.041
  | Times   16:        0.000       0.001       0.000       0.000       0.002       0.001       0.036       0.041
  | Times   17:        0.000       0.001       0.000       0.000       0.002       0.001       0.036       0.041
  | Times   18:        0.000       0.000       0.000       0.000       0.002       0.003       0.036       0.041
  | Times   19:        0.000       0.000       0.000       0.000       0.002       0.003       0.036       0.041
  | Times   20:        0.000       0.000       0.000       0.000       0.002       0.002       0.036       0.041
  | Times   21:        0.000       0.000       0.000       0.000       0.002       0.003       0.036       0.041
  | Times   22:        0.000       0.000       0.000       0.000       0.002       0.002       0.036       0.041
  | Times   23:        0.000       0.001       0.001       0.000       0.002       0.001       0.037       0.042
  | Times   24:        0.000       0.001       0.000       0.000       0.002       0.001       0.036       0.041
  | Times   25:        0.000       0.000       0.000       0.000       0.002       0.003       0.036       0.041
  | Times   26:        0.000       0.000       0.000       0.000       0.002       0.003       0.036       0.041
  | Times   27:        0.000       0.000       0.000       0.001       0.002       0.002       0.036       0.041
  | Times   28:        0.000       0.000       0.000       0.000       0.002       0.002       0.036       0.041
  | Times   29:        0.000       0.001       0.001       0.000       0.000       0.002       0.036       0.041
  | Times   30:        0.000       0.002       0.001       0.000       0.000       0.002       0.036       0.041
  | Times   31:        0.000       0.002       0.001       0.000       0.000       0.002       0.036       0.041
  | Times   32:        0.000       0.002       0.001       0.001       0.003       0.002       0.032       0.041
  | Times   33:        0.000       0.002       0.001       0.000       0.003       0.003       0.032       0.041
  | Times   34:        0.000       0.001       0.000       0.000       0.003       0.005       0.032       0.041
  | Times   35:        0.000       0.000       0.000       0.000       0.003       0.005       0.032       0.041
  | Times   36:        0.000       0.000       0.000       0.001       0.003       0.004       0.032       0.041
  | Times   37:        0.000       0.000       0.000       0.000       0.003       0.005       0.032       0.041
  | Times   38:        0.001       0.001       0.000       0.000       0.003       0.004       0.032       0.041
  | Times   39:        0.000       0.002       0.001       0.001       0.003       0.002       0.032       0.041
  | Times   40:        0.000       0.003       0.001       0.000       0.003       0.002       0.032       0.041
  | Times   41:        0.000       0.000       0.000       0.000       0.003       0.005       0.032       0.041
  | Times   42:        0.000       0.000       0.000       0.000       0.003       0.005       0.032       0.041
  | Times   43:        0.001       0.001       0.000       0.001       0.003       0.003       0.033       0.041
  | Times   44:        0.001       0.001       0.000       0.000       0.003       0.004       0.032       0.041
  | Times   45:        0.000       0.003       0.001       0.000       0.000       0.004       0.032       0.041
  | Times   46:        0.000       0.003       0.001       0.000       0.000       0.003       0.032       0.041
  | Times   47:        0.000       0.003       0.001       0.000       0.000       0.004       0.032       0.041
  | Times   48:        0.000       0.001       0.000       0.000       0.002       0.001       0.035       0.041
  | Times   49:        0.000       0.001       0.001       0.000       0.002       0.001       0.035       0.041
  | Times   50:        0.000       0.000       0.000       0.000       0.002       0.003       0.035       0.041
  | Times   51:        0.000       0.000       0.000       0.000       0.002       0.003       0.035       0.041
  | Times   52:        0.000       0.000       0.000       0.001       0.002       0.002       0.035       0.041
  | Times   53:        0.000       0.000       0.000       0.000       0.002       0.003       0.035       0.041
  | Times   54:        0.001       0.000       0.000       0.000       0.002       0.002       0.035       0.041
  | Times   55:        0.000       0.001       0.000       0.000       0.002       0.001       0.035       0.041
  | Times   56:        0.000       0.001       0.001       0.000       0.002       0.001       0.035       0.041
  | Times   57:        0.000       0.000       0.000       0.000       0.002       0.003       0.035       0.041
  | Times   58:        0.000       0.000       0.000       0.000       0.002       0.003       0.035       0.041
  | Times   59:        0.000       0.000       0.000       0.001       0.002       0.002       0.035       0.041
  | Times   60:        0.000       0.000       0.000       0.000       0.002       0.003       0.035       0.041
  | Times   61:        0.000       0.002       0.001       0.000       0.000       0.002       0.036       0.042
  | Times   62:        0.000       0.002       0.001       0.000       0.000       0.002       0.035       0.041
  | Times   63:        0.000       0.002       0.001       0.000       0.000       0.002       0.035       0.041
  | Times  sum:        0.021       0.067       0.026       0.023       0.128       0.178       2.184       2.627

  Decomposition of Other based on code block (only on MPI task 0):
  Times             Block #1    Block #2    Block #3    Block #4    Block #5    Block #6    Block #7    Block #8
  | Times    0:        0.023       0.000       0.000       0.000       0.000       0.000       0.000       0.000

  Times             Block #9   Block #10   Block #11   Block #12   Block #13   Block #14   Block #15   Block #16
  | Times    0:        0.000       0.000       0.000       0.001       0.000       0.007       0.000       0.000

  Times            Block Sum    Expected
  | Times    0:        0.032       0.034
  Time for Fock matrix mixing     0.000

  Updating Kohn-Sham eigenvalues and eigenvectors using ELSI and the ELPA eigensolver.
  Starting ELPA eigensolver
  Finished transformation to standard eigenproblem
  | Time :     0.001 s
  Finished solving standard eigenproblem
  | Time :     0.001 s
  Finished back-transformation of eigenvectors
  | Time :     0.000 s

  Obtaining occupation numbers and electronic chemical potential using ELSI.
  | Note that, for insulating systems, the printed 'chemical potential' value is not uniquely defined.
  | It can be anywhere in the energy gap, as long as it correctly separates occupied and unoccupied states.
  | In systems with a gap, the physically relevant chemical potential is the VBM or HOMO.

  | Chemical potential (Fermi level):    -4.02009491 eV
  Highest occupied state (VBM) at     -7.54252039 eV
  | Occupation number:      2.00000000

  Lowest unoccupied state (CBM) at    -0.49766944 eV
  | Occupation number:      0.00000000

  Overall HOMO-LUMO gap:      7.04485094 eV.

  Total energy components:
  | Sum of eigenvalues            :         -49.19799457 Ha       -1338.74554697 eV
  | XC energy correction          :          -7.34854324 Ha        -199.96403569 eV
  | XC potential correction       :          13.05728892 Ha         355.30690924 eV
  | Free-atom electrostatic energy:         -36.43250662 Ha        -991.37894593 eV
  | Hartree energy correction     :          -3.28222030 Ha         -89.31375871 eV
  | Entropy correction            :          -0.00000000 Ha          -0.00000000 eV
  | ---------------------------
  | Total energy                  :         -83.20397582 Ha       -2264.09537807 eV
  | Total energy, T -> 0          :         -83.20397582 Ha       -2264.09537807 eV  <-- do not rely on this value for anything but (periodic) metals
  | Electronic free energy        :         -83.20397582 Ha       -2264.09537807 eV

  Derived energy quantities:
  | Kinetic energy                :          82.86930176 Ha        2254.98843343 eV
  | Electrostatic energy          :        -152.98180154 Ha       -4162.84662333 eV
  | Energy correction for multipole
  | error in Hartree potential    :          -0.00678869 Ha          -0.18472978 eV
  | Sum of eigenvalues per atom                           :        -167.34319337 eV
  | Total energy (T->0) per atom                          :        -283.01192226 eV  <-- do not rely on this value for anything but (periodic) metals
  | Electronic free energy per atom                       :        -283.01192226 eV

  Self-consistency convergence accuracy:
  | Change of charge density      :  0.7664E-07
  | Change of unmixed KS density  :  0.9840E-07
  | Change of sum of eigenvalues  : -0.4077E-07 eV
  | Change of total energy        :  0.3091E-07 eV

  Writing Kohn-Sham eigenvalues.

  State    Occupation    Eigenvalue [Ha]    Eigenvalue [eV]
      1       2.00000         -14.449247         -393.18402
      2       2.00000          -6.706299         -182.48768
      3       2.00000          -0.949698          -25.84260
      4       2.00000          -0.543932          -14.80115
      5       2.00000          -0.543931          -14.80111
      6       2.00000          -0.497247          -13.53079
      7       2.00000          -0.354277           -9.64036
      8       2.00000          -0.277183           -7.54255
      9       2.00000          -0.277183           -7.54252
     10       0.00000          -0.018289           -0.49767
     11       0.00000           0.054687            1.48810
     12       0.00000           0.054688            1.48814
     13       0.00000           0.093682            2.54922
     14       0.00000           0.121457            3.30502
     15       0.00000           0.145829            3.96820
     16       0.00000           0.145832            3.96828
     17       0.00000           0.195269            5.31355
     18       0.00000           0.195270            5.31356
     19       0.00000           0.224426            6.10695
     20       0.00000           0.224429            6.10702
     21       0.00000           0.240960            6.55686
     22       0.00000           0.341085            9.28140
     23       0.00000           0.479510           13.04812
     24       0.00000           0.554809           15.09712

  Highest occupied state (VBM) at     -7.54252039 eV
  | Occupation number:      2.00000000

  Lowest unoccupied state (CBM) at    -0.49766944 eV
  | Occupation number:      0.00000000

  Overall HOMO-LUMO gap:      7.04485094 eV.

  | Chemical Potential                          :    -4.02009491 eV
  | Note that, for insulating systems, the printed 'chemical potential' value is not uniquely defined.
  | It can be anywhere in the energy gap, as long as it correctly separates occupied and unoccupied states.
  | In systems with a gap, the physically relevant chemical potential is the VBM or HOMO.

  Self-consistency cycle converged.


------------------------------------------------------------
  End self-consistency iteration #    16       :  max(cpu_time)    wall_clock(cpu1)
  | Time for this iteration                     :        0.291 s           0.100 s
  | Charge density update                       :        0.000 s           0.000 s
  | Density mixing                              :        0.234 s           0.039 s
  | Hartree multipole update                    :        0.002 s           0.002 s
  | Hartree multipole summation                 :        0.007 s           0.007 s
  | Integration                                 :        0.007 s           0.007 s
  | Fock matrix evaluation                      :        0.042 s           0.042 s
  | Solution of K.-S. eqns.                     :        0.002 s           0.002 s
  | Total energy evaluation                     :        0.000 s           0.000 s

  Partial memory accounting:
  | Current value for overall tracked memory usage:
  |   Minimum:        1.399 MB (on task 57)
  |   Maximum:        2.478 MB (on task 59)
  |   Average:        1.667 MB
  | Peak value for overall tracked memory usage:
  |   Minimum:        1.868 MB (on task 57 after allocating gradient_basis_wave)
  |   Maximum:        2.947 MB (on task 59 after allocating gradient_basis_wave)
  |   Average:        2.166 MB
  | Largest tracked array allocation so far:
  |   Minimum:        0.691 MB (aux_mat on task  1)
  |   Maximum:        1.261 MB (ovlp3fn2%dat on task 11)
  |   Average:        0.780 MB
  Note:  These values currently only include a subset of arrays which are explicitly tracked.
  The "true" memory usage will be greater.
------------------------------------------------------------

  Energy and forces in a compact form:
  | Total energy uncorrected      :         -0.226409537807239E+04 eV
  | Total energy corrected        :         -0.226409537807239E+04 eV  <-- do not rely on this value for anything but (periodic) metals
  | Electronic free energy        :         -0.226409537807239E+04 eV

  ------------------------------------ 
  Start decomposition of the XC Energy 
  ------------------------------------ 
  X and C from original XC functional choice 
  Hartree-Fock Energy :         -2.871466372 Ha            -78.136575530 eV
  X Energy            :        -12.545627012 Ha           -341.383880428 eV
  C Energy            :         -0.545849001 Ha            -14.853307036 eV
  XC Energy w/o HF    :        -10.220009641 Ha           -278.100611933 eV
  Total XC Energy     :        -13.091476013 Ha           -356.237187463 eV
  ------------------------------------ 
  LDA X and C from self-consistent density 
  X Energy LDA        :        -11.300497907 Ha           -307.502193577 eV
  C Energy LDA        :         -1.085449148 Ha            -29.536574118 eV
  ------------------------------------ 
  End decomposition of the XC Energy 
  ------------------------------------ 

------------------------------------------------------------

------------------------------------------------------------------------------
  Final output of selected total energy values:

  The following output summarizes some interesting total energy values
  at the end of a run (AFTER all relaxation, molecular dynamics, etc.).

  | Total energy of the DFT / Hartree-Fock s.c.f. calculation      :          -2264.095378072 eV
  | Final zero-broadening corrected energy (caution - metals only) :          -2264.095378072 eV
  | For reference only, the value of 1 Hartree used in FHI-aims is :             27.211384500 eV

  Before relying on these values, please be sure to understand exactly which
  total energy value is referred to by a given number. Different objects may
  all carry the same name 'total energy'. Definitions:

  Total energy of the DFT / Hartree-Fock s.c.f. calculation:
  | Note that this energy does not include ANY quantities calculated after the
  | s.c.f. cycle, in particular not ANY RPA, MP2, etc. many-body perturbation terms.

  Final zero-broadening corrected energy:
  | For metallic systems only, a broadening of the occupation numbers at the Fermi
  | level can be extrapolated back to zero broadening by an electron-gas inspired
  | formula. For all systems that are not real metals, this value can be
  | meaningless and should be avoided.

------------------------------------------------------------------------------
  Methods described in the following list of references were used in this FHI-aims run.
  If you publish the results, please make sure to cite these reference if they apply.
  FHI-aims is an academic code, and for our developers (often, Ph.D. students
  and postdocs), scientific credit in the community is essential.
  Thank you for helping us!

  For any use of FHI-aims, please cite:

    Volker Blum, Ralf Gehrke, Felix Hanke, Paula Havu, Ville Havu,
    Xinguo Ren, Karsten Reuter, and Matthias Scheffler
    'Ab initio molecular simulations with numeric atom-centered orbitals'
    Computer Physics Communications 180, 2175-2196 (2009)
    http://doi.org/10.1016/j.cpc.2009.06.022


  For Hartree-Fock, hybrid functionals, or many-body perturbation theory used in your run, please cite:

    Xinguo Ren, Patrick Rinke, Volker Blum, Juergen Wieferink, Alex Tkatchenko,
    Andrea Sanfilippo, Karsten Reuter, and Matthias Scheffler,
    'Resolution-of-identity approach to Hartree-Fock, hybrid density functionals,
    RPA, MP2, and GW with numeric atom-centered orbital basis functions'
    New Journal of Physics 14, 053020 (2012).
    http://doi.org/10.1088/1367-2630/14/5/053020


  For using hybrid functionals or Hartree-Fock in FHI-aims, please cite

    Sergey V. Levchenko, Xinguo Ren, Juergen Wieferink, Rainer Joahanni,
    Patrick Rinke, Volker Blum, and Matthias Scheffler
    Hybrid functionals for large periodic systems in an all-electron,
    numeric atom-centered basis framework

    Comput. Phys. Commun. 192, 60-69 (2015)
    https://doi.org/10.1016/j.cpc.2015.02.021


  For using hybrid functionals or Hartree-Fock in FHI-aims, please also cite

    Sebastian Kokott, Florian Merz, Yi Yao, Christian Carbogno, Mariana Rossi,
    Ville Havu, Markus Rampp, Matthias Scheffler, and Volker Blum
    Efficient all-electron hybrid density functionals for atomistic simulations
    beyond 10,000 atoms

    J. Chem. Phys. 161, 024112 (2024)
    https://doi.org/10.1063/5.0208103


  The ELSI infrastructure was used in your run to solve the Kohn-Sham electronic structure.
  Please check out https://wordpress.elsi-interchange.org to learn more.
  If scalability is important for your project, please acknowledge ELSI by citing:

    V. W-z. Yu, F. Corsetti, A. Garcia, W. P. Huhn, M. Jacquelin, W. Jia,
    B. Lange, L. Lin, J. Lu, W. Mi, A. Seifitokaldani, A. Vazquez-Mayagoitia,
    C. Yang, H. Yang, and V. Blum
    'ELSI: A unified software interface for Kohn-Sham electronic structure solvers'
    Computer Physics Communications 222, 267-285 (2018).
    http://doi.org/10.1016/j.cpc.2017.09.007


  For the real-space grid partitioning and parallelization used in this calculation, please cite:

    Ville Havu, Volker Blum, Paula Havu, and Matthias Scheffler,
    'Efficient O(N) integration for all-electron electronic structure calculation'
    'using numerically tabulated basis functions'
    Journal of Computational Physics 228, 8367-8379 (2009).
    http://doi.org/10.1016/j.jcp.2009.08.008


  The high-level electronic structure method used in your calculation
  employed our efficient localized resolution of identity for the Coulomb operator.
  Some calculations, especially large-scale hybrid density functional theory,
  are only possible thanks to this development. For this feature, please cite:

    Arvid Ihrig, Juergen Wieferink, Igor Ying Zhang, Matti Ropo, Xinguo Ren,
    Patrick Rinke, Matthias Scheffler, and Volker Blum,
    'Accurate localized resolution of identity approach for linear-scaling
    hybrid density functionals and for many-body perturbation theory'
    New Journal of Physics 117, 093020 (2015).
    http://doi.org/10.1088/1367-2630/17/9/093020

  Of course, there are many other important community references, e.g., those cited in the
  above references. Our list is limited to references that describe implementations in the
  FHI-aims code. The reason is purely practical (length of this list) - please credit others as well.
------------------------------------------------------------
Warnings summary:

At least    1 warnings were raised during execution.

------------------------------------------------------------
          Leaving FHI-aims.
          Date     :  20260729, Time     :  183356.040

          Computational steps:
          | Number of self-consistency cycles          :           16
          | Number of SCF (re)initializations          :            1

          Detailed time accounting                     :  max(cpu_time)    wall_clock(cpu1)
          | Total time                                  :        6.144 s           8.058 s
          | Preparation time                            :        0.123 s           0.538 s
          | Boundary condition initalization            :        0.002 s           0.002 s
          | Grid partitioning                           :        0.034 s           0.034 s
          | Preloading free-atom quantities on grid     :        0.008 s           0.008 s
          | Free-atom superposition energy              :        0.002 s           0.002 s
          | Total time for integrations                 :        0.132 s           0.131 s
          | Product basis setup: Total time             :        1.358 s           2.066 s
          | Total time evaluating exchange matrix       :        0.411 s           0.423 s
          | Total time for solution of K.-S. equations  :        0.229 s           0.262 s
          | Total time for density update               :        0.070 s           0.071 s
          | Total time for mixing                       :        3.620 s           1.747 s
          | Total time for Hartree multipole update     :        0.032 s           0.034 s
          | Total time for Hartree multipole sum        :        0.111 s           0.112 s
          | Total time for total energy evaluation      :        0.001 s           0.001 s
          | Total time for scaled ZORA corrections      :        0.000 s           0.000 s

          Partial memory accounting:
          | Residual value for overall tracked memory usage across tasks:     0.000000 MB (should be 0.000000 MB)
          | Peak values for overall tracked memory usage:
          |   Minimum:        1.868 MB (on task 57 after allocating gradient_basis_wave)
          |   Maximum:        2.947 MB (on task 59 after allocating gradient_basis_wave)
          |   Average:        2.166 MB
          | Largest tracked array allocation:
          |   Minimum:        0.691 MB (aux_mat on task  1)
          |   Maximum:        1.261 MB (ovlp3fn2%dat on task 11)
          |   Average:        0.780 MB
          Note:  These values currently only include a subset of arrays which are explicitly tracked.
          The "true" memory usage will be greater.

          Have a nice day.
------------------------------------------------------------
