------------------------------------------------------------
          Invoking FHI-aims ...

          When using FHI-aims, please cite the following reference:

            Volker Blum, Ralf Gehrke, Felix Hanke, Paula Havu,
            Ville Havu, Xinguo Ren, Karsten Reuter, and Matthias Scheffler,
            'Ab Initio Molecular Simulations with Numeric Atom-Centered Orbitals',
            Computer Physics Communications 180, 2175-2196 (2009)

          In addition, many other developments in FHI-aims are likely important for
          your particular application. If so, please cite them. A partial list of references
          is written at the end of this file. Thank you for giving credit to the authors
          of these developments.

          For general information about FHI-aims please find us at

            https://fhi-aims.org

          Online tutorials can be found at

            https://fhi-aims-club.gitlab.io/tutorials/tutorials-overview/

          For any questions about FHI-aims, please visit our slack channel at

            https://fhi-aims.slack.com

          and our main development and support site at

            https://aims-git.rz-berlin.mpg.de .

          The latter site, in particular, has a wiki to collect information, as well
          as an issue tracker to log discussions, suggest improvements, and report issues
          or bugs. https://aims-git.rz-berlin.mpg.de is also the main development site
          of the project and all new and updated code versions can be obtained there.
          Please send an email to aims-coordinators@ms1p.org and we will add
          you to these sites. They are for you and everyone is welcome there.

------------------------------------------------------------



  Date     :  20260717, Time     :  150631.487
  Time zero on CPU 1             :   0.216467000000000E+00  s.
  Internal wall clock time zero  :           553532791.487  s.

  FHI-aims created a unique identifier for this run for later identification
  aims_uuid : 84BDD3AA-C8EA-47AE-A8B1-A7063121B743

  Build configuration of the current instance of FHI-aims
  -------------------------------------------------------
  FHI-aims version      : 260331
  Commit number         : GITDIR-NOTFOUND
  CMake host system     : Linux-4.18.0-553.97.1.el8_10.x86_64
  CMake version         : 3.31.6
  OS Distribution       : Rocky Linux 8.10 (Green Obsidian)
  Built on              : Intel(R) Xeon(R) w5-3435X
  Fortran compiler      : /mnt/sw/nix/store/pa59vldasm7gxpr7dkijhk09q5qq63q1-openmpi-4.1.8/bin/mpifort (GNU) version 13.3.0
  Fortran compiler flags: -O2 -fallow-argument-mismatch -ffree-line-length-none
  C compiler            : /mnt/sw/nix/store/pa59vldasm7gxpr7dkijhk09q5qq63q1-openmpi-4.1.8/bin/mpicc (GNU) version 13.3.0
  C compiler flags      : -O2
  C++ compiler          : /mnt/sw/nix/store/pa59vldasm7gxpr7dkijhk09q5qq63q1-openmpi-4.1.8/bin/mpicxx (GNU) version 13.3.0
  C++ compiler flags    : -O2
  HIP compiler          :
  HIP compiler flags    :
  HIP GPU arch          :
  Using MPI
  Using ScaLAPACK
  Using LibXC
  Using i-PI
  Using RLSY
  Using GREENX
  Linking against: /mnt/sw/nix/store/dwd607jzx9m5bdd100br72s3b6g05zrf-intel-oneapi-mkl-2024.2.2/mkl/2024.2/lib/libmkl_intel_lp64.so
                   /mnt/sw/nix/store/dwd607jzx9m5bdd100br72s3b6g05zrf-intel-oneapi-mkl-2024.2.2/mkl/2024.2/lib/libmkl_sequential.so
                   /mnt/sw/nix/store/dwd607jzx9m5bdd100br72s3b6g05zrf-intel-oneapi-mkl-2024.2.2/mkl/2024.2/lib/libmkl_core.so
                   /mnt/sw/nix/store/dwd607jzx9m5bdd100br72s3b6g05zrf-intel-oneapi-mkl-2024.2.2/mkl/2024.2/lib/libmkl_blacs_openmpi_lp64.so
                   /mnt/sw/nix/store/dwd607jzx9m5bdd100br72s3b6g05zrf-intel-oneapi-mkl-2024.2.2/mkl/2024.2/lib/libmkl_scalapack_lp64.so

  Using       64 parallel tasks.
  Task        0 on host worker6044 reporting.
  Task        1 on host worker6044 reporting.
  Task        2 on host worker6044 reporting.
  Task        3 on host worker6044 reporting.
  Task        4 on host worker6044 reporting.
  Task        5 on host worker6044 reporting.
  Task        6 on host worker6044 reporting.
  Task        7 on host worker6044 reporting.
  Task        8 on host worker6044 reporting.
  Task        9 on host worker6044 reporting.
  Task       10 on host worker6044 reporting.
  Task       11 on host worker6044 reporting.
  Task       12 on host worker6044 reporting.
  Task       13 on host worker6044 reporting.
  Task       14 on host worker6044 reporting.
  Task       15 on host worker6044 reporting.
  Task       16 on host worker6044 reporting.
  Task       17 on host worker6044 reporting.
  Task       18 on host worker6044 reporting.
  Task       19 on host worker6044 reporting.
  Task       20 on host worker6044 reporting.
  Task       21 on host worker6044 reporting.
  Task       22 on host worker6044 reporting.
  Task       23 on host worker6044 reporting.
  Task       24 on host worker6044 reporting.
  Task       25 on host worker6044 reporting.
  Task       26 on host worker6044 reporting.
  Task       27 on host worker6044 reporting.
  Task       28 on host worker6044 reporting.
  Task       29 on host worker6044 reporting.
  Task       30 on host worker6044 reporting.
  Task       31 on host worker6044 reporting.
  Task       32 on host worker6045 reporting.
  Task       33 on host worker6045 reporting.
  Task       34 on host worker6045 reporting.
  Task       35 on host worker6045 reporting.
  Task       36 on host worker6045 reporting.
  Task       37 on host worker6045 reporting.
  Task       38 on host worker6045 reporting.
  Task       39 on host worker6045 reporting.
  Task       40 on host worker6045 reporting.
  Task       41 on host worker6045 reporting.
  Task       42 on host worker6045 reporting.
  Task       43 on host worker6045 reporting.
  Task       44 on host worker6045 reporting.
  Task       45 on host worker6045 reporting.
  Task       46 on host worker6045 reporting.
  Task       47 on host worker6045 reporting.
  Task       48 on host worker6045 reporting.
  Task       49 on host worker6045 reporting.
  Task       50 on host worker6045 reporting.
  Task       51 on host worker6045 reporting.
  Task       52 on host worker6045 reporting.
  Task       53 on host worker6045 reporting.
  Task       54 on host worker6045 reporting.
  Task       55 on host worker6045 reporting.
  Task       56 on host worker6045 reporting.
  Task       57 on host worker6045 reporting.
  Task       58 on host worker6045 reporting.
  Task       59 on host worker6045 reporting.
  Task       60 on host worker6045 reporting.
  Task       61 on host worker6045 reporting.
  Task       62 on host worker6045 reporting.
  Task       63 on host worker6045 reporting.

  Obtaining array dimensions for all initial allocations:
  
  -----------------------------------------------------------------------
  Parsing control.in (first pass over file, find array dimensions only).
  The contents of control.in will be repeated verbatim below
  unless switched off by setting 'verbatim_writeout .false.' .
  in the first line of control.in .
  -----------------------------------------------------------------------
  
  override_warning_libxc             True
  xc                                 libxc HYB_MGGA_XC_WB97M_V
  
  spin                               none
  charge                             0
  
  relativistic                       atomic_zora scalar
  atomic_solver_xc                   pbe
  ionic_solver_xc                    pbe
  
  occupation_type                    gaussian 0.01
  
  sc_accuracy_rho                    1e-06
  sc_accuracy_eev                    1e-03
  sc_accuracy_etot                   1e-06
  occupation_acc                     1e-09
  
  charge_mix_param                   0.1
  n_max_pulay                        8
  max_zeroin                         20000
  
  # Species defaults for B
  ################################################################################
  #
  #  FHI-aims code project
  #  Volker Blum, Fritz Haber Institute Berlin, 2009
  #
  #  Suggested "tight" defaults for B atom (to be pasted into control.in file)
  #
  ################################################################################
    species        B
  #     global species definitions
      nucleus             5
      mass                10.811
  #
      l_hartree           6
  #
      cut_pot             4.0  2.0  1.0
      basis_dep_cutoff    1e-4
  #
      radial_base         32 7.0
      radial_multiplier   2
      angular_grids       specified
        division   0.3742  110
        division   0.5197  194
        division   0.5753  302
        division   0.7664  434
  #      division   0.8392  770
  #      division   1.6522  974
  #      outer_grid   974
        outer_grid  434
  ################################################################################
  #
  #  Definition of "minimal" basis
  #
  ################################################################################
  #     valence basis states
      valence      2  s   2.
      valence      2  p   1.
  #     ion occupancy
      ion_occ      2  s   1.
  ################################################################################
  #
  #  Suggested additional basis functions. For production calculations,
  #  uncomment them one after another (the most important basis functions are
  #  listed first).
  #
  #  Constructed for dimers: 1.25 A, 1.625 A, 2.5 A, 3.5 A
  #
  ################################################################################
  #  "First tier" - improvements: -710.52 meV to -92.39 meV
       hydro 2 p 1.4
       hydro 3 d 4.8
       hydro 2 s 4
  #  "Second tier" - improvements: -33.88 meV to -2.20 meV
       hydro 4 f 7.8
       hydro 3 p 4.2
       hydro 3 s 3.3
       hydro 5 g 11.2
       hydro 3 d 5.4
  #  "Third tier" - improvements: -1.28 meV to -0.36 meV
  #     hydro 2 p 4.7
  #     hydro 2 s 8.4
  #     hydro 4 d 5.8
  #  "Fourth tier" - improvements: -0.25 meV to -0.12 meV
  #     hydro 3 p 2.2
  #     hydro 3 s 3
  #     hydro 4 f 9.8
  #     hydro 5 g 12.8
  #     hydro 4 d 10
  #  Further functions
  #     hydro 4 f 14
  #     hydro 3 p 12.4
  ################################################################################
  #
  # For methods that use the localized form of the "resolution of identity" for
  # the two-electron Coulomb operator (RI_method LVL), particularly Hartree-Fock and
  # hybrid density functional calculations, the highest accuracy can be obtained by
  # uncommenting the line beginning with "for_aux"  below, thus adding an extra g radial
  # function to the construction of the product basis set for the expansion.
  # See Ref. New J. Phys. 17, 093020 (2015) for more information, particularly Figs. 1 and 6.
  #
  ################################################################################
  #
  # for_aux hydro 5 g 6.0
  
  # Species defaults for N
  ################################################################################
  #
  #  FHI-aims code project
  #  Volker Blum, Fritz Haber Institute Berlin, 2009
  #
  #  Suggested "tight" defaults for N atom (to be pasted into control.in file)
  #
  ################################################################################
    species        N
  #     global species definitions
      nucleus             7
      mass                14.0067
  #
      l_hartree           6
  #
      cut_pot             4.0  2.0  1.0
      basis_dep_cutoff    1e-4
  #
      radial_base         35 7.0
      radial_multiplier   2
      angular_grids       specified
        division   0.1841   50
        division   0.3514  110
        division   0.5126  194
        division   0.6292  302
        division   0.6939  434
  #      division   0.7396  590
  #      division   0.7632  770
  #      division   0.8122  974
  #      division   1.1604 1202
  #      outer_grid  974
        outer_grid  434
  ################################################################################
  #
  #  Definition of "minimal" basis
  #
  ################################################################################
  #     valence basis states
      valence      2  s   2.
      valence      2  p   3.
  #     ion occupancy
      ion_occ      2  s   1.
      ion_occ      2  p   2.
  ################################################################################
  #
  #  Suggested additional basis functions. For production calculations,
  #  uncomment them one after another (the most important basis functions are
  #  listed first).
  #
  #  Constructed for dimers: 1.0 A, 1.1 A, 1.5 A, 2.0 A, 3.0 A
  #
  ################################################################################
  #  "First tier" - improvements: -1193.42 meV to -220.60 meV
       hydro 2 p 1.8
       hydro 3 d 6.8
       hydro 3 s 5.8
  #  "Second tier" - improvements: -80.21 meV to -6.86 meV
       hydro 4 f 10.8
       hydro 3 p 5.8
       hydro 1 s 0.8
       hydro 5 g 16
       hydro 3 d 4.9
  #  "Third tier" - improvements: -4.29 meV to -0.53 meV
  #     hydro 3 s 16
  #     ionic 2 p auto
  #     hydro 3 d 6.6
  #     hydro 4 f 11.6
  #  "Fourth tier" - improvements: -0.75 meV to -0.25 meV
  #     hydro 2 p 4.5
  #     hydro 2 s 2.4
  #     hydro 5 g 14.4
  #     hydro 4 d 14.4
  #     hydro 4 f 16.8
  # Further basis functions - -0.21 meV and below
  #     hydro 3 p 14.8
  #     hydro 3 s 4.4
  #     hydro 3 d 19.6
  #     hydro 5 g 12.8
  ################################################################################
  #
  # For methods that use the localized form of the "resolution of identity" for
  # the two-electron Coulomb operator (RI_method LVL), particularly Hartree-Fock and
  # hybrid density functional calculations, the highest accuracy can be obtained by
  # uncommenting the line beginning with "for_aux"  below, thus adding an extra g radial
  # function to the construction of the product basis set for the expansion.
  # See Ref. New J. Phys. 17, 093020 (2015) for more information, particularly Figs. 1 and 6.
  #
  ################################################################################
  #
  # for_aux hydro 5 g 6.0
  
  -----------------------------------------------------------------------
  Completed first pass over input file control.in .
  -----------------------------------------------------------------------
  
  
  -----------------------------------------------------------------------
  Parsing geometry.in (first pass over file, find array dimensions only).
  The contents of geometry.in will be repeated verbatim below
  unless switched off by setting 'verbatim_writeout .false.' .
  in the first line of geometry.in .
  -----------------------------------------------------------------------
  
  #===============================================================================
  # Created using the Atomic Simulation Environment (ASE)
  
  # Fri Jul 17 14:57:16 2026
  
  #=======================================================
  atom 0.0000000000000000 0.0000000000000000 0.0000000000000000 B
  atom 0.0000000000000000 0.0000000000000000 1.5120000000000000 N
  
  -----------------------------------------------------------------------
  Completed first pass over input file geometry.in .
  -----------------------------------------------------------------------
  

  Basic array size parameters:
  | Number of species                 :        2
  | Number of atoms                   :        2
  | Max. basis fn. angular momentum   :        4
  | Max. atomic/ionic basis occupied n:        2
  | Max. number of basis fn. types    :        2
  | Max. radial fns per species/type  :        8
  | Max. logarithmic grid size        :     1290
  | Max. radial integration grid size :       71
  | Max. angular integration grid size:      434
  | Max. angular grid division number :        8
  | Radial grid for Hartree potential :     1290
  | Number of spin channels           :        1

  Definition of standardized fundamental physical constants in this FHI-aims run:
  | Using the set of values used in FHI-aims up to 2024, which combines values from
  | different CODATA sets - see constants.f90.
  | Use the 'codata' keyword in control.in to change this selection.

  Memory overcommitment is allowed on your operating system.

------------------------------------------------------------
          Reading file control.in.
------------------------------------------------------------
  XC: Using LibXC. Please refer to LibXC output for further details.
  Using libxc - Initializing
  Libxc version: 6.1.0

  You have selected libxc functional HYB_MGGA_XC_WB97M_V (531)
    - Description: wB97M-V exchange-correlation functional
    - Type: Hybrid MGGA(Exchange-correlation)
    - Using the following  17 external libxc parameters:
             _cx00 = 0.850000000000D+00  (u^00 coefficient for exchange)
             _cx01 = 0.100700000000D+01  (u^01 coefficient for exchange)
             _cx10 = 0.259000000000D+00  (u^10 coefficient for exchange)
            _css00 = 0.443000000000D+00  (u^00 coefficient for same-spin correlation)
            _css04 =-0.143700000000D+01  (u^04 coefficient for same-spin correlation)
            _css10 =-0.453500000000D+01  (u^10 coefficient for same-spin correlation)
            _css20 =-0.339000000000D+01  (u^20 coefficient for same-spin correlation)
            _css43 = 0.427800000000D+01  (u^43 coefficient for same-spin correlation)
            _cos00 = 0.100000000000D+01  (u^00 coefficient for opposite-spin correlation)
            _cos10 = 0.135800000000D+01  (u^10 coefficient for opposite-spin correlation)
            _cos20 = 0.292400000000D+01  (u^20 coefficient for opposite-spin correlation)
            _cos21 =-0.881200000000D+01  (u^21 coefficient for opposite-spin correlation)
            _cos60 =-0.139000000000D+01  (u^60 coefficient for opposite-spin correlation)
            _cos61 = 0.914200000000D+01  (u^61 coefficient for opposite-spin correlation)
            _alpha = 0.100000000000D+01  (fraction of HF exchange)
             _beta =-0.850000000000D+00  (fraction of short-range exchange)
            _omega = 0.300000000000D+00  (range-separation constant)
    - Reference to Literature:
      [1] N. Mardirossian and M. Head-Gordon.,  J. Chem. Phys. 144, 214110 (2016)

  Obtaining Hybrid Functional Parameters from Libxc:
  Fraction of Hartree-Fock exchange ALPHA:      1.00000000
  Fraction of short-range exchange BETA  :     -0.85000000
  Range-separation parameter OMEGA       :      0.30000000
  Detecting a range-separated Hybrid functional
  This translates into the following internal FHI-aims parameters:
  hybrid_coeff           =      0.15000000
  hybrid_coeff_LR        =      1.00000000
  hse_omega              =      0.30000000
  hse_omega_hf           =      0.30000000
  use_hse                =               F
  use_lc_wpbeh           =               T
  use_yukawa             =               F
  Spin treatment: No spin polarisation.
  Charge =   0.000000E+00: Neutral system requested explicitly.
  Scalar relativistic treatment of kinetic energy: on-site free-atom approximation to ZORA.
  Atomic Solver XC: Using user-defined functional for generating the minimal NAO basis functions.
  Note that only the following functionals are available: kli, pz-lda, pw-lda, vwn, vwn-gauss, pw91_gga, pbe, rpbe, revpbe, pbeint, pbesol, blyp.
  Ionic Solver XC: Using user-defined functional for generating the minimal NAO basis functions.
  Note that only the following functionals are available: kli, pz-lda, pw-lda, vwn, vwn-gauss, pw91_gga, pbe, rpbe, revpbe, pbeint, pbesol, blyp.
  Occupation type: Gaussian broadening, width =   0.100000E-01 eV.
  Convergence accuracy of self-consistent charge density:  0.1000E-05
  Convergence accuracy of sum of eigenvalues:  0.1000E-02
  Convergence accuracy of total energy:  0.1000E-05
  Accuracy of occupation numbers  :  0.1000E-08
  Charge density mixing - mixing parameter:     0.1000
  Pulay mixing - number of memorized iterations:    8
  Maximum # of zeroin steps  : ****

  Reading configuration options for species B                   .
  | Found nuclear charge :   5.0000
  | Found atomic mass :    10.811000000000000      amu
  | Found l_max for Hartree potential  :   6
  | Found cutoff potl. onset [A], width [A], scale factor :    4.00000    2.00000    1.00000
  | Threshold for basis-dependent cutoff potential is   0.100000E-03
  | Found data for basic radial integration grid :    32 points, outermost radius =    7.000 A
  | Found multiplier for basic radial grid :   2
  | Found angular grid specification: user-specified.
  | Specified grid contains     5 separate shells.
  | Check grid settings after all constraints further below.
  | Found free-atom valence shell :  2 s   2.000
  | Found free-atom valence shell :  2 p   1.000
  | No ionic wave fns used. Skipping ion_occ.
  | Found hydrogenic basis function :  2 p   1.400
  | Found hydrogenic basis function :  3 d   4.800
  | Found hydrogenic basis function :  2 s   4.000
  | Found hydrogenic basis function :  4 f   7.800
  | Found hydrogenic basis function :  3 p   4.200
  | Found hydrogenic basis function :  3 s   3.300
  | Found hydrogenic basis function :  5 g  11.200
  | Found hydrogenic basis function :  3 d   5.400
 | Encountered keyword species, ending the description of species B                   .
  Species B                   : Missing cutoff potential type.
  Defaulting to exp(1/x)/(1-x)^2 type cutoff potential.
  Species B : No 'logarithmic' tag. Using default grid for free atom:
  | Default logarithmic grid data [bohr] : 0.1000E-03 0.1000E+03 0.1012E+01
  Species B : On-site basis accuracy parameter (for Gram-Schmidt orthonormalisation) not specified.
  Using default value basis_acc =  0.1000000E-03.
  Species B                   : Using default innermost maximum threshold i_radial=  2 for radial functions.
  Species B                   : Default cutoff onset for free atom density etc. : 0.40000000E+01 AA.
  Species B                   : Basic radial grid will be enhanced according to radial_multiplier =   2, to contain    65 grid points.

  Reading configuration options for species N                   .
  | Found nuclear charge :   7.0000
  | Found atomic mass :    14.006700000000000      amu
  | Found l_max for Hartree potential  :   6
  | Found cutoff potl. onset [A], width [A], scale factor :    4.00000    2.00000    1.00000
  | Threshold for basis-dependent cutoff potential is   0.100000E-03
  | Found data for basic radial integration grid :    35 points, outermost radius =    7.000 A
  | Found multiplier for basic radial grid :   2
  | Found angular grid specification: user-specified.
  | Specified grid contains     6 separate shells.
  | Check grid settings after all constraints further below.
  | Found free-atom valence shell :  2 s   2.000
  | Found free-atom valence shell :  2 p   3.000
  | No ionic wave fns used. Skipping ion_occ.
  | No ionic wave fns used. Skipping ion_occ.
  | Found hydrogenic basis function :  2 p   1.800
  | Found hydrogenic basis function :  3 d   6.800
  | Found hydrogenic basis function :  3 s   5.800
  | Found hydrogenic basis function :  4 f  10.800
  | Found hydrogenic basis function :  3 p   5.800
  | Found hydrogenic basis function :  1 s   0.800
  | Found hydrogenic basis function :  5 g  16.000
  | Found hydrogenic basis function :  3 d   4.900
  Species N                   : Missing cutoff potential type.
  Defaulting to exp(1/x)/(1-x)^2 type cutoff potential.
  Species N : No 'logarithmic' tag. Using default grid for free atom:
  | Default logarithmic grid data [bohr] : 0.1000E-03 0.1000E+03 0.1012E+01
  Species N : On-site basis accuracy parameter (for Gram-Schmidt orthonormalisation) not specified.
  Using default value basis_acc =  0.1000000E-03.
  Species N                   : Using default innermost maximum threshold i_radial=  2 for radial functions.
  Species N                   : Default cutoff onset for free atom density etc. : 0.40000000E+01 AA.
  Species N                   : Basic radial grid will be enhanced according to radial_multiplier =   2, to contain    71 grid points.

  Finished reading input file 'control.in'.

------------------------------------------------------------


------------------------------------------------------------
          Reading geometry description geometry.in.
------------------------------------------------------------
  | The smallest distance between any two atoms is         1.51200000 AA.
  | The first atom of this pair is atom number                      1 .
  | The second atom of this pair is atom number                     2 .
  Input structure read successfully.
  The structure contains        2 atoms,  and a total of         12.000 electrons.

  Input geometry:
  | No unit cell requested.
  | Atomic structure:
  |       Atom                x [A]            y [A]            z [A]
  |    1: Species B             0.00000000        0.00000000        0.00000000
  |    2: Species N             0.00000000        0.00000000        1.51200000

  Slab Identifier: This is not a periodic structure.

  Finished reading input file 'geometry.in'.



  Consistency checks for stacksize environment parameter are next.

  | Maximum stacksize for task 0: unlimited
  | Maximum stacksize for task 1: unlimited
  | Maximum stacksize for task 2: unlimited
  | Maximum stacksize for task 3: unlimited
  | Maximum stacksize for task 4: unlimited
  | Maximum stacksize for task 5: unlimited
  | Maximum stacksize for task 6: unlimited
  | Maximum stacksize for task 7: unlimited
  | Maximum stacksize for task 8: unlimited
  | Maximum stacksize for task 9: unlimited
  | Maximum stacksize for task 10: unlimited
  | Maximum stacksize for task 11: unlimited
  | Maximum stacksize for task 12: unlimited
  | Maximum stacksize for task 13: unlimited
  | Maximum stacksize for task 14: unlimited
  | Maximum stacksize for task 15: unlimited
  | Maximum stacksize for task 16: unlimited
  | Maximum stacksize for task 17: unlimited
  | Maximum stacksize for task 18: unlimited
  | Maximum stacksize for task 19: unlimited
  | Maximum stacksize for task 20: unlimited
  | Maximum stacksize for task 21: unlimited
  | Maximum stacksize for task 22: unlimited
  | Maximum stacksize for task 23: unlimited
  | Maximum stacksize for task 24: unlimited
  | Maximum stacksize for task 25: unlimited
  | Maximum stacksize for task 26: unlimited
  | Maximum stacksize for task 27: unlimited
  | Maximum stacksize for task 28: unlimited
  | Maximum stacksize for task 29: unlimited
  | Maximum stacksize for task 30: unlimited
  | Maximum stacksize for task 31: unlimited
  | Maximum stacksize for task 32: unlimited
  | Maximum stacksize for task 33: unlimited
  | Maximum stacksize for task 34: unlimited
  | Maximum stacksize for task 35: unlimited
  | Maximum stacksize for task 36: unlimited
  | Maximum stacksize for task 37: unlimited
  | Maximum stacksize for task 38: unlimited
  | Maximum stacksize for task 39: unlimited
  | Maximum stacksize for task 40: unlimited
  | Maximum stacksize for task 41: unlimited
  | Maximum stacksize for task 42: unlimited
  | Maximum stacksize for task 43: unlimited
  | Maximum stacksize for task 44: unlimited
  | Maximum stacksize for task 45: unlimited
  | Maximum stacksize for task 46: unlimited
  | Maximum stacksize for task 47: unlimited
  | Maximum stacksize for task 48: unlimited
  | Maximum stacksize for task 49: unlimited
  | Maximum stacksize for task 50: unlimited
  | Maximum stacksize for task 51: unlimited
  | Maximum stacksize for task 52: unlimited
  | Maximum stacksize for task 53: unlimited
  | Maximum stacksize for task 54: unlimited
  | Maximum stacksize for task 55: unlimited
  | Maximum stacksize for task 56: unlimited
  | Maximum stacksize for task 57: unlimited
  | Maximum stacksize for task 58: unlimited
  | Maximum stacksize for task 59: unlimited
  | Maximum stacksize for task 60: unlimited
  | Maximum stacksize for task 61: unlimited
  | Maximum stacksize for task 62: unlimited
  | Maximum stacksize for task 63: unlimited
  | Current stacksize for task 0: unlimited
  | Current stacksize for task 1: unlimited
  | Current stacksize for task 2: unlimited
  | Current stacksize for task 3: unlimited
  | Current stacksize for task 4: unlimited
  | Current stacksize for task 5: unlimited
  | Current stacksize for task 6: unlimited
  | Current stacksize for task 7: unlimited
  | Current stacksize for task 8: unlimited
  | Current stacksize for task 9: unlimited
  | Current stacksize for task 10: unlimited
  | Current stacksize for task 11: unlimited
  | Current stacksize for task 12: unlimited
  | Current stacksize for task 13: unlimited
  | Current stacksize for task 14: unlimited
  | Current stacksize for task 15: unlimited
  | Current stacksize for task 16: unlimited
  | Current stacksize for task 17: unlimited
  | Current stacksize for task 18: unlimited
  | Current stacksize for task 19: unlimited
  | Current stacksize for task 20: unlimited
  | Current stacksize for task 21: unlimited
  | Current stacksize for task 22: unlimited
  | Current stacksize for task 23: unlimited
  | Current stacksize for task 24: unlimited
  | Current stacksize for task 25: unlimited
  | Current stacksize for task 26: unlimited
  | Current stacksize for task 27: unlimited
  | Current stacksize for task 28: unlimited
  | Current stacksize for task 29: unlimited
  | Current stacksize for task 30: unlimited
  | Current stacksize for task 31: unlimited
  | Current stacksize for task 32: unlimited
  | Current stacksize for task 33: unlimited
  | Current stacksize for task 34: unlimited
  | Current stacksize for task 35: unlimited
  | Current stacksize for task 36: unlimited
  | Current stacksize for task 37: unlimited
  | Current stacksize for task 38: unlimited
  | Current stacksize for task 39: unlimited
  | Current stacksize for task 40: unlimited
  | Current stacksize for task 41: unlimited
  | Current stacksize for task 42: unlimited
  | Current stacksize for task 43: unlimited
  | Current stacksize for task 44: unlimited
  | Current stacksize for task 45: unlimited
  | Current stacksize for task 46: unlimited
  | Current stacksize for task 47: unlimited
  | Current stacksize for task 48: unlimited
  | Current stacksize for task 49: unlimited
  | Current stacksize for task 50: unlimited
  | Current stacksize for task 51: unlimited
  | Current stacksize for task 52: unlimited
  | Current stacksize for task 53: unlimited
  | Current stacksize for task 54: unlimited
  | Current stacksize for task 55: unlimited
  | Current stacksize for task 56: unlimited
  | Current stacksize for task 57: unlimited
  | Current stacksize for task 58: unlimited
  | Current stacksize for task 59: unlimited
  | Current stacksize for task 60: unlimited
  | Current stacksize for task 61: unlimited
  | Current stacksize for task 62: unlimited
  | Current stacksize for task 63: unlimited

  Consistency checks for the contents of control.in are next.

  Coulomb operator: Defaulting to logarithmic spherical Bessel transform integrals (use_logsbt .true.).
  LC-wPBEh screening parameters: omega  =      0.30000000 bohr^-1, and
                                 alpha =      0.15000000.
  MPI_IN_PLACE appears to work with this MPI implementation.
  | Keeping use_mpi_in_place .true. (see manual).
  Explicit treatment of the Coulomb operator is needed, but the RI method is not specified.
  Coulomb operator: Defaulting to 'LVL fast' resolution of identity - RI_type = LVL_fast
  Species B: Using default value for prodbas_acc =   1.000000E-04.
  Species B: Using default value max_l_prodbas =    20.
  Species N: Using default value for prodbas_acc =   1.000000E-04.
  Species N: Using default value max_l_prodbas =    20.
  Target number of points in a grid batch is not set. Defaulting to  100
  Method for grid partitioning is not set. Defaulting to parallel hash+maxmin partitioning.
  Batch size limit is not set. Defaulting to    200
  By default, will store active basis functions for each batch.
  If in need of memory, prune_basis_once .false. can be used to disable this option.
  communication_type for Hartree potential was not specified.
  Defaulting to calc_hartree .
  Defaulting to Pulay charge density mixer.
  Pulay mixer: Number of initial linear mixing iterations not set.
  Defaulting to    0 iterations.
  Work space size for distributed Hartree potential not set.
  Defaulting to   0.200000E+03 MB.
  Algorithm-dependent basis array size parameters:
  | n_max_pulay                         :        8
  Maximum number of self-consistency iterations not provided.
  Presetting  1000 iterations.
  Presetting      1001 iterations before the initial mixing cycle
  is restarted anyway using the sc_init_iter criterion / keyword.
  Presetting a factor      1.000 between actual scf density residual
  and density convergence criterion sc_accuracy_rho below which sc_init_iter
  takes no effect.
  Calculation of forces was not defined in control.in. No forces will be calculated.
  Geometry relaxation not requested: no relaxation will be performed.
  No accuracy limit for integral partition fn. given. Defaulting to  0.1000E-14.
  No threshold value for u(r) in integrations given. Defaulting to  0.1000E-05.
  No threshold value for occupation numbers given. Defaulting to  0.0000E+00.
  No accuracy for fermi level given. Defaulting to  0.1000E-19.
  Preferred method for the eigenvalue solver ('KS_method') not specified in 'control.in'.
  Calling BLACS routine to test compilation state
  Since ScaLAPACK support is enabled, defaulting to ELPA (via ELSI).
  Threshold for basis singularities not set.
  Default threshold for basis singularities:  0.1000E-04
  partition_type (choice of integration weights) for integrals was not specified.
  | Using a version of the partition function of Stratmann and coworkers ('stratmann_sparse').
  | At each grid point, the set of atoms used to build the partition table is smoothly restricted to
  | only those atoms whose free-atom density would be non-zero at that grid point.
  Partitioning for Hartree potential was not defined. Using partition_type for integrals.
  | Adjusted default value of keyword multip_moments_threshold to:       0.10000000E-11
  | This value may affect high angular momentum components of the Hartree potential in periodic systems.
  Threshold for auxiliary basis singularities not set.
  Default threshold for auxiliary basis singularities:  0.1000E-04
  Use default threshold for vanishing multipole moments of auxiliary basis:  0.1000E-07
  No q(lm)/r^(l+1) cutoff set for long-range Hartree potential.
  | Using default value of  0.100000E-09 .
  | Verify using the multipole_threshold keyword.
  Defaulting to new monopole extrapolation.
  Density update method: automatic selection selected.
  Coulomb operator: Defaulting to screening threshold for four-center integrals:   0.100000E-06
  Coulomb operator: Defaulting to screening threshold for Coulomb matrix:   0.100000E-09
  Fock matrix calculation: Setting the screening threshold for overlap matrix to coul_mat_threshold:   0.100000E-09
  Coulomb operator: Defaulting to 'LVL_fast' resolution of identity - RI_type = LVL_fast 
  No other resolution of identity version is supported for periodic boundary conditions at present.
  Coulomb operator: Defaulting to logarithmic spherical Bessel transform integrals (use_logsbt .true.).
  Charge integration errors on the 3D integration grid will be compensated
  by explicit normalization and distribution of residual charges.
  Use the "compensate_multipole_errors" flag to change this behaviour.
  LVL not implemented with density matrix yet
  -> switching to transformed overlap
  LVL probably works better with logsbt
  Default to 1D ("use_logsbt") integrations for auxiliary 2-center integrals.
  Default onset of logarithmic r-grid for SBT is -38.000000000000
  Default onset of logarithmic k-grid for SBT is -25.000000000000
  Default range of logarithmic r- and k-grid for SBT is  45.000000000000
  Default number of logarithmic r- and k-grid for SBT is   4096
  Default of use_2d_corr is to use the efficient 2D distribution where possible
  Set 'collect_eigenvectors' to be '.true.' for use_density_matrix .false.
  Found potential conflicts with setting 'use_local_index' for this calculation. Will not set it.
** WARNING:

  You have specified the use of LibXC.

  ** PLEASE ** be careful using LibXC. Whilst most of the LDA, GGA and MGGA
  functionals, and hybrid variations therein, should be stable (though we
  always recommend testing!), there are several fancy functionals with e.g.
  range-separation, like HSE03/HSE06/LC-PBEh, and also MGGA functionals
  that depend on the laplacian of the density, like BR89, that are not
  fully implemented due to the infrastructure for these functionals being
  incomplete or non-generic.
  If you want to use these functionals please contact the development team
  and we will work on them with you!

** END OF WARNING

  Consistency checks for the contents of geometry.in are next.

  Number of empty states per atom not set in control.in - providing a guess from actual geometry.
  | Total number of empty states used during s.c.f. cycle:        6
  If you use a very high smearing, use empty_states (per atom!) in control.in to increase this value.

  Structure-dependent array size parameters: 
  | Maximum number of distinct radial functions  :       22
  | Maximum number of basis functions            :       78
  | Number of Kohn-Sham states (occupied + empty):       12
------------------------------------------------------------
  After read_input_data [GB]:   1003.50

  Performing system and environment tests:
  | Environment variable OMP_NUM_THREADS correctly set to 1.
  | Checking for ScaLAPACK...
  | Testing pdtran()...
  *** WARNING: CPU mismatch detected for Node worker6045 : Intel(R) Xeon(R) Platinum 8362 CPU @ 2.80GHz                                                 
  | All pdtran() tests passed.
  | Testing CPU compatibility for run-time vs. build-time.
  | Reading /proc/cpuinfo for CPU information ...
  | Built for  : Intel(R) Xeon(R) w5-3435X
  *** WARNING: CPU mismatch detected for Node worker6044 : Intel(R) Xeon(R) Platinum 8362 CPU @ 2.80GHz                                                 
** WARNING:
  | WARNING: This FHI-aims executable was built on a different
  CPU type than the CPUs used in this run.

  | Running on different hardware than that on which a code was compiled
  | can produce incorrect results (wrong numbers) due to architecture-specific
  | optimizations made by the compiler. Those wrong numbers may occur only spuriously.
  | They are therefore very difficult to rule out even by tests ahead of time.

** END OF WARNING
  | Running on : Intel(R) Xeon(R) Platinum 8362 CPU @ 2.80GHz
  | Runtime CPU compatibility verified.
  
  After prepare_system [GB]:   1003.50

------------------------------------------------------------
          Preparing all fixed parts of the calculation.
------------------------------------------------------------
  Determining machine precision:
     2.2250738585072014E-308
  Setting up grids for atomic and cluster calculations.

  Creating wave function, potential, and density for free atoms.
  Runtime choices for atomic solver:
  | atomic solver xc        : PBE
  | compute density gradient: 1
  | compute kinetic density : T

  Species: B

  List of occupied orbitals and eigenvalues:
    n    l              occ      energy [Ha]    energy [eV]
    1    0           2.0000        -6.635780      -180.5688
    2    0           2.0000        -0.345517        -9.4020
    2    1           1.0000        -0.130792        -3.5590


  Species: N

  List of occupied orbitals and eigenvalues:
    n    l              occ      energy [Ha]    energy [eV]
    1    0           2.0000       -14.144983      -384.9046
    2    0           2.0000        -0.682735       -18.5782
    2    1           3.0000        -0.260361        -7.0848


  Adding cutoff potential to free-atom effective potential.
  Creating fixed part of basis set: Ionic, confined, hydrogenic.

  B                    hydrogenic:

  List of hydrogenic basis orbitals: 
    n    l      effective z      eigenvalue [eV]  inner max. [A]     outer max. [A]     outer radius [A]   
    2    1         1.400000        -6.6027           1.494848           1.494848           5.462314
    3    2         4.800000       -34.8303           0.986467           0.986467           4.893206
    2    0         4.000000       -54.4226           0.101523           0.692014           3.878983
    4    3         7.800000       -51.7355           1.087819           1.087819           4.716999
    3    1         4.200000       -26.6660           0.380156           1.513234           5.395944
    3    0         3.300000       -16.4170           0.119010           2.079440           5.462314
    5    4        11.200000       -68.2678           1.185008           1.185008           4.659684
    3    2         5.400000       -44.0822           0.883689           0.883689           4.491886


  N                    hydrogenic:

  List of hydrogenic basis orbitals: 
    n    l      effective z      eigenvalue [eV]  inner max. [A]     outer max. [A]     outer radius [A]   
    2    1         1.800000       -11.0118           1.177451           1.177451           5.427479
    3    2         6.800000       -69.9029           0.704619           0.704619           3.854246
    3    0         5.800000       -50.8549           0.067388           1.191934           4.629968
    4    3        10.800000       -99.1854           0.786571           0.786571           3.761152
    3    1         5.800000       -50.8549           0.274880           1.094176           4.518138
    1    0         0.800000        -8.7059           0.662839           0.662839           5.361532
    5    4        16.000000      -139.3222           0.825990           0.825990           3.625711
    3    2         4.900000       -36.2967           0.968267           0.968267           4.862000

  Creating atomic-like basis functions for current effective potential.

  Species B                   :

  List of atomic basis orbitals and eigenvalues:
    n    l      energy [Ha]    energy [eV]    outer radius [A]
    1    0        -6.635780      -180.5688       2.349843
    2    0        -0.345517        -9.4020       5.330380
    2    1        -0.130792        -3.5590       5.395944


  Species N                   :

  List of atomic basis orbitals and eigenvalues:
    n    l      energy [Ha]    energy [eV]    outer radius [A]
    1    0       -14.144983      -384.9046       1.637919
    2    0        -0.682735       -18.5782       5.168461
    2    1        -0.260361        -7.0848       5.361532

  Assembling full basis from fixed parts.
  | Species B :   atomic orbital   1 s accepted.
  | Species B :    hydro orbital   2 s accepted.
  | Species B :   atomic orbital   2 s accepted.
  | Species B :    hydro orbital   3 s accepted.
  | Species B :   atomic orbital   2 p accepted.
  | Species B :    hydro orbital   3 p accepted.
  | Species B :    hydro orbital   2 p accepted.
  | Species B :    hydro orbital   3 d accepted.
  | Species B :    hydro orbital   3 d accepted.
  | Species B :    hydro orbital   4 f accepted.
  | Species B :    hydro orbital   5 g accepted.
  | Species N :   atomic orbital   1 s accepted.
  | Species N :    hydro orbital   3 s accepted.
  | Species N :   atomic orbital   2 s accepted.
  | Species N :    hydro orbital   1 s accepted.
  | Species N :    hydro orbital   3 p accepted.
  | Species N :   atomic orbital   2 p accepted.
  | Species N :    hydro orbital   2 p accepted.
  | Species N :    hydro orbital   3 d accepted.
  | Species N :    hydro orbital   3 d accepted.
  | Species N :    hydro orbital   4 f accepted.
  | Species N :    hydro orbital   5 g accepted.

  Basis size parameters after reduction:
  | Total number of radial functions:       22
  | Total number of basis functions :       78

  Per-task memory consumption for arrays in subroutine allocate_ext:
  |           7.268336MB.
  Testing on-site integration grid accuracy.
  |  Species  Function  <phi|h_atom|phi> (log., in eV)  <phi|h_atom|phi> (rad., in eV)
           1        1               -180.5687569307               -180.5687561212
           1        2                 -7.1438314513                 -7.1438317353
           1        3                 12.0187568333                 12.0189574632
           1        4                 26.0253586390                 26.0301574813
           1        5                 -3.5612258789                 -3.5609079337
           1        6                 16.4693418663                 16.4693461551
           1        7                 10.2762796780                 10.2906678683
           1        8                 22.2596710941                 22.2596714919
           1        9                 36.6209961537                 36.6209620977
           1       10                 37.0814692226                 37.0814713082
           1       11                 55.9879741683                 55.9879744600
           2       12               -384.9045837902               -384.9045810034
           2       13                 12.5603464975                 12.5603454947
           2       14                -15.7898975009                -15.7898975784
           2       15                 26.9245114624                 26.9252865213
           2       16                 18.5932197356                 18.5932205974
           2       17                  1.2241635031                  1.2241662162
           2       18                 13.4399987726                 13.4405112381
           2       19                 35.9434723765                 35.9434722970
           2       20                 39.9236994475                 39.9237117159
           2       21                 72.9994981060                 72.9994982100
           2       22                116.4255814538                116.4255814827

  Preparing densities etc. for the partition functions (integrals / Hartree potential).

  Preparations completed.
  max(cpu_time)          :      0.106 s.
  Wall clock time (cpu1) :      0.516 s.
------------------------------------------------------------
  After prepare_scf [GB]:   1002.70

  Initializing index lists of integration centers etc. from given atomic structure:
  | Consuming          0 KiB for k_phase_exx.
  | Number of centers in hartree potential                       :         2
  | Number of centers in hartree multipole                       :         2
  | Number of centers in electron density summation              :         2
  | Number of centers in basis integrals                         :         2
  | Number of centers in integrals                               :         2
  | Number of centers in hamiltonian                             :         2
  | Number of centers in partition table from touching 0-cell    :         2
  | Number of centers in partition table total                   :         2
  After initialize_bc_dependent_lists [GB]:   1002.70

------------------------------------------------------------
          Begin self-consistency loop: Initialization.

          Date     :  20260717, Time     :  150632.302
------------------------------------------------------------
  Available memory per node after initialize_hartree_non_periodic_ewald [GB]:   1002.70
  Available memory per node after initialize_recip_hartree_potential [GB]:   1002.70
  * Using 64 tasks for Scalapack Eigenvalue solver.
  Detailed listing of tasks and assigned k-points:
  (for non-periodic systems, the "k-point" denotes an internal label only)
   Task     0 k-point     1 on worker6044
   Task     1 k-point     1 on worker6044
   Task     2 k-point     1 on worker6044
   Task     3 k-point     1 on worker6044
   Task     4 k-point     1 on worker6044
   Task     5 k-point     1 on worker6044
   Task     6 k-point     1 on worker6044
   Task     7 k-point     1 on worker6044
   Task     8 k-point     1 on worker6044
   Task     9 k-point     1 on worker6044
   Task    10 k-point     1 on worker6044
   Task    11 k-point     1 on worker6044
   Task    12 k-point     1 on worker6044
   Task    13 k-point     1 on worker6044
   Task    14 k-point     1 on worker6044
   Task    15 k-point     1 on worker6044
   Task    16 k-point     1 on worker6044
   Task    17 k-point     1 on worker6044
   Task    18 k-point     1 on worker6044
   Task    19 k-point     1 on worker6044
   Task    20 k-point     1 on worker6044
   Task    21 k-point     1 on worker6044
   Task    22 k-point     1 on worker6044
   Task    23 k-point     1 on worker6044
   Task    24 k-point     1 on worker6044
   Task    25 k-point     1 on worker6044
   Task    26 k-point     1 on worker6044
   Task    27 k-point     1 on worker6044
   Task    28 k-point     1 on worker6044
   Task    29 k-point     1 on worker6044
   Task    30 k-point     1 on worker6044
   Task    31 k-point     1 on worker6044
   Task    32 k-point     1 on worker6045
   Task    33 k-point     1 on worker6045
   Task    34 k-point     1 on worker6045
   Task    35 k-point     1 on worker6045
   Task    36 k-point     1 on worker6045
   Task    37 k-point     1 on worker6045
   Task    38 k-point     1 on worker6045
   Task    39 k-point     1 on worker6045
   Task    40 k-point     1 on worker6045
   Task    41 k-point     1 on worker6045
   Task    42 k-point     1 on worker6045
   Task    43 k-point     1 on worker6045
   Task    44 k-point     1 on worker6045
   Task    45 k-point     1 on worker6045
   Task    46 k-point     1 on worker6045
   Task    47 k-point     1 on worker6045
   Task    48 k-point     1 on worker6045
   Task    49 k-point     1 on worker6045
   Task    50 k-point     1 on worker6045
   Task    51 k-point     1 on worker6045
   Task    52 k-point     1 on worker6045
   Task    53 k-point     1 on worker6045
   Task    54 k-point     1 on worker6045
   Task    55 k-point     1 on worker6045
   Task    56 k-point     1 on worker6045
   Task    57 k-point     1 on worker6045
   Task    58 k-point     1 on worker6045
   Task    59 k-point     1 on worker6045
   Task    60 k-point     1 on worker6045
   Task    61 k-point     1 on worker6045
   Task    62 k-point     1 on worker6045
   Task    63 k-point     1 on worker6045
  Tasks:    64 split into      8 X      8 BLACS grid
  Calculating block size based on n_basis =           78  max_nprow =            8  max_npcol =            8
  ScaLAPACK block size set to:            8
  Allocating        0.002 MB for ovlp
  Allocating        0.002 MB for ham
  Allocating        0.002 MB for eigenvec
  Required Scalapack workspace - INTEGER:            1  REAL:             1
  Available memory per node after initialize_scalapack [GB]:   1002.70
  Available memory per node after aims_elsi_init_scf [GB]:   1002.70
  Available memory per node after initialize_fixed_grids [GB]:   1002.70
  Partitioning the integration grid into batches with parallel hashing+maxmin method.
  | Number of batches:      566
  | Maximal batch size:     136
  | Minimal batch size:       1
  | Average batch size:      68.664
  | Standard deviation of batch sizes:      18.176

  Integration load balanced across    64 MPI tasks.
  Work distribution over tasks is as follows:
  Task     0 has        615 integration points.
  Task     1 has        577 integration points.
  Task     2 has        578 integration points.
  Task     3 has        583 integration points.
  Task     4 has        628 integration points.
  Task     5 has        608 integration points.
  Task     6 has        575 integration points.
  Task     7 has        578 integration points.
  Task     8 has        574 integration points.
  Task     9 has        588 integration points.
  Task    10 has        611 integration points.
  Task    11 has        661 integration points.
  Task    12 has        586 integration points.
  Task    13 has        573 integration points.
  Task    14 has        577 integration points.
  Task    15 has        585 integration points.
  Task    16 has        579 integration points.
  Task    17 has        609 integration points.
  Task    18 has        581 integration points.
  Task    19 has        574 integration points.
  Task    20 has        606 integration points.
  Task    21 has        574 integration points.
  Task    22 has        618 integration points.
  Task    23 has        601 integration points.
  Task    24 has        604 integration points.
  Task    25 has        587 integration points.
  Task    26 has        575 integration points.
  Task    27 has        581 integration points.
  Task    28 has        677 integration points.
  Task    29 has        588 integration points.
  Task    30 has        625 integration points.
  Task    31 has        615 integration points.
  Task    32 has        617 integration points.
  Task    33 has        586 integration points.
  Task    34 has        583 integration points.
  Task    35 has        614 integration points.
  Task    36 has        627 integration points.
  Task    37 has        625 integration points.
  Task    38 has        583 integration points.
  Task    39 has        622 integration points.
  Task    40 has        622 integration points.
  Task    41 has        582 integration points.
  Task    42 has        620 integration points.
  Task    43 has        617 integration points.
  Task    44 has        587 integration points.
  Task    45 has        592 integration points.
  Task    46 has        585 integration points.
  Task    47 has        628 integration points.
  Task    48 has        699 integration points.
  Task    49 has        613 integration points.
  Task    50 has        630 integration points.
  Task    51 has        623 integration points.
  Task    52 has        678 integration points.
  Task    53 has        628 integration points.
  Task    54 has        580 integration points.
  Task    55 has        586 integration points.
  Task    56 has        625 integration points.
  Task    57 has        704 integration points.
  Task    58 has        675 integration points.
  Task    59 has        590 integration points.
  Task    60 has        586 integration points.
  Task    61 has        674 integration points.
  Task    62 has        618 integration points.
  Task    63 has        574 integration points.
  Available memory per node after partition_grid [GB]:   1002.36
  Initializing partition tables, free-atom densities, potentials, etc. across the integration grid (initialize_grid_storage).
  | initialize_grid_storage: Actual outermost partition radius vs. multipole_radius_free
  | (-- VB: in principle, multipole_radius_free should be larger, hence this output)
  | Species        1: Confinement radius =              6.000000000000000 AA, multipole_radius_free =              6.023523403561800 AA.
  | Species        1: outer_partition_radius set to              6.023523403561800 AA .
  | Species        2: Confinement radius =              6.000000000000000 AA, multipole_radius_free =              6.058726835495003 AA.
  | Species        2: outer_partition_radius set to              6.058726835495003 AA .
  | The sparse table of interatomic distances needs          0.04 kbyte instead of         0.03 kbyte of memory.
  | Using the partition_type stratmann_smoother will reduce your memory usage.
  | Net number of integration points:    38864
  | of which are non-zero points    :    37118
  Available memory per node after initialize_grid_storage_p1 [GB]:   1002.36
  Renormalizing the initial density to the exact electron count on the 3D integration grid.
  | Initial density: Formal number of electrons (from input files) :      12.0000000000
  | Integrated number of electrons on 3D grid     :      12.0000005140
  | Charge integration error                      :       0.0000005140
  | Normalization factor for density and gradient :       0.9999999572
  Renormalizing the free-atom superposition density to the exact electron count on the 3D integration grid.
  | Formal number of electrons (from input files) :      12.0000000000
  | Integrated number of electrons on 3D grid     :      12.0000005140
  | Charge integration error                      :       0.0000005140
  | Normalization factor for density and gradient :       0.9999999572
  Obtaining max. number of non-zero basis functions in each batch (get_n_compute_maxes).
  | Maximal number of non-zero basis functions:       78 in task     0
  | Maximal number of non-zero basis functions:       78 in task     1
  | Maximal number of non-zero basis functions:       78 in task     2
  | Maximal number of non-zero basis functions:       78 in task     3
  | Maximal number of non-zero basis functions:       78 in task     4
  | Maximal number of non-zero basis functions:       78 in task     5
  | Maximal number of non-zero basis functions:       78 in task     6
  | Maximal number of non-zero basis functions:       78 in task     7
  | Maximal number of non-zero basis functions:       78 in task     8
  | Maximal number of non-zero basis functions:       78 in task     9
  | Maximal number of non-zero basis functions:       78 in task    10
  | Maximal number of non-zero basis functions:       78 in task    11
  | Maximal number of non-zero basis functions:       78 in task    12
  | Maximal number of non-zero basis functions:       78 in task    13
  | Maximal number of non-zero basis functions:       78 in task    14
  | Maximal number of non-zero basis functions:       78 in task    15
  | Maximal number of non-zero basis functions:       78 in task    16
  | Maximal number of non-zero basis functions:       78 in task    17
  | Maximal number of non-zero basis functions:       78 in task    18
  | Maximal number of non-zero basis functions:       78 in task    19
  | Maximal number of non-zero basis functions:       78 in task    20
  | Maximal number of non-zero basis functions:       78 in task    21
  | Maximal number of non-zero basis functions:       78 in task    22
  | Maximal number of non-zero basis functions:       78 in task    23
  | Maximal number of non-zero basis functions:       78 in task    24
  | Maximal number of non-zero basis functions:       78 in task    25
  | Maximal number of non-zero basis functions:       78 in task    26
  | Maximal number of non-zero basis functions:       78 in task    27
  | Maximal number of non-zero basis functions:       78 in task    28
  | Maximal number of non-zero basis functions:       78 in task    29
  | Maximal number of non-zero basis functions:       78 in task    30
  | Maximal number of non-zero basis functions:       78 in task    31
  | Maximal number of non-zero basis functions:       78 in task    32
  | Maximal number of non-zero basis functions:       78 in task    33
  | Maximal number of non-zero basis functions:       78 in task    34
  | Maximal number of non-zero basis functions:       78 in task    35
  | Maximal number of non-zero basis functions:       78 in task    36
  | Maximal number of non-zero basis functions:       78 in task    37
  | Maximal number of non-zero basis functions:       78 in task    38
  | Maximal number of non-zero basis functions:       78 in task    39
  | Maximal number of non-zero basis functions:       78 in task    40
  | Maximal number of non-zero basis functions:       78 in task    41
  | Maximal number of non-zero basis functions:       78 in task    42
  | Maximal number of non-zero basis functions:       78 in task    43
  | Maximal number of non-zero basis functions:       78 in task    44
  | Maximal number of non-zero basis functions:       78 in task    45
  | Maximal number of non-zero basis functions:       78 in task    46
  | Maximal number of non-zero basis functions:       78 in task    47
  | Maximal number of non-zero basis functions:       78 in task    48
  | Maximal number of non-zero basis functions:       78 in task    49
  | Maximal number of non-zero basis functions:       78 in task    50
  | Maximal number of non-zero basis functions:       78 in task    51
  | Maximal number of non-zero basis functions:       78 in task    52
  | Maximal number of non-zero basis functions:       78 in task    53
  | Maximal number of non-zero basis functions:       78 in task    54
  | Maximal number of non-zero basis functions:       78 in task    55
  | Maximal number of non-zero basis functions:       78 in task    56
  | Maximal number of non-zero basis functions:       78 in task    57
  | Maximal number of non-zero basis functions:       78 in task    58
  | Maximal number of non-zero basis functions:       78 in task    59
  | Maximal number of non-zero basis functions:       78 in task    60
  | Maximal number of non-zero basis functions:       78 in task    61
  | Maximal number of non-zero basis functions:       78 in task    62
  | Maximal number of non-zero basis functions:       78 in task    63
  Selecting the method for density update.
  Loop over occupied states selected for charge density update.
  Available memory per node after get_n_compute_maxes_p1 [GB]:   1002.36
  Allocating        0.007 MB for KS_eigenvector
  Available memory per node after allocate_matrices [GB]:   1002.36
  Available memory per node after init_comm_sparse_local_matrix_scalapack [GB]:   1002.36
  Integrating Hamiltonian matrix: batch-based integration.
  Time summed over all CPUs for integration: real work        0.151 s, elapsed        0.289 s => Consider using load balancing!
  Available memory per node after integrate hamiltonian matrix [GB]:   1002.35
  Integrating overlap matrix.
  Time summed over all CPUs for integration: real work        0.048 s, elapsed        0.238 s
  Available memory per node after integrate ovlp matrix [GB]:   1002.35
  Deallocating overlap matrix.
  Available memory per node after save_overlap_scalapack [GB]:   1002.35

  Updating Kohn-Sham eigenvalues and eigenvectors using ELSI and the ELPA eigensolver.
  Overlap matrix is not singular
  | Lowest and highest eigenvalues :  0.5031E-03,  0.1999E+01
  Finished singularity check of overlap matrix
  | Time :     0.153 s
  Starting ELPA eigensolver
  Finished Cholesky decomposition
  | Time :     0.002 s
  Finished transformation to standard eigenproblem
  | Time :     0.000 s
  Finished solving standard eigenproblem
  | Time :     0.040 s
  Finished back-transformation of eigenvectors
  | Time :     0.000 s

  Obtaining occupation numbers and electronic chemical potential using ELSI.
  | Note that, for insulating systems, the printed 'chemical potential' value is not uniquely defined.
  | It can be anywhere in the energy gap, as long as it correctly separates occupied and unoccupied states.
  | In systems with a gap, the physically relevant chemical potential is the VBM or HOMO.

  | Chemical potential (Fermi level):    -2.56692412 eV
  Available memory per node after advance_KS_solution [GB]:   1002.34
  Writing Kohn-Sham eigenvalues.

  State    Occupation    Eigenvalue [Ha]    Eigenvalue [eV]
      1       2.00000         -13.916551         -378.68861
      2       2.00000          -6.390525         -173.89505
      3       2.00000          -0.570560          -15.52572
      4       2.00000          -0.204124           -5.55450
      5       2.00000          -0.117413           -3.19498
      6       2.00000          -0.117413           -3.19498
      7       0.00000          -0.071252           -1.93887
      8       0.00000           0.076141            2.07189
      9       0.00000           0.076141            2.07189
     10       0.00000           0.146071            3.97479
     11       0.00000           0.193098            5.25447
     12       0.00000           0.205458            5.59081

  Highest occupied state (VBM) at     -3.19498052 eV
  | Occupation number:      2.00000000

  Lowest unoccupied state (CBM) at    -1.93886771 eV
  | Occupation number:      0.00000000

  Overall HOMO-LUMO gap:      1.25611281 eV.
  Calculating total energy contributions from superposition of free atom densities.

  Total energy components:
  | Sum of eigenvalues            :         -42.63317344 Ha       -1160.10767481 eV
  | XC energy correction          :          -7.54701753 Ha        -205.36479591 eV
  | XC potential correction       :          10.66930831 Ha         290.32665076 eV
  | Free-atom electrostatic energy:         -36.94462506 Ha       -1005.31439784 eV
  | Hartree energy correction     :          -0.00000000 Ha          -0.00000000 eV
  | Entropy correction            :          -0.00000000 Ha          -0.00000000 eV
  | ---------------------------
  | Total energy                  :         -76.45550772 Ha       -2080.46021780 eV
  | Total energy, T -> 0          :         -76.45550772 Ha       -2080.46021780 eV  <-- do not rely on this value for anything but (periodic) metals
  | Electronic free energy        :         -76.45550772 Ha       -2080.46021780 eV

  Derived energy quantities:
  | Kinetic energy                :          78.85559696 Ha        2145.76996897 eV
  | Electrostatic energy          :        -147.76408715 Ha       -4020.86539085 eV
  | Energy correction for multipole
  | error in Hartree potential    :           0.00000000 Ha           0.00000000 eV
  | Sum of eigenvalues per atom                           :        -580.05383740 eV
  | Total energy (T->0) per atom                          :       -1040.23010890 eV  <-- do not rely on this value for anything but (periodic) metals
  | Electronic free energy per atom                       :       -1040.23010890 eV
  
  --------------------------------------------
  Constructing auxiliary basis (full product) ...
  
  Product basis:
  | charge radius: extent of product basis function
  | field radius: extent of its Coulomb potential
  | Species   l  charge radius    field radius  multipol momen
  |    B      0     3.151089 A      3.151089 A        9.643530E-17 a.u.
  |    B      0     3.785292 A      3.785292 A        4.029236E-17 a.u.
  |    B      0     3.739298 A      3.739298 A        1.467636E-16 a.u.
  |    B      0     4.174201 A      4.174201 A        3.735900E-16 a.u.
  |    B      0     5.395944 A      5.395944 A       -6.738068E-16 a.u.
  |    B      0     5.330380 A      5.395944 A        1.812729E-16 a.u.
  |    B      0     5.395944 A      5.462314 A        1.449670E-16 a.u.
  |    B      0     5.462314 A      5.529500 A       -3.485665E-16 a.u.
  |    B      0     5.462314 A      5.529500 A        8.892427E-16 a.u.
  |    B      0     5.529500 A      5.597513 A        5.749037E-16 a.u.
  |    B      0     5.462314 A  5.021753E+12 A            0.755169 a.u.
  |    B      1     4.123482 A      4.123482 A        4.070451E-18 a.u.
  |    B      1     5.330380 A      5.330380 A       -3.582489E-16 a.u.
  |    B      1     5.395944 A      5.462314 A       -6.298461E-17 a.u.
  |    B      1     5.395944 A      5.462314 A        6.989142E-16 a.u.
  |    B      1     5.462314 A      5.462314 A       -4.904145E-16 a.u.
  |    B      1     5.462314 A      5.462314 A        9.386358E-17 a.u.
  |    B      1     5.462314 A      5.529500 A       -1.870843E-16 a.u.
  |    B      1     5.462314 A      5.529500 A        4.695567E-16 a.u.
  |    B      1     5.462314 A  3.245248E+06 A            2.992840 a.u.
  |    B      2     5.395944 A      5.395944 A       -7.393739E-16 a.u.
  |    B      2     5.395944 A      5.395944 A        2.104664E-15 a.u.
  |    B      2     5.462314 A      5.462314 A       -1.709795E-15 a.u.
  |    B      2     5.462314 A      5.462314 A        6.924468E-16 a.u.
  |    B      2     5.462314 A      5.462314 A       -1.659954E-16 a.u.
  |    B      2     5.462314 A      5.529500 A        1.805740E-15 a.u.
  |    B      2     5.395944 A      5.462314 A        7.170482E-17 a.u.
  |    B      2     5.462314 A      5.529500 A        2.240121E-15 a.u.
  |    B      2     5.529500 A  3.127927E+04 A           16.434496 a.u.
  |    B      3     4.775018 A      4.775018 A        5.424492E-16 a.u.
  |    B      3     4.833750 A      4.833750 A        8.181173E-16 a.u.
  |    B      3     4.833750 A      4.833750 A       -8.738069E-15 a.u.
  |    B      3     5.201633 A      5.201633 A       -5.242377E-15 a.u.
  |    B      3     5.201633 A      5.265613 A        3.421599E-14 a.u.
  |    B      3     5.201633 A      5.201633 A        1.211478E-15 a.u.
  |    B      3     5.265613 A      5.265613 A       -1.171104E-14 a.u.
  |    B      3     5.265613 A  3.224652E+03 A          109.727873 a.u.
  |    B      4     4.659684 A      4.659684 A        2.832564E-16 a.u.
  |    B      4     4.953392 A      4.953392 A        1.329378E-14 a.u.
  |    B      4     5.014319 A      5.014319 A        7.425317E-15 a.u.
  |    B      4     5.075995 A      5.075995 A       -3.711614E-14 a.u.
  |    B      4     5.075995 A      5.075995 A        6.040962E-14 a.u.
  |    B      4     5.075995 A  6.440591E+02 A          212.526500 a.u.
  |    B      5     4.775018 A      4.775018 A        1.604985E-14 a.u.
  |    B      5     4.833750 A      4.833750 A       -6.420542E-14 a.u.
  |    B      5     4.953392 A      4.953392 A       -4.309288E-14 a.u.
  |    B      5     5.014319 A      5.014319 A        6.207877E-14 a.u.
  |    B      5     5.014319 A  2.415634E+02 A          720.063301 a.u.
  |    B      6     4.716999 A      4.716999 A        1.023054E-13 a.u.
  |    B      6     4.833750 A      4.833750 A        4.491612E-15 a.u.
  |    B      6     4.833750 A  1.089045E+02 A         1244.239053 a.u.
  |    B      7     4.716999 A      4.716999 A       -2.244167E-13 a.u.
  |    B      7     4.716999 A  5.268784E+01 A          768.536577 a.u.
  |    B      8     4.603067 A  3.602356E+01 A         2498.383582 a.u.
  |    N      0     2.334858 A      2.334858 A       -1.180406E-16 a.u.
  |    N      0     4.518138 A      4.518138 A        4.628655E-17 a.u.
  |    N      0     4.518138 A      4.518138 A       -1.359551E-17 a.u.
  |    N      0     4.744566 A      4.744566 A        1.563415E-17 a.u.
  |    N      0     5.105661 A      5.105661 A       -5.302151E-17 a.u.
  |    N      0     5.168461 A      5.168461 A       -6.911488E-17 a.u.
  |    N      0     5.168461 A      5.168461 A       -1.958729E-18 a.u.
  |    N      0     5.427479 A      5.494237 A        7.079865E-19 a.u.
  |    N      0     5.427479 A  4.430311E+12 A            0.666228 a.u.
  |    N      1     4.409010 A      4.409010 A        2.806406E-17 a.u.
  |    N      1     4.686917 A      4.686917 A       -1.432235E-17 a.u.
  |    N      1     4.802924 A      4.802924 A        1.169842E-15 a.u.
  |    N      1     4.802924 A      4.802924 A        4.046170E-16 a.u.
  |    N      1     4.744566 A      4.744566 A       -8.224130E-17 a.u.
  |    N      1     4.921803 A      4.921803 A        1.425871E-17 a.u.
  |    N      1     5.427479 A      5.427479 A        8.403613E-17 a.u.
  |    N      1     5.427479 A      5.427479 A        4.971772E-17 a.u.
  |    N      1     5.494237 A      5.494237 A        1.077184E-15 a.u.
  |    N      1     5.494237 A  3.014589E+06 A            2.582523 a.u.
  |    N      2     4.744566 A      4.744566 A       -3.434340E-17 a.u.
  |    N      2     5.296387 A      5.296387 A       -5.122208E-16 a.u.
  |    N      2     5.296387 A      5.296387 A       -1.173141E-15 a.u.
  |    N      2     5.427479 A      5.427479 A        1.532172E-15 a.u.
  |    N      2     5.427479 A      5.427479 A        1.030359E-15 a.u.
  |    N      2     5.427479 A      5.494237 A        2.228198E-15 a.u.
  |    N      2     5.494237 A      5.494237 A       -1.655514E-15 a.u.
  |    N      2     5.427479 A      5.427479 A       -6.368210E-16 a.u.
  |    N      2     5.494237 A  2.930111E+04 A           13.509489 a.u.
  |    N      3     4.147581 A      4.147581 A        5.466171E-17 a.u.
  |    N      3     4.198596 A      4.198596 A       -3.139114E-15 a.u.
  |    N      3     4.198596 A      4.198596 A       -2.987056E-15 a.u.
  |    N      3     4.744566 A      4.744566 A       -4.173782E-18 a.u.
  |    N      3     5.105661 A      5.105661 A        1.475308E-14 a.u.
  |    N      3     5.105661 A      5.105661 A       -2.544981E-16 a.u.
  |    N      3     5.105661 A      5.105661 A        8.987933E-15 a.u.
  |    N      3     5.105661 A  2.818976E+03 A           64.084179 a.u.
  |    N      4     4.097185 A      4.097185 A        2.372417E-15 a.u.
  |    N      4     4.802924 A      4.802924 A       -5.889382E-15 a.u.
  |    N      4     4.862000 A      4.862000 A       -1.183169E-14 a.u.
  |    N      4     4.862000 A      4.862000 A       -1.352783E-14 a.u.
  |    N      4     4.921803 A      4.921803 A        3.664307E-15 a.u.
  |    N      4     4.921803 A  5.625476E+02 A          108.039088 a.u.
  |    N      5     4.047402 A      4.047402 A       -2.744752E-15 a.u.
  |    N      5     4.047402 A      4.047402 A        1.726475E-14 a.u.
  |    N      5     4.097185 A      4.097185 A        5.134091E-15 a.u.
  |    N      5     4.147581 A  1.754163E+02 A          105.585263 a.u.
  |    N      6     3.807414 A      3.807414 A       -2.406459E-14 a.u.
  |    N      6     3.998224 A      3.998224 A        7.453926E-15 a.u.
  |    N      6     3.998224 A      3.998224 A        9.788014E-15 a.u.
  |    N      6     4.047402 A  9.261144E+01 A          400.160840 a.u.
  |    N      7     3.715452 A      3.715452 A        5.483093E-15 a.u.
  |    N      7     3.715452 A  3.849516E+01 A           62.406556 a.u.
  |    N      8     3.581656 A  2.573714E+01 A          121.177497 a.u.

  | Shrink_full_auxil_basis : there are      107  radial auxiliary wave functions
                            accepted and     193 rejected.
  | Shrink_full_auxil_basis : there are totally                 671 partial auxiliary wave functions.
  prodbas_tasks_distribution_pbc not up to date - distributing tasks.

  | Maximal number of product basis functions per thread :    20    20

  | Number of local auxiliary basis funcs on node     0 :     20
  | Number of local auxiliary basis funcs on node     1 :     20
  | Number of local auxiliary basis funcs on node     2 :     20
  | Number of local auxiliary basis funcs on node     3 :     11
  | Number of local auxiliary basis funcs on node     4 :     10
  | Number of local auxiliary basis funcs on node     5 :     10
  | Number of local auxiliary basis funcs on node     6 :     10
  | Number of local auxiliary basis funcs on node     7 :     10
  | Number of local auxiliary basis funcs on node     8 :     10
  | Number of local auxiliary basis funcs on node     9 :     10
  | Number of local auxiliary basis funcs on node    10 :     10
  | Number of local auxiliary basis funcs on node    11 :     10
  | Number of local auxiliary basis funcs on node    12 :     10
  | Number of local auxiliary basis funcs on node    13 :     10
  | Number of local auxiliary basis funcs on node    14 :     10
  | Number of local auxiliary basis funcs on node    15 :     10
  | Number of local auxiliary basis funcs on node    16 :     10
  | Number of local auxiliary basis funcs on node    17 :     10
  | Number of local auxiliary basis funcs on node    18 :     10
  | Number of local auxiliary basis funcs on node    19 :     10
  | Number of local auxiliary basis funcs on node    20 :     10
  | Number of local auxiliary basis funcs on node    21 :     10
  | Number of local auxiliary basis funcs on node    22 :     10
  | Number of local auxiliary basis funcs on node    23 :     10
  | Number of local auxiliary basis funcs on node    24 :     10
  | Number of local auxiliary basis funcs on node    25 :     10
  | Number of local auxiliary basis funcs on node    26 :     10
  | Number of local auxiliary basis funcs on node    27 :     10
  | Number of local auxiliary basis funcs on node    28 :     10
  | Number of local auxiliary basis funcs on node    29 :     10
  | Number of local auxiliary basis funcs on node    30 :     10
  | Number of local auxiliary basis funcs on node    31 :     10
  | Number of local auxiliary basis funcs on node    32 :     10
  | Number of local auxiliary basis funcs on node    33 :     10
  | Number of local auxiliary basis funcs on node    34 :     10
  | Number of local auxiliary basis funcs on node    35 :     10
  | Number of local auxiliary basis funcs on node    36 :     10
  | Number of local auxiliary basis funcs on node    37 :     10
  | Number of local auxiliary basis funcs on node    38 :     10
  | Number of local auxiliary basis funcs on node    39 :     10
  | Number of local auxiliary basis funcs on node    40 :     10
  | Number of local auxiliary basis funcs on node    41 :     10
  | Number of local auxiliary basis funcs on node    42 :     10
  | Number of local auxiliary basis funcs on node    43 :     10
  | Number of local auxiliary basis funcs on node    44 :     10
  | Number of local auxiliary basis funcs on node    45 :     10
  | Number of local auxiliary basis funcs on node    46 :     10
  | Number of local auxiliary basis funcs on node    47 :     10
  | Number of local auxiliary basis funcs on node    48 :     10
  | Number of local auxiliary basis funcs on node    49 :     10
  | Number of local auxiliary basis funcs on node    50 :     10
  | Number of local auxiliary basis funcs on node    51 :     10
  | Number of local auxiliary basis funcs on node    52 :     10
  | Number of local auxiliary basis funcs on node    53 :     10
  | Number of local auxiliary basis funcs on node    54 :     10
  | Number of local auxiliary basis funcs on node    55 :     10
  | Number of local auxiliary basis funcs on node    56 :     10
  | Number of local auxiliary basis funcs on node    57 :     10
  | Number of local auxiliary basis funcs on node    58 :     10
  | Number of local auxiliary basis funcs on node    59 :     10
  | Number of local auxiliary basis funcs on node    60 :     10
  | Number of local auxiliary basis funcs on node    61 :     10
  | Number of local auxiliary basis funcs on node    62 :     10
  | Number of local auxiliary basis funcs on node    63 :     10
  Parallel distribution of product basis not up to date - distributing tasks.

  | Maximal number of product basis functions per thread :    20    20

  | Minimal total memory requirement for three-center overlap :       0.042 Gbs
  | Number of local auxiliary basis functions on task:      0    20
  | Number of local auxiliary basis functions on task:      1    20
  | Number of local auxiliary basis functions on task:      2    20
  | Number of local auxiliary basis functions on task:      3    11
  | Number of local auxiliary basis functions on task:      4    10
  | Number of local auxiliary basis functions on task:      5    10
  | Number of local auxiliary basis functions on task:      6    10
  | Number of local auxiliary basis functions on task:      7    10
  | Number of local auxiliary basis functions on task:      8    10
  | Number of local auxiliary basis functions on task:      9    10
  | Number of local auxiliary basis functions on task:     10    10
  | Number of local auxiliary basis functions on task:     11    10
  | Number of local auxiliary basis functions on task:     12    10
  | Number of local auxiliary basis functions on task:     13    10
  | Number of local auxiliary basis functions on task:     14    10
  | Number of local auxiliary basis functions on task:     15    10
  | Number of local auxiliary basis functions on task:     16    10
  | Number of local auxiliary basis functions on task:     17    10
  | Number of local auxiliary basis functions on task:     18    10
  | Number of local auxiliary basis functions on task:     19    10
  | Number of local auxiliary basis functions on task:     20    10
  | Number of local auxiliary basis functions on task:     21    10
  | Number of local auxiliary basis functions on task:     22    10
  | Number of local auxiliary basis functions on task:     23    10
  | Number of local auxiliary basis functions on task:     24    10
  | Number of local auxiliary basis functions on task:     25    10
  | Number of local auxiliary basis functions on task:     26    10
  | Number of local auxiliary basis functions on task:     27    10
  | Number of local auxiliary basis functions on task:     28    10
  | Number of local auxiliary basis functions on task:     29    10
  | Number of local auxiliary basis functions on task:     30    10
  | Number of local auxiliary basis functions on task:     31    10
  | Number of local auxiliary basis functions on task:     32    10
  | Number of local auxiliary basis functions on task:     33    10
  | Number of local auxiliary basis functions on task:     34    10
  | Number of local auxiliary basis functions on task:     35    10
  | Number of local auxiliary basis functions on task:     36    10
  | Number of local auxiliary basis functions on task:     37    10
  | Number of local auxiliary basis functions on task:     38    10
  | Number of local auxiliary basis functions on task:     39    10
  | Number of local auxiliary basis functions on task:     40    10
  | Number of local auxiliary basis functions on task:     41    10
  | Number of local auxiliary basis functions on task:     42    10
  | Number of local auxiliary basis functions on task:     43    10
  | Number of local auxiliary basis functions on task:     44    10
  | Number of local auxiliary basis functions on task:     45    10
  | Number of local auxiliary basis functions on task:     46    10
  | Number of local auxiliary basis functions on task:     47    10
  | Number of local auxiliary basis functions on task:     48    10
  | Number of local auxiliary basis functions on task:     49    10
  | Number of local auxiliary basis functions on task:     50    10
  | Number of local auxiliary basis functions on task:     51    10
  | Number of local auxiliary basis functions on task:     52    10
  | Number of local auxiliary basis functions on task:     53    10
  | Number of local auxiliary basis functions on task:     54    10
  | Number of local auxiliary basis functions on task:     55    10
  | Number of local auxiliary basis functions on task:     56    10
  | Number of local auxiliary basis functions on task:     57    10
  | Number of local auxiliary basis functions on task:     58    10
  | Number of local auxiliary basis functions on task:     59    10
  | Number of local auxiliary basis functions on task:     60    10
  | Number of local auxiliary basis functions on task:     61    10
  | Number of local auxiliary basis functions on task:     62    10
  | Number of local auxiliary basis functions on task:     63    10
  | 2D aux task distribution:      8 X      8
  | 2D block size (nb_aux_2d):     64
  Minimal free memory per node on init_fm entry [GB]:   1002.12
  -----------------------------------------
  --- Initializing Fock matrix calculations
  -----------------------------------------
  screening_threshold (crit_val) =  0.000000100000
  coul_mat_threshold =  0.000000000100
  No atoms are split internally
  Number of super-cells in X Y Z:       0       0       0
  Number of atoms pairs total:            4
  Atom pair distribution:
  Cell:        0       0       0 atom pairs:        4
  sparsity of pfbvk:   1.00000000
  Number of atoms pairs in BvK cells:            4
  Max. memory consumption per node for Pulay mixing [GB]:      0.00
  Minimal total memory per node [GB]:   1056.49
  Minimal free memory per node [GB]:   1002.12
  --- Initializing LVL triples, type COULOMB
  | Storage requirements for basis-basbas products (processor-local):
  |   Species B: n_prodsfn:  1098; storage:       34.31 MiB.
  |   Species N: n_prodsfn:  1094; storage:       34.19 MiB.

  --- Initializing Coulomb matrix calculations, type COULOMB
  Preparing TB like auxiliary 2-center Coulomb matrix
  SBT integration errors (all should be 'small'):
  large logFT aliasing -> increase N/lnrange
  large SBT aliasing -> decrease lnk0 & increase lnk0+lnrange
  large SBT ringing -> decrease lnr0 & increase lnr0+lnrange
  |            El't  L: logFT-al.   small-k   large-k   small-r   large-r
  | Need to store 14190 splines of   185 points taking      20736 KiB.
  | Spline reduction from  4096 to   185 points by (cutting and)     1 x coarsening gives error:  0.00E+00
  Finished with initialize_tb_auxmat/lvl_triples, time:        0.175
  --- Calculating Coulomb matrices
  Upper limit for memory consumption per node [GB] for Coulomb matrices if no compression occurs:       0.058
  Upper limit for temporary arrays in Coulomb matrix initalization [GB]:      9.60
  Allocating        0.866 MB for aux_mat
  Min./max. time for Coulomb matrix computation [s]:      0.00      0.01
  Max. memory consumption per node for global Coulomb matrix [GB]:      0.00
  Time to calculate Coulomb Matrices   :        0.007
  After init_coulomb_tuned [GB]:   1001.34
  Atomic logSBT for LVL-triples                :  max(cpu_time)    wall_clock(cpu1)
  | Multiplication with kernel                  :        0.000 s           0.000 s
  | Main matrix multiplication                  :        0.000 s           0.000 s
  | Analytic angular integration                :        0.000 s           0.000 s
  | Kernel construction                         :        0.000 s           0.000 s
  | Overall 2-center overlap time               :        0.000 s           0.000 s
  | LVL initialization                          :        0.069 s           0.069 s
  | Whole LVL-triples                           :        0.069 s           0.069 s

  --- Initializing LVL triples, type COULOMB
  | Storage requirements for basis-basbas products (processor-local):
  |   Species B: n_prodsfn:  1098; storage:       34.31 MiB.
  |   Species N: n_prodsfn:  1094; storage:       34.19 MiB.

  Atomic logSBT for 2-center Coulomb matrix    :  max(cpu_time)    wall_clock(cpu1)
  | TB initialization                           :        0.106 s           0.106 s
  | TB usage                                    :        0.003 s           0.002 s

  --- Initializing Coulomb matrix calculations, type COULOMB
  Preparing TB like auxiliary 2-center Coulomb matrix
  SBT integration errors (all should be 'small'):
  large logFT aliasing -> increase N/lnrange
  large SBT aliasing -> decrease lnk0 & increase lnk0+lnrange
  large SBT ringing -> decrease lnr0 & increase lnr0+lnrange
  |            El't  L: logFT-al.   small-k   large-k   small-r   large-r
  | Need to store 14190 splines of   185 points taking      20736 KiB.
  | Spline reduction from  4096 to   185 points by (cutting and)     1 x coarsening gives error:  0.00E+00
  Finished with initialize_tb_auxmat/lvl_triples, time:        0.139
  Max. memory consumption per node for uncompressed ovlp3fn matrix [GB]:       0.008
  --- Calculating OVLP3FN
  --- Done calculating OVLP3FN, time:        0.809
  After init_ovlp3fn_tuned2 [GB]:   1001.16
  Max. memory consumption per node for compressed global ovlp3fn matrix [GB]:      -0.015
  Atomic logSBT for 2-center Coulomb matrix    :  max(cpu_time)    wall_clock(cpu1)
  | TB initialization                           :        0.099 s           0.100 s
  | TB usage                                    :        0.000 s           0.000 s

  Atomic logSBT for LVL-triples                :  max(cpu_time)    wall_clock(cpu1)
  | Multiplication with kernel                  :        0.002 s           0.001 s
  | Main matrix multiplication                  :        0.225 s           0.013 s
  | Analytic angular integration                :        0.002 s           0.000 s
  | Kernel construction                         :        0.001 s           0.000 s
  | Overall 2-center overlap time               :        0.239 s           0.018 s
  | 3-center preparation multiplications        :        0.014 s           0.013 s
  | 3-center preparation SBTs                   :        0.307 s           0.295 s
  | 3-center combinations                       :        0.259 s           0.034 s
  | Overal 3-center time                        :        0.580 s           0.343 s
  | LVL initialization                          :        0.033 s           0.033 s
  | Whole LVL-triples                           :        0.033 s           0.033 s

  Assumed free memory per node for Fock matrix prefactors [GB]    902.99
  Memory per instance for Coulomb / ovlp matrix [GB]      0.00     -0.03
  Number of nodes, tasks per node     2    32
  Number of instances:   16
  -----------------------------------------------------
  Dividing atoms among tasks for exact exchange energy:
  Atom:     1 Weight:  0.10160E+07
  Atom:     2 Weight:  0.10252E+07

  Average weight per task:  0.51030E+06

  Number of "big" (above average) atoms  :     2
  Number of "small" (below average) atoms:     0
  All atoms have above average work per task
  Atoms will be divided among tasks to get best load distribution

  Atom division among tasks:
  Atom     1: (initial) task:     0, # of tasks:     2
  Atom     2: (initial) task:     2, # of tasks:     2

  -----------------------------------------------------
  Task      0: my_n_atoms2:      1 my_atom_list:      1
  Task      1: my_n_atoms2:      1 my_atom_list:      1
  Task      2: my_n_atoms2:      1 my_atom_list:      2
  Task      3: my_n_atoms2:      1 my_atom_list:      2
  Task      0: my_n_atoms2:      1 my_atom_list:      1
  Task      1: my_n_atoms2:      1 my_atom_list:      1
  Task      2: my_n_atoms2:      1 my_atom_list:      2
  Task      3: my_n_atoms2:      1 my_atom_list:      2
  Task      0: my_n_atoms2:      1 my_atom_list:      1
  Task      1: my_n_atoms2:      1 my_atom_list:      1
  Task      2: my_n_atoms2:      1 my_atom_list:      2
  Task      3: my_n_atoms2:      1 my_atom_list:      2
  Task      0: my_n_atoms2:      1 my_atom_list:      1
  Task      1: my_n_atoms2:      1 my_atom_list:      1
  Task      2: my_n_atoms2:      1 my_atom_list:      2
  Task      3: my_n_atoms2:      1 my_atom_list:      2
  Task      0: my_n_atoms2:      1 my_atom_list:      1
  Task      1: my_n_atoms2:      1 my_atom_list:      1
  Task      2: my_n_atoms2:      1 my_atom_list:      2
  Task      3: my_n_atoms2:      1 my_atom_list:      2
  Task      0: my_n_atoms2:      1 my_atom_list:      1
  Task      1: my_n_atoms2:      1 my_atom_list:      1
  Task      2: my_n_atoms2:      1 my_atom_list:      2
  Task      3: my_n_atoms2:      1 my_atom_list:      2
  Task      0: my_n_atoms2:      1 my_atom_list:      1
  Task      1: my_n_atoms2:      1 my_atom_list:      1
  Task      2: my_n_atoms2:      1 my_atom_list:      2
  Task      3: my_n_atoms2:      1 my_atom_list:      2
  Task      0: my_n_atoms2:      1 my_atom_list:      1
  Task      1: my_n_atoms2:      1 my_atom_list:      1
  Task      2: my_n_atoms2:      1 my_atom_list:      2
  Task      3: my_n_atoms2:      1 my_atom_list:      2
  Task      0: my_n_atoms2:      1 my_atom_list:      1
  Task      1: my_n_atoms2:      1 my_atom_list:      1
  Task      2: my_n_atoms2:      1 my_atom_list:      2
  Task      3: my_n_atoms2:      1 my_atom_list:      2
  Task      0: my_n_atoms2:      1 my_atom_list:      1
  Task      1: my_n_atoms2:      1 my_atom_list:      1
  Task      2: my_n_atoms2:      1 my_atom_list:      2
  Task      3: my_n_atoms2:      1 my_atom_list:      2
  Task      0: my_n_atoms2:      1 my_atom_list:      1
  Task      1: my_n_atoms2:      1 my_atom_list:      1
  Task      2: my_n_atoms2:      1 my_atom_list:      2
  Task      3: my_n_atoms2:      1 my_atom_list:      2
  Task      0: my_n_atoms2:      1 my_atom_list:      1
  Task      1: my_n_atoms2:      1 my_atom_list:      1
  Task      2: my_n_atoms2:      1 my_atom_list:      2
  Task      3: my_n_atoms2:      1 my_atom_list:      2
  Task      0: my_n_atoms2:      1 my_atom_list:      1
  Task      1: my_n_atoms2:      1 my_atom_list:      1
  Task      2: my_n_atoms2:      1 my_atom_list:      2
  Task      3: my_n_atoms2:      1 my_atom_list:      2
  Task      0: my_n_atoms2:      1 my_atom_list:      1
  Task      1: my_n_atoms2:      1 my_atom_list:      1
  Task      2: my_n_atoms2:      1 my_atom_list:      2
  Task      3: my_n_atoms2:      1 my_atom_list:      2
  Task      0: my_n_atoms2:      1 my_atom_list:      1
  Task      1: my_n_atoms2:      1 my_atom_list:      1
  Task      2: my_n_atoms2:      1 my_atom_list:      2
  Task      3: my_n_atoms2:      1 my_atom_list:      2
  Task      0: my_n_atoms2:      1 my_atom_list:      1
  Task      1: my_n_atoms2:      1 my_atom_list:      1
  Task      2: my_n_atoms2:      1 my_atom_list:      2
  Task      3: my_n_atoms2:      1 my_atom_list:      2
  Task      0: my_n_atom_pairs:      1
  Task      1: my_n_atom_pairs:      1
  Task      2: my_n_atom_pairs:      1
  Task      3: my_n_atom_pairs:      1
  Task      0: my_n_atom_pairs:      1
  Task      1: my_n_atom_pairs:      1
  Task      2: my_n_atom_pairs:      1
  Task      3: my_n_atom_pairs:      1
  Task      0: my_n_atom_pairs:      1
  Task      1: my_n_atom_pairs:      1
  Task      2: my_n_atom_pairs:      1
  Task      3: my_n_atom_pairs:      1
  Task      0: my_n_atom_pairs:      1
  Task      1: my_n_atom_pairs:      1
  Task      2: my_n_atom_pairs:      1
  Task      3: my_n_atom_pairs:      1
  Task      0: my_n_atom_pairs:      1
  Task      1: my_n_atom_pairs:      1
  Task      2: my_n_atom_pairs:      1
  Task      3: my_n_atom_pairs:      1
  Task      0: my_n_atom_pairs:      1
  Task      1: my_n_atom_pairs:      1
  Task      2: my_n_atom_pairs:      1
  Task      3: my_n_atom_pairs:      1
  Task      0: my_n_atom_pairs:      1
  Task      1: my_n_atom_pairs:      1
  Task      2: my_n_atom_pairs:      1
  Task      3: my_n_atom_pairs:      1
  Task      0: my_n_atom_pairs:      1
  Task      1: my_n_atom_pairs:      1
  Task      2: my_n_atom_pairs:      1
  Task      3: my_n_atom_pairs:      1
  Task      0: my_n_atom_pairs:      1
  Task      1: my_n_atom_pairs:      1
  Task      2: my_n_atom_pairs:      1
  Task      3: my_n_atom_pairs:      1
  Task      0: my_n_atom_pairs:      1
  Task      1: my_n_atom_pairs:      1
  Task      2: my_n_atom_pairs:      1
  Task      3: my_n_atom_pairs:      1
  Task      0: my_n_atom_pairs:      1
  Task      1: my_n_atom_pairs:      1
  Task      2: my_n_atom_pairs:      1
  Task      3: my_n_atom_pairs:      1
  Task      0: my_n_atom_pairs:      1
  Task      1: my_n_atom_pairs:      1
  Task      2: my_n_atom_pairs:      1
  Task      3: my_n_atom_pairs:      1
  Task      0: my_n_atom_pairs:      1
  Task      1: my_n_atom_pairs:      1
  Task      2: my_n_atom_pairs:      1
  Task      3: my_n_atom_pairs:      1
  Task      0: my_n_atom_pairs:      1
  Task      1: my_n_atom_pairs:      1
  Task      2: my_n_atom_pairs:      1
  Task      3: my_n_atom_pairs:      1
  Task      0: my_n_atom_pairs:      1
  Task      1: my_n_atom_pairs:      1
  Task      2: my_n_atom_pairs:      1
  Task      3: my_n_atom_pairs:      1
  Task      0: my_n_atom_pairs:      1
  Task      1: my_n_atom_pairs:      1
  Task      2: my_n_atom_pairs:      1
  Task      3: my_n_atom_pairs:      1
  Transferring Coulomb matrix to final data layout
  Coulomb matrix communicaton time [s]    0.72
  Max. memory per node for ovlp3fn matrices:        0.131 GB
  Total memory for ovlp3fn matrices:        0.016 GB
  --- Done getting norm of OVLP3FN, time:        0.000
  Total memory for ovlp3fn matrices:        0.016 GB
  --- time for get_ovlp3fn:        0.025
  Max. memory consumption per node for Hartree Fock matrix [GB]      0.00
  Blocksize for Fock matrix computation:     1
  Minimal free memory per node after Fock matrix initialization [GB]:    999.26
  Initialize hartree_potential_storage
  Max. number of atoms included in rho_multipole:            2

  End scf initialization - timings             :  max(cpu_time)    wall_clock(cpu1)
  | Time for scf. initialization                :        2.065 s           2.200 s
  | Boundary condition initialization           :        0.002 s           0.002 s
  | Integration                                 :        0.011 s           0.012 s
  | Solution of K.-S. eqns.                     :        0.173 s           0.200 s
  | Grid partitioning                           :        0.015 s           0.015 s
  | Preloading free-atom quantities on grid     :        0.005 s           0.005 s
  | Free-atom superposition energy              :        0.001 s           0.000 s
  | Total energy evaluation                     :        0.000 s           0.000 s
  | Product basis setup: Total time             :        1.869 s           1.966 s

  Partial memory accounting:
  | Current value for overall tracked memory usage:
  |   Minimum:        3.922 MB (on task 20)
  |   Maximum:        3.958 MB (on task  2)
  |   Average:        3.940 MB
  | Peak value for overall tracked memory usage:
  |   Minimum:        3.922 MB (on task 20 after allocating max_norm_tmp_old)
  |   Maximum:        8.621 MB (on task 32 after allocating ovlp3fn_nosplit%tmploc)
  |   Average:        4.231 MB
  | Largest tracked array allocation so far:
  |   Minimum:        3.876 MB (ovlp3fn_nosplit%dat on task  0)
  |   Maximum:        3.911 MB (ovlp3fn2%dat on task  2)
  |   Average:        3.894 MB
  Note:  These values currently only include a subset of arrays which are explicitly tracked.
  The "true" memory usage will be greater.
------------------------------------------------------------
  Available memory after initialize_scf [GB]:    999.26
  Available memory after allocating mixing [GB]:    999.26
  Evaluating new KS density.
  Integration grid: deviation in total charge (<rho> - N_e) =   0.000000E+00

  Time for density update prior                :  max(cpu_time)    wall_clock(cpu1)
  | self-consistency iterative process          :        0.002 s           0.001 s
  Available memory before start of SCF loop [GB]:    999.25

------------------------------------------------------------
          Begin self-consistency iteration #    1

  Date     :  20260717, Time     :  150634.505
------------------------------------------------------------
  Pulay mixing of updated and previous charge densities.
  Available memory per node after mixing [GB]:    999.25
  Renormalizing the density to the exact electron count on the 3D integration grid.
  | Formal number of electrons (from input files) :      12.0000000000
  | Integrated number of electrons on 3D grid     :      12.0000000000
  | Charge integration error                      :       0.0000000000
  | Normalization factor for density and gradient :       1.0000000000

  Evaluating partitioned Hartree potential by multipole expansion.
  | Original multipole sum: apparent total charge =   0.233679E-14
  | Sum of charges compensated after spline to logarithmic grids =   0.147959E-07
  | Analytical far-field extrapolation by fixed multipoles:
  | Hartree multipole sum: apparent total charge =   0.244747E-14
  Summing up the Hartree potential.
  Time summed over all CPUs for potential: real work        0.001 s, elapsed        0.002 s
  | RMS charge density error from multipole expansion :   0.222488E-03

  Integrating Hamiltonian matrix: batch-based integration.
  Time summed over all CPUs for integration: real work        0.141 s, elapsed        0.162 s
  Max. memory consumption per node for dm_cols [GB]:      0.00
  Max. memory consumption per node for fock_matrix [GB]:      0.00
  Calculating non-local Hartree-Fock exchange by two-center RI (RI-LVL).
  screening_threshold (crit_val) =  0.000000100000
  Max. allocated memory per node for ovlp3fn_rcv [GB]:      0.00
  Max. allocated memory per node for fock_matrix_row [GB]:      0.00
  Max. memory consumption per node for m_ovlp_fact11 [GB]:      0.00
  Max. memory consumption per node for d_aux_mem [GB]:      0.00
  Max. memory consumption per node for dm_x_o3fn_aux [GB]:      0.00
  Max. allocated memory per node for tmp1/tmp2 [GB]:      0.01
   final impselect vector           6           2           6           1
   Time for autotuning:    7.9193819999998638E-003
  Exact exchange progress report - outermost block loop i_block: 1 ..       5
  |        1         2         3         4         5  
 Total ovlp3fn data transfer [GB]   3.7599119532387704E-003
  Average sparsity of tmp1/2 0.50000000
  Average sparsity of fock_matrix_row 0.01282051
  Full exact exchange energy: weighted long- and short-range EXX     84.441516040908 eV.
  Detailed communication and barrier times:
  | Comm    0:        0.000       0.000       0.000       0.000       0.000       0.000       0.000       0.000       0.000       0.000
  | Comm    1:        0.000       0.000       0.000       0.000       0.000       0.000       0.000       0.000       0.000       0.000
  | Comm    2:        0.000       0.000       0.000       0.000       0.000       0.000       0.000       0.000       0.000       0.000
  | Comm    3:        0.000       0.000       0.000       0.000       0.000       0.000       0.000       0.000       0.000       0.000
  | Comm    4:        0.000       0.000       0.000       0.000       0.000       0.000       0.000       0.000       0.000       0.000
  | Comm    5:        0.000       0.000       0.000       0.000       0.000       0.000       0.000       0.000       0.000       0.000
  | Comm    6:        0.000       0.000       0.000       0.000       0.000       0.000       0.000       0.000       0.000       0.000
  | Comm    7:        0.000       0.000       0.000       0.000       0.000       0.000       0.000       0.000       0.000       0.000
  | Comm    8:        0.000       0.000       0.000       0.000       0.000       0.000       0.000       0.000       0.000       0.000
  | Comm    9:        0.000       0.000       0.000       0.000       0.000       0.000       0.000       0.000       0.000       0.000
  | Comm   10:        0.000       0.000       0.000       0.000       0.000       0.000       0.000       0.000       0.000       0.000
  | Comm   11:        0.000       0.000       0.000       0.000       0.000       0.000       0.000       0.000       0.000       0.000
  | Comm   12:        0.000       0.000       0.000       0.000       0.000       0.000       0.000       0.000       0.000       0.000
  | Comm   13:        0.000       0.000       0.000       0.000       0.000       0.000       0.000       0.000       0.000       0.000
  | Comm   14:        0.000       0.000       0.000       0.000       0.000       0.000       0.000       0.000       0.000       0.000
  | Comm   15:        0.000       0.000       0.000       0.000       0.000       0.000       0.000       0.000       0.000       0.000
  | Comm   16:        0.000       0.000       0.000       0.000       0.000       0.000       0.000       0.000       0.000       0.000
  | Comm   17:        0.000       0.000       0.000       0.000       0.000       0.000       0.000       0.000       0.000       0.000
  | Comm   18:        0.000       0.000       0.000       0.000       0.000       0.000       0.000       0.000       0.000       0.000
  | Comm   19:        0.000       0.000       0.000       0.000       0.000       0.000       0.000       0.000       0.000       0.000
  | Comm   20:        0.000       0.000       0.000       0.000       0.000       0.000       0.000       0.000       0.000       0.000
  | Comm   21:        0.000       0.000       0.000       0.000       0.000       0.000       0.000       0.000       0.000       0.000
  | Comm   22:        0.000       0.000       0.000       0.000       0.000       0.000       0.000       0.000       0.000       0.000
  | Comm   23:        0.000       0.000       0.000       0.000       0.000       0.000       0.000       0.000       0.000       0.000
  | Comm   24:        0.000       0.000       0.000       0.000       0.000       0.000       0.000       0.000       0.000       0.000
  | Comm   25:        0.000       0.000       0.000       0.000       0.000       0.000       0.000       0.000       0.000       0.000
  | Comm   26:        0.000       0.000       0.000       0.000       0.000       0.000       0.000       0.000       0.000       0.000
  | Comm   27:        0.000       0.000       0.000       0.000       0.000       0.000       0.000       0.000       0.000       0.000
  | Comm   28:        0.000       0.000       0.000       0.000       0.000       0.000       0.000       0.000       0.000       0.000
  | Comm   29:        0.000       0.000       0.000       0.000       0.000       0.000       0.000       0.000       0.000       0.000
  | Comm   30:        0.000       0.000       0.000       0.000       0.000       0.000       0.000       0.000       0.000       0.000
  | Comm   31:        0.000       0.000       0.000       0.000       0.000       0.000       0.000       0.000       0.000       0.000
  | Comm   32:        0.000       0.000       0.000       0.000       0.000       0.000       0.000       0.000       0.000       0.000
  | Comm   33:        0.000       0.000       0.000       0.000       0.000       0.000       0.000       0.000       0.000       0.000
  | Comm   34:        0.000       0.000       0.000       0.000       0.000       0.000       0.000       0.000       0.000       0.000
  | Comm   35:        0.000       0.000       0.000       0.000       0.000       0.000       0.000       0.000       0.000       0.000
  | Comm   36:        0.000       0.000       0.000       0.000       0.000       0.000       0.000       0.000       0.000       0.000
  | Comm   37:        0.000       0.000       0.000       0.000       0.000       0.000       0.000       0.000       0.000       0.000
  | Comm   38:        0.000       0.000       0.000       0.000       0.000       0.000       0.000       0.000       0.000       0.000
  | Comm   39:        0.000       0.000       0.000       0.000       0.000       0.000       0.000       0.000       0.000       0.000
  | Comm   40:        0.000       0.000       0.000       0.000       0.000       0.000       0.000       0.000       0.000       0.000
  | Comm   41:        0.000       0.000       0.000       0.000       0.000       0.000       0.000       0.000       0.000       0.000
  | Comm   42:        0.000       0.000       0.000       0.000       0.000       0.000       0.000       0.000       0.000       0.000
  | Comm   43:        0.000       0.000       0.000       0.000       0.000       0.000       0.000       0.000       0.000       0.000
  | Comm   44:        0.000       0.000       0.000       0.000       0.000       0.000       0.000       0.000       0.000       0.000
  | Comm   45:        0.000       0.000       0.000       0.000       0.000       0.000       0.000       0.000       0.000       0.000
  | Comm   46:        0.000       0.000       0.000       0.000       0.000       0.000       0.000       0.000       0.000       0.000
  | Comm   47:        0.000       0.000       0.000       0.000       0.000       0.000       0.000       0.000       0.000       0.000
  | Comm   48:        0.000       0.000       0.000       0.000       0.000       0.000       0.000       0.000       0.000       0.000
  | Comm   49:        0.000       0.000       0.000       0.000       0.000       0.000       0.000       0.000       0.000       0.000
  | Comm   50:        0.000       0.000       0.000       0.000       0.000       0.000       0.000       0.000       0.000       0.000
  | Comm   51:        0.000       0.000       0.000       0.000       0.000       0.000       0.000       0.000       0.000       0.000
  | Comm   52:        0.000       0.000       0.000       0.000       0.000       0.000       0.000       0.000       0.000       0.000
  | Comm   53:        0.000       0.000       0.000       0.000       0.000       0.000       0.000       0.000       0.000       0.000
  | Comm   54:        0.000       0.000       0.000       0.000       0.000       0.000       0.000       0.000       0.000       0.000
  | Comm   55:        0.000       0.000       0.000       0.000       0.000       0.000       0.000       0.000       0.000       0.000
  | Comm   56:        0.000       0.000       0.000       0.000       0.000       0.000       0.000       0.000       0.000       0.000
  | Comm   57:        0.000       0.000       0.000       0.000       0.000       0.000       0.000       0.000       0.000       0.000
  | Comm   58:        0.000       0.000       0.000       0.000       0.000       0.000       0.000       0.000       0.000       0.000
  | Comm   59:        0.000       0.000       0.000       0.000       0.000       0.000       0.000       0.000       0.000       0.000
  | Comm   60:        0.000       0.000       0.000       0.000       0.000       0.000       0.000       0.000       0.000       0.000
  | Comm   61:        0.000       0.000       0.000       0.000       0.000       0.000       0.000       0.000       0.000       0.000
  | Comm   62:        0.000       0.000       0.000       0.000       0.000       0.000       0.000       0.000       0.000       0.000
  | Comm   63:        0.000       0.000       0.000       0.000       0.000       0.000       0.000       0.000       0.000       0.000
  | Imbalance    0:        0.000       0.000       0.000       0.000       0.000       0.000       0.000       0.000       0.000       0.000
  | Imbalance    1:        0.000       0.000       0.000       0.000       0.000       0.000       0.000       0.000       0.000       0.004
  | Imbalance    2:        0.000       0.000       0.000       0.000       0.000       0.000       0.000       0.000       0.000       0.000
  | Imbalance    3:        0.000       0.000       0.000       0.000       0.000       0.000       0.000       0.000       0.000       0.004
  | Imbalance    4:        0.000       0.000       0.000       0.000       0.000       0.000       0.000       0.000       0.000       0.000
  | Imbalance    5:        0.000       0.000       0.000       0.000       0.001       0.000       0.000       0.000       0.000       0.004
  | Imbalance    6:        0.000       0.000       0.000       0.000       0.000       0.000       0.000       0.000       0.000       0.000
  | Imbalance    7:        0.000       0.000       0.000       0.000       0.000       0.000       0.000       0.000       0.000       0.004
  | Imbalance    8:        0.000       0.000       0.000       0.000       0.000       0.000       0.000       0.000       0.000       0.000
  | Imbalance    9:        0.000       0.000       0.000       0.000       0.000       0.000       0.000       0.000       0.000       0.004
  | Imbalance   10:        0.000       0.000       0.000       0.000       0.000       0.000       0.000       0.000       0.000       0.000
  | Imbalance   11:        0.000       0.000       0.000       0.000       0.001       0.000       0.000       0.000       0.000       0.004
  | Imbalance   12:        0.000       0.000       0.000       0.000       0.000       0.000       0.000       0.000       0.000       0.000
  | Imbalance   13:        0.000       0.000       0.000       0.000       0.001       0.000       0.000       0.000       0.000       0.004
  | Imbalance   14:        0.000       0.000       0.000       0.000       0.000       0.000       0.000       0.000       0.000       0.000
  | Imbalance   15:        0.000       0.000       0.000       0.000       0.001       0.000       0.000       0.000       0.000       0.004
  | Imbalance   16:        0.000       0.000       0.000       0.000       0.000       0.000       0.000       0.000       0.000       0.000
  | Imbalance   17:        0.000       0.000       0.000       0.000       0.001       0.000       0.000       0.000       0.000       0.004
  | Imbalance   18:        0.000       0.000       0.000       0.000       0.000       0.000       0.000       0.000       0.000       0.000
  | Imbalance   19:        0.000       0.000       0.000       0.000       0.001       0.000       0.000       0.000       0.000       0.004
  | Imbalance   20:        0.000       0.000       0.000       0.000       0.000       0.000       0.000       0.000       0.000       0.000
  | Imbalance   21:        0.000       0.000       0.000       0.000       0.001       0.000       0.000       0.000       0.000       0.004
  | Imbalance   22:        0.000       0.000       0.000       0.000       0.000       0.000       0.000       0.000       0.000       0.000
  | Imbalance   23:        0.000       0.000       0.000       0.000       0.001       0.000       0.000       0.000       0.000       0.004
  | Imbalance   24:        0.000       0.000       0.000       0.000       0.000       0.000       0.000       0.000       0.000       0.000
  | Imbalance   25:        0.000       0.000       0.000       0.000       0.001       0.000       0.000       0.000       0.000       0.004
  | Imbalance   26:        0.000       0.000       0.000       0.000       0.000       0.000       0.000       0.000       0.000       0.000
  | Imbalance   27:        0.000       0.000       0.000       0.000       0.001       0.000       0.000       0.000       0.000       0.004
  | Imbalance   28:        0.000       0.000       0.000       0.000       0.000       0.000       0.000       0.000       0.000       0.000
  | Imbalance   29:        0.000       0.000       0.000       0.000       0.000       0.000       0.000       0.000       0.000       0.004
  | Imbalance   30:        0.000       0.000       0.000       0.000       0.000       0.000       0.000       0.000       0.000       0.000
  | Imbalance   31:        0.000       0.000       0.000       0.000       0.001       0.000       0.000       0.000       0.000       0.004
  | Imbalance   32:        0.000       0.000       0.000       0.000       0.000       0.000       0.000       0.000       0.000       0.000
  | Imbalance   33:        0.000       0.000       0.000       0.000       0.001       0.000       0.000       0.000       0.000       0.004
  | Imbalance   34:        0.000       0.000       0.000       0.000       0.000       0.000       0.000       0.000       0.000       0.000
  | Imbalance   35:        0.000       0.000       0.000       0.000       0.001       0.000       0.000       0.000       0.000       0.004
  | Imbalance   36:        0.000       0.000       0.000       0.000       0.000       0.000       0.000       0.000       0.000       0.000
  | Imbalance   37:        0.000       0.000       0.000       0.000       0.000       0.000       0.000       0.000       0.000       0.004
  | Imbalance   38:        0.000       0.000       0.000       0.000       0.000       0.000       0.000       0.000       0.000       0.000
  | Imbalance   39:        0.000       0.000       0.000       0.000       0.001       0.000       0.000       0.000       0.000       0.004
  | Imbalance   40:        0.000       0.000       0.000       0.000       0.000       0.000       0.000       0.000       0.000       0.000
  | Imbalance   41:        0.000       0.000       0.000       0.000       0.000       0.000       0.000       0.000       0.000       0.004
  | Imbalance   42:        0.000       0.000       0.000       0.000       0.001       0.000       0.000       0.000       0.000       0.000
  | Imbalance   43:        0.000       0.000       0.000       0.000       0.001       0.000       0.000       0.000       0.000       0.004
  | Imbalance   44:        0.000       0.000       0.000       0.000       0.000       0.000       0.000       0.000       0.000       0.000
  | Imbalance   45:        0.000       0.000       0.000       0.000       0.000       0.000       0.000       0.000       0.000       0.004
  | Imbalance   46:        0.000       0.000       0.000       0.000       0.001       0.000       0.000       0.000       0.000       0.000
  | Imbalance   47:        0.000       0.000       0.000       0.000       0.001       0.000       0.000       0.000       0.000       0.003
  | Imbalance   48:        0.000       0.000       0.000       0.000       0.000       0.000       0.000       0.000       0.000       0.000
  | Imbalance   49:        0.000       0.000       0.000       0.000       0.000       0.000       0.000       0.000       0.000       0.004
  | Imbalance   50:        0.000       0.000       0.000       0.000       0.001       0.000       0.000       0.000       0.000       0.000
  | Imbalance   51:        0.000       0.000       0.000       0.000       0.001       0.000       0.000       0.000       0.000       0.003
  | Imbalance   52:        0.000       0.000       0.000       0.000       0.000       0.000       0.000       0.000       0.000       0.000
  | Imbalance   53:        0.000       0.000       0.000       0.000       0.000       0.000       0.000       0.000       0.000       0.004
  | Imbalance   54:        0.000       0.000       0.000       0.000       0.001       0.000       0.000       0.000       0.000       0.000
  | Imbalance   55:        0.000       0.000       0.000       0.000       0.001       0.000       0.000       0.000       0.000       0.003
  | Imbalance   56:        0.000       0.000       0.000       0.000       0.000       0.000       0.000       0.000       0.000       0.000
  | Imbalance   57:        0.000       0.000       0.000       0.000       0.000       0.000       0.000       0.000       0.000       0.003
  | Imbalance   58:        0.000       0.000       0.000       0.000       0.000       0.000       0.000       0.000       0.000       0.000
  | Imbalance   59:        0.000       0.000       0.000       0.000       0.000       0.000       0.000       0.000       0.000       0.003
  | Imbalance   60:        0.000       0.000       0.000       0.000       0.000       0.000       0.000       0.000       0.000       0.000
  | Imbalance   61:        0.000       0.000       0.000       0.000       0.000       0.000       0.000       0.000       0.000       0.003
  | Imbalance   62:        0.000       0.000       0.000       0.000       0.000       0.000       0.000       0.000       0.000       0.000
  | Imbalance   63:        0.000       0.000       0.000       0.000       0.001       0.000       0.000       0.000       0.000       0.003
  Times            DM_x_o3fn   CM_prod_1   CM_prod_2   tmp2_prod        Sync   Imbalance       Other  Total calc
  | Times    0:        0.001       0.003       0.001       0.001       0.001       0.000       0.044       0.051
  | Times    1:        0.001       0.000       0.000       0.001       0.001       0.005       0.044       0.051
  | Times    2:        0.001       0.003       0.001       0.001       0.001       0.001       0.043       0.051
  | Times    3:        0.001       0.000       0.000       0.001       0.001       0.005       0.044       0.051
  | Times    4:        0.001       0.003       0.001       0.001       0.001       0.000       0.044       0.051
  | Times    5:        0.001       0.000       0.000       0.001       0.001       0.005       0.043       0.051
  | Times    6:        0.001       0.003       0.001       0.001       0.001       0.001       0.043       0.051
  | Times    7:        0.001       0.000       0.000       0.001       0.001       0.005       0.043       0.051
  | Times    8:        0.001       0.003       0.001       0.001       0.001       0.000       0.044       0.051
  | Times    9:        0.001       0.000       0.000       0.001       0.001       0.005       0.044       0.051
  | Times   10:        0.001       0.003       0.001       0.001       0.001       0.001       0.044       0.051
  | Times   11:        0.001       0.000       0.000       0.001       0.001       0.005       0.044       0.051
  | Times   12:        0.001       0.003       0.001       0.001       0.001       0.000       0.044       0.051
  | Times   13:        0.001       0.000       0.000       0.001       0.001       0.005       0.044       0.051
  | Times   14:        0.001       0.002       0.001       0.001       0.001       0.001       0.044       0.051
  | Times   15:        0.001       0.000       0.000       0.001       0.001       0.005       0.044       0.051
  | Times   16:        0.001       0.003       0.001       0.001       0.001       0.000       0.044       0.051
  | Times   17:        0.000       0.000       0.000       0.001       0.001       0.005       0.044       0.051
  | Times   18:        0.001       0.003       0.001       0.001       0.001       0.001       0.044       0.051
  | Times   19:        0.000       0.000       0.000       0.001       0.001       0.005       0.044       0.051
  | Times   20:        0.001       0.003       0.001       0.001       0.001       0.000       0.044       0.051
  | Times   21:        0.001       0.000       0.000       0.001       0.001       0.005       0.044       0.051
  | Times   22:        0.001       0.002       0.001       0.001       0.001       0.001       0.044       0.051
  | Times   23:        0.001       0.000       0.000       0.001       0.001       0.005       0.044       0.051
  | Times   24:        0.001       0.003       0.001       0.001       0.001       0.000       0.044       0.051
  | Times   25:        0.000       0.000       0.000       0.001       0.001       0.005       0.044       0.051
  | Times   26:        0.001       0.003       0.001       0.001       0.001       0.001       0.044       0.051
  | Times   27:        0.000       0.000       0.000       0.001       0.001       0.005       0.044       0.051
  | Times   28:        0.001       0.003       0.001       0.001       0.001       0.000       0.045       0.051
  | Times   29:        0.000       0.000       0.000       0.001       0.001       0.005       0.045       0.051
  | Times   30:        0.001       0.002       0.001       0.001       0.001       0.001       0.045       0.051
  | Times   31:        0.000       0.000       0.000       0.001       0.001       0.004       0.045       0.051
  | Times   32:        0.001       0.003       0.001       0.001       0.001       0.001       0.043       0.051
  | Times   33:        0.001       0.000       0.000       0.001       0.001       0.005       0.043       0.051
  | Times   34:        0.001       0.003       0.001       0.001       0.001       0.000       0.044       0.051
  | Times   35:        0.001       0.000       0.000       0.001       0.001       0.005       0.043       0.051
  | Times   36:        0.001       0.003       0.001       0.001       0.001       0.000       0.044       0.051
  | Times   37:        0.001       0.000       0.000       0.001       0.001       0.005       0.044       0.051
  | Times   38:        0.001       0.003       0.001       0.001       0.001       0.000       0.044       0.051
  | Times   39:        0.001       0.000       0.000       0.001       0.001       0.005       0.044       0.051
  | Times   40:        0.001       0.003       0.001       0.001       0.001       0.000       0.044       0.051
  | Times   41:        0.001       0.000       0.000       0.001       0.001       0.005       0.044       0.051
  | Times   42:        0.001       0.002       0.001       0.001       0.001       0.001       0.044       0.051
  | Times   43:        0.001       0.000       0.000       0.001       0.001       0.005       0.044       0.051
  | Times   44:        0.001       0.003       0.001       0.001       0.001       0.000       0.044       0.051
  | Times   45:        0.001       0.000       0.000       0.001       0.001       0.005       0.044       0.051
  | Times   46:        0.001       0.002       0.001       0.001       0.001       0.001       0.045       0.051
  | Times   47:        0.001       0.000       0.000       0.001       0.001       0.005       0.044       0.051
  | Times   48:        0.001       0.003       0.001       0.001       0.001       0.000       0.044       0.051
  | Times   49:        0.000       0.000       0.000       0.001       0.001       0.005       0.045       0.051
  | Times   50:        0.000       0.002       0.001       0.001       0.001       0.001       0.045       0.051
  | Times   51:        0.000       0.000       0.000       0.001       0.001       0.005       0.045       0.051
  | Times   52:        0.001       0.002       0.001       0.001       0.001       0.000       0.045       0.051
  | Times   53:        0.000       0.000       0.000       0.001       0.001       0.004       0.045       0.051
  | Times   54:        0.000       0.002       0.001       0.001       0.001       0.001       0.045       0.051
  | Times   55:        0.000       0.000       0.000       0.001       0.001       0.005       0.045       0.051
  | Times   56:        0.001       0.002       0.001       0.001       0.001       0.000       0.046       0.051
  | Times   57:        0.000       0.000       0.000       0.001       0.001       0.004       0.046       0.051
  | Times   58:        0.000       0.002       0.001       0.001       0.001       0.000       0.046       0.051
  | Times   59:        0.000       0.000       0.000       0.001       0.001       0.004       0.046       0.051
  | Times   60:        0.000       0.002       0.001       0.001       0.001       0.000       0.046       0.051
  | Times   61:        0.000       0.000       0.000       0.001       0.001       0.004       0.046       0.051
  | Times   62:        0.000       0.002       0.001       0.001       0.001       0.000       0.046       0.051
  | Times   63:        0.000       0.000       0.000       0.001       0.001       0.004       0.046       0.051
  | Times  sum:        0.043       0.081       0.037       0.066       0.055       0.164       2.836       3.283

  Decomposition of Other based on code block (only on MPI task 0):
  Times             Block #1    Block #2    Block #3    Block #4    Block #5    Block #6    Block #7    Block #8
  | Times    0:        0.037       0.000       0.000       0.000       0.000       0.000       0.000       0.000

  Times             Block #9   Block #10   Block #11   Block #12   Block #13   Block #14   Block #15   Block #16
  | Times    0:        0.000       0.000       0.000       0.001       0.000       0.005       0.000       0.000

  Times            Block Sum    Expected
  | Times    0:        0.043       0.044
  Time for Fock matrix mixing     0.001

  Updating Kohn-Sham eigenvalues and eigenvectors using ELSI and the ELPA eigensolver.
  Starting ELPA eigensolver
  Finished transformation to standard eigenproblem
  | Time :     0.000 s
  Finished solving standard eigenproblem
  | Time :     0.031 s
  Finished back-transformation of eigenvectors
  | Time :     0.000 s

  Obtaining occupation numbers and electronic chemical potential using ELSI.
  | Note that, for insulating systems, the printed 'chemical potential' value is not uniquely defined.
  | It can be anywhere in the energy gap, as long as it correctly separates occupied and unoccupied states.
  | In systems with a gap, the physically relevant chemical potential is the VBM or HOMO.

  | Chemical potential (Fermi level):    -7.91548739 eV
  Writing Kohn-Sham eigenvalues.

  State    Occupation    Eigenvalue [Ha]    Eigenvalue [eV]
      1       2.00000         -14.657599         -398.85356
      2       2.00000          -7.075228         -192.52674
      3       2.00000          -0.972126          -26.45289
      4       2.00000          -0.538560          -14.65497
      5       2.00000          -0.446138          -12.14003
      6       2.00000          -0.446138          -12.14003
      7       0.00000          -0.135640           -3.69095
      8       0.00000           0.022708            0.61792
      9       0.00000           0.022708            0.61792
     10       0.00000           0.130081            3.53969
     11       0.00000           0.169170            4.60334
     12       0.00000           0.177109            4.81939

  Highest occupied state (VBM) at    -12.14002879 eV
  | Occupation number:      2.00000000

  Lowest unoccupied state (CBM) at    -3.69094599 eV
  | Occupation number:      0.00000000

  Overall HOMO-LUMO gap:      8.44908281 eV.

  Total energy components:
  | Sum of eigenvalues            :         -48.27157637 Ha       -1313.53642500 eV
  | XC energy correction          :          -4.43344702 Ha        -120.64023143 eV
  | XC potential correction       :          10.30034576 Ha         280.28666887 eV
  | Free-atom electrostatic energy:         -36.94462506 Ha       -1005.31439784 eV
  | Hartree energy correction     :          -0.15022156 Ha          -4.08773670 eV
  | Entropy correction            :          -0.00000000 Ha          -0.00000000 eV
  | ---------------------------
  | Total energy                  :         -79.49952426 Ha       -2163.29212209 eV
  | Total energy, T -> 0          :         -79.49952426 Ha       -2163.29212209 eV  <-- do not rely on this value for anything but (periodic) metals
  | Electronic free energy        :         -79.49952426 Ha       -2163.29212209 eV

  Derived energy quantities:
  | Kinetic energy                :          78.93966317 Ha        2148.05752669 eV
  | Electrostatic energy          :        -147.76361123 Ha       -4020.85244032 eV
  | Energy correction for multipole
  | error in Hartree potential    :          -0.00002611 Ha          -0.00071038 eV
  | Sum of eigenvalues per atom                           :        -656.76821250 eV
  | Total energy (T->0) per atom                          :       -1081.64606105 eV  <-- do not rely on this value for anything but (periodic) metals
  | Electronic free energy per atom                       :       -1081.64606105 eV
  Evaluating new KS density.
  Integration grid: deviation in total charge (<rho> - N_e) =  -3.552714E-15

  Self-consistency convergence accuracy:
  | Change of charge density      :  0.2308E+00
  | Change of unmixed KS density  :  0.8388E+01
  | Change of sum of eigenvalues  : -0.1534E+03 eV
  | Change of total energy        : -0.8283E+02 eV


------------------------------------------------------------
  End self-consistency iteration #     1       :  max(cpu_time)    wall_clock(cpu1)
  | Time for this iteration                     :        0.102 s           0.102 s
  | Charge density update                       :        0.001 s           0.001 s
  | Density mixing                              :        0.000 s           0.000 s
  | Hartree multipole update                    :        0.001 s           0.001 s
  | Hartree multipole summation                 :        0.002 s           0.003 s
  | Integration                                 :        0.003 s           0.003 s
  | Fock matrix evaluation                      :        0.062 s           0.061 s
  | Solution of K.-S. eqns.                     :        0.032 s           0.032 s
  | Total energy evaluation                     :        0.000 s           0.000 s

  Partial memory accounting:
  | Current value for overall tracked memory usage:
  |   Minimum:        4.320 MB (on task 21)
  |   Maximum:        4.425 MB (on task 58)
  |   Average:        4.362 MB
  | Peak value for overall tracked memory usage:
  |   Minimum:        5.097 MB (on task 21 after allocating wave)
  |   Maximum:        8.621 MB (on task 32 after allocating ovlp3fn_nosplit%tmploc)
  |   Average:        5.355 MB
  | Largest tracked array allocation so far:
  |   Minimum:        3.876 MB (ovlp3fn2%dat on task  0)
  |   Maximum:        3.911 MB (ovlp3fn2%dat on task  2)
  |   Average:        3.894 MB
  Note:  These values currently only include a subset of arrays which are explicitly tracked.
  The "true" memory usage will be greater.
------------------------------------------------------------

------------------------------------------------------------
          Begin self-consistency iteration #    2

  Date     :  20260717, Time     :  150634.644
------------------------------------------------------------
  Pulay mixing of updated and previous charge densities.
  Available memory per node after mixing [GB]:    999.19
  Renormalizing the density to the exact electron count on the 3D integration grid.
  | Formal number of electrons (from input files) :      12.0000000000
  | Integrated number of electrons on 3D grid     :      12.0000000000
  | Charge integration error                      :       0.0000000000
  | Normalization factor for density and gradient :       1.0000000000

  Evaluating partitioned Hartree potential by multipole expansion.
  | Original multipole sum: apparent total charge =   0.378498E-14
  | Sum of charges compensated after spline to logarithmic grids =  -0.622903E-07
  | Analytical far-field extrapolation by fixed multipoles:
  | Hartree multipole sum: apparent total charge =   0.375116E-14
  Summing up the Hartree potential.
  Time summed over all CPUs for potential: real work        0.001 s, elapsed        0.002 s
  | RMS charge density error from multipole expansion :   0.401729E-04

  Integrating Hamiltonian matrix: batch-based integration.
  Time summed over all CPUs for integration: real work        0.137 s, elapsed        0.154 s
  Calculating non-local Hartree-Fock exchange by two-center RI (RI-LVL).
  screening_threshold (crit_val) =  0.000000100000
  Exact exchange progress report - outermost block loop i_block: 1 ..       5
  |        1         2         3         4         5  
 Total ovlp3fn data transfer [GB]   2.0888399740215391E-003
  Average sparsity of tmp1/2 0.50000000
  Average sparsity of fock_matrix_row 0.01282051
  Full exact exchange energy: weighted long- and short-range EXX     85.614156058734 eV.
  Times            DM_x_o3fn   CM_prod_1   CM_prod_2   tmp2_prod        Sync   Imbalance       Other  Total calc
  | Times    0:        0.001       0.003       0.001       0.001       0.001       0.000       0.008       0.016
  | Times    1:        0.001       0.000       0.000       0.001       0.001       0.005       0.008       0.016
  | Times    2:        0.002       0.003       0.001       0.001       0.001       0.001       0.008       0.016
  | Times    3:        0.001       0.000       0.000       0.001       0.001       0.005       0.008       0.016
  | Times    4:        0.001       0.002       0.001       0.001       0.001       0.000       0.009       0.016
  | Times    5:        0.001       0.000       0.000       0.001       0.001       0.004       0.009       0.016
  | Times    6:        0.001       0.002       0.001       0.001       0.001       0.001       0.009       0.016
  | Times    7:        0.001       0.000       0.000       0.001       0.001       0.004       0.009       0.016
  | Times    8:        0.001       0.003       0.001       0.001       0.001       0.000       0.008       0.016
  | Times    9:        0.001       0.000       0.000       0.001       0.001       0.005       0.008       0.016
  | Times   10:        0.001       0.003       0.001       0.001       0.001       0.001       0.008       0.016
  | Times   11:        0.001       0.000       0.000       0.001       0.001       0.005       0.008       0.016
  | Times   12:        0.001       0.003       0.001       0.001       0.001       0.000       0.009       0.016
  | Times   13:        0.001       0.000       0.000       0.001       0.001       0.005       0.009       0.016
  | Times   14:        0.001       0.003       0.001       0.001       0.001       0.001       0.008       0.016
  | Times   15:        0.001       0.000       0.000       0.001       0.001       0.005       0.009       0.016
  | Times   16:        0.001       0.003       0.001       0.001       0.001       0.000       0.008       0.016
  | Times   17:        0.001       0.000       0.000       0.001       0.001       0.005       0.008       0.016
  | Times   18:        0.001       0.003       0.001       0.001       0.001       0.001       0.008       0.016
  | Times   19:        0.001       0.000       0.000       0.001       0.001       0.005       0.008       0.016
  | Times   20:        0.001       0.003       0.001       0.001       0.001       0.000       0.009       0.016
  | Times   21:        0.001       0.000       0.000       0.001       0.001       0.005       0.008       0.016
  | Times   22:        0.001       0.003       0.001       0.001       0.001       0.001       0.008       0.016
  | Times   23:        0.001       0.000       0.000       0.001       0.001       0.005       0.008       0.016
  | Times   24:        0.000       0.003       0.001       0.001       0.001       0.000       0.010       0.016
  | Times   25:        0.000       0.000       0.000       0.001       0.001       0.004       0.010       0.016
  | Times   26:        0.000       0.002       0.001       0.001       0.001       0.001       0.009       0.016
  | Times   27:        0.000       0.000       0.000       0.001       0.001       0.004       0.009       0.016
  | Times   28:        0.001       0.003       0.001       0.001       0.001       0.000       0.009       0.016
  | Times   29:        0.001       0.000       0.000       0.001       0.001       0.004       0.009       0.016
  | Times   30:        0.001       0.002       0.001       0.001       0.001       0.001       0.009       0.016
  | Times   31:        0.001       0.000       0.000       0.001       0.001       0.004       0.009       0.016
  | Times   32:        0.002       0.003       0.001       0.001       0.001       0.001       0.008       0.016
  | Times   33:        0.001       0.000       0.000       0.001       0.001       0.005       0.008       0.016
  | Times   34:        0.001       0.003       0.001       0.001       0.001       0.000       0.008       0.016
  | Times   35:        0.001       0.000       0.000       0.001       0.001       0.005       0.008       0.016
  | Times   36:        0.001       0.002       0.001       0.001       0.001       0.000       0.009       0.016
  | Times   37:        0.001       0.000       0.000       0.001       0.001       0.004       0.009       0.016
  | Times   38:        0.001       0.002       0.001       0.001       0.001       0.000       0.009       0.016
  | Times   39:        0.001       0.000       0.000       0.001       0.001       0.004       0.009       0.016
  | Times   40:        0.001       0.003       0.001       0.001       0.001       0.001       0.008       0.016
  | Times   41:        0.001       0.000       0.000       0.001       0.001       0.005       0.008       0.016
  | Times   42:        0.001       0.003       0.001       0.001       0.001       0.001       0.008       0.016
  | Times   43:        0.001       0.000       0.000       0.001       0.001       0.005       0.008       0.016
  | Times   44:        0.001       0.003       0.001       0.001       0.001       0.001       0.008       0.016
  | Times   45:        0.001       0.000       0.000       0.001       0.001       0.005       0.008       0.016
  | Times   46:        0.001       0.002       0.001       0.001       0.001       0.001       0.009       0.016
  | Times   47:        0.001       0.000       0.000       0.001       0.001       0.005       0.008       0.016
  | Times   48:        0.001       0.003       0.001       0.001       0.001       0.001       0.008       0.016
  | Times   49:        0.001       0.000       0.000       0.001       0.001       0.005       0.008       0.016
  | Times   50:        0.001       0.002       0.001       0.001       0.001       0.001       0.009       0.016
  | Times   51:        0.001       0.000       0.000       0.001       0.001       0.005       0.008       0.016
  | Times   52:        0.001       0.003       0.001       0.001       0.001       0.001       0.008       0.016
  | Times   53:        0.001       0.000       0.000       0.001       0.001       0.005       0.008       0.016
  | Times   54:        0.001       0.003       0.001       0.001       0.001       0.001       0.009       0.016
  | Times   55:        0.001       0.000       0.000       0.001       0.001       0.005       0.008       0.016
  | Times   56:        0.000       0.003       0.001       0.001       0.001       0.001       0.009       0.016
  | Times   57:        0.000       0.000       0.000       0.001       0.001       0.005       0.009       0.016
  | Times   58:        0.000       0.003       0.001       0.001       0.001       0.000       0.009       0.016
  | Times   59:        0.000       0.000       0.000       0.001       0.001       0.005       0.009       0.016
  | Times   60:        0.001       0.003       0.001       0.001       0.001       0.001       0.009       0.016
  | Times   61:        0.001       0.000       0.000       0.001       0.001       0.005       0.009       0.016
  | Times   62:        0.001       0.002       0.001       0.001       0.001       0.001       0.009       0.016
  | Times   63:        0.001       0.000       0.000       0.001       0.001       0.005       0.009       0.016
  | Times  sum:        0.057       0.084       0.038       0.076       0.048       0.165       0.546       1.013

  Decomposition of Other based on code block (only on MPI task 0):
  Times             Block #1    Block #2    Block #3    Block #4    Block #5    Block #6    Block #7    Block #8
  | Times    0:        0.000       0.000       0.000       0.000       0.000       0.000       0.000       0.000

  Times             Block #9   Block #10   Block #11   Block #12   Block #13   Block #14   Block #15   Block #16
  | Times    0:        0.000       0.000       0.000       0.001       0.000       0.006       0.000       0.000

  Times            Block Sum    Expected
  | Times    0:        0.007       0.008
  Time for Fock matrix mixing     0.000

  Updating Kohn-Sham eigenvalues and eigenvectors using ELSI and the ELPA eigensolver.
  Starting ELPA eigensolver
  Finished transformation to standard eigenproblem
  | Time :     0.001 s
  Finished solving standard eigenproblem
  | Time :     0.001 s
  Finished back-transformation of eigenvectors
  | Time :     0.000 s

  Obtaining occupation numbers and electronic chemical potential using ELSI.
  | Note that, for insulating systems, the printed 'chemical potential' value is not uniquely defined.
  | It can be anywhere in the energy gap, as long as it correctly separates occupied and unoccupied states.
  | In systems with a gap, the physically relevant chemical potential is the VBM or HOMO.

  | Chemical potential (Fermi level):    -8.18250438 eV
  Highest occupied state (VBM) at    -13.03875650 eV
  | Occupation number:      2.00000000

  Lowest unoccupied state (CBM) at    -3.32625226 eV
  | Occupation number:      0.00000000

  Overall HOMO-LUMO gap:      9.71250424 eV.

  Checking to see if s.c.f. parameters should be adjusted.

  Total energy components:
  | Sum of eigenvalues            :         -48.62756782 Ha       -1323.22344524 eV
  | XC energy correction          :          -4.40988277 Ha        -119.99901570 eV
  | XC potential correction       :          10.27191188 Ha         279.51294369 eV
  | Free-atom electrostatic energy:         -36.94462506 Ha       -1005.31439784 eV
  | Hartree energy correction     :           0.13473374 Ha           3.66629150 eV
  | Entropy correction            :          -0.00000000 Ha          -0.00000000 eV
  | ---------------------------
  | Total energy                  :         -79.57543004 Ha       -2165.35762359 eV
  | Total energy, T -> 0          :         -79.57543004 Ha       -2165.35762359 eV  <-- do not rely on this value for anything but (periodic) metals
  | Electronic free energy        :         -79.57543004 Ha       -2165.35762359 eV

  Derived energy quantities:
  | Kinetic energy                :          78.78874566 Ha        2143.95085235 eV
  | Electrostatic energy          :        -147.70492983 Ha       -4019.25563827 eV
  | Energy correction for multipole
  | error in Hartree potential    :           0.00006143 Ha           0.00167172 eV
  | Sum of eigenvalues per atom                           :        -661.61172262 eV
  | Total energy (T->0) per atom                          :       -1082.67881179 eV  <-- do not rely on this value for anything but (periodic) metals
  | Electronic free energy per atom                       :       -1082.67881179 eV
  Evaluating new KS density.
  Integration grid: deviation in total charge (<rho> - N_e) =  -5.329071E-15

  Self-consistency convergence accuracy:
  | Change of charge density      :  0.2578E+00
  | Change of unmixed KS density  :  0.7448E-01
  | Change of sum of eigenvalues  : -0.9687E+01 eV
  | Change of total energy        : -0.2066E+01 eV


------------------------------------------------------------
  End self-consistency iteration #     2       :  max(cpu_time)    wall_clock(cpu1)
  | Time for this iteration                     :        0.290 s           0.270 s
  | Charge density update                       :        0.001 s           0.001 s
  | Density mixing                              :        0.268 s           0.245 s
  | Hartree multipole update                    :        0.001 s           0.001 s
  | Hartree multipole summation                 :        0.002 s           0.002 s
  | Integration                                 :        0.003 s           0.003 s
  | Fock matrix evaluation                      :        0.016 s           0.016 s
  | Solution of K.-S. eqns.                     :        0.002 s           0.002 s
  | Total energy evaluation                     :        0.000 s           0.000 s

  Partial memory accounting:
  | Current value for overall tracked memory usage:
  |   Minimum:        4.321 MB (on task 21)
  |   Maximum:        4.426 MB (on task 58)
  |   Average:        4.362 MB
  | Peak value for overall tracked memory usage:
  |   Minimum:        5.098 MB (on task 21 after allocating wave)
  |   Maximum:        8.621 MB (on task 32 after allocating ovlp3fn_nosplit%tmploc)
  |   Average:        5.356 MB
  | Largest tracked array allocation so far:
  |   Minimum:        3.876 MB (ovlp3fn2%dat on task  0)
  |   Maximum:        3.911 MB (ovlp3fn2%dat on task  2)
  |   Average:        3.894 MB
  Note:  These values currently only include a subset of arrays which are explicitly tracked.
  The "true" memory usage will be greater.
------------------------------------------------------------

------------------------------------------------------------
          Begin self-consistency iteration #    3

  Date     :  20260717, Time     :  150634.949
------------------------------------------------------------
  Pulay mixing of updated and previous charge densities.
  Available memory per node after mixing [GB]:    999.17
  Renormalizing the density to the exact electron count on the 3D integration grid.
  | Formal number of electrons (from input files) :      12.0000000000
  | Integrated number of electrons on 3D grid     :      12.0000000000
  | Charge integration error                      :      -0.0000000000
  | Normalization factor for density and gradient :       1.0000000000

  Evaluating partitioned Hartree potential by multipole expansion.
  | Original multipole sum: apparent total charge =   0.354207E-14
  | Sum of charges compensated after spline to logarithmic grids =   0.348125E-06
  | Analytical far-field extrapolation by fixed multipoles:
  | Hartree multipole sum: apparent total charge =   0.314851E-14
  Summing up the Hartree potential.
  Time summed over all CPUs for potential: real work        0.001 s, elapsed        0.001 s
  | RMS charge density error from multipole expansion :   0.119947E-02

  Integrating Hamiltonian matrix: batch-based integration.
  Time summed over all CPUs for integration: real work        0.125 s, elapsed        0.140 s
  Calculating non-local Hartree-Fock exchange by two-center RI (RI-LVL).
  screening_threshold (crit_val) =  0.000000100000
  Exact exchange progress report - outermost block loop i_block: 1 ..       5
  |        1         2         3         4         5  
 Total ovlp3fn data transfer [GB]   2.0888399740215391E-003
  Average sparsity of tmp1/2 0.50000000
  Average sparsity of fock_matrix_row 0.01282051
  Full exact exchange energy: weighted long- and short-range EXX     86.270244761243 eV.
  Times            DM_x_o3fn   CM_prod_1   CM_prod_2   tmp2_prod        Sync   Imbalance       Other  Total calc
  | Times    0:        0.001       0.003       0.001       0.001       0.001       0.000       0.009       0.016
  | Times    1:        0.001       0.000       0.000       0.001       0.001       0.005       0.008       0.016
  | Times    2:        0.002       0.003       0.001       0.001       0.001       0.001       0.008       0.016
  | Times    3:        0.001       0.000       0.000       0.001       0.001       0.005       0.008       0.016
  | Times    4:        0.001       0.002       0.001       0.001       0.001       0.000       0.010       0.016
  | Times    5:        0.001       0.000       0.000       0.001       0.001       0.004       0.010       0.016
  | Times    6:        0.001       0.002       0.001       0.001       0.001       0.000       0.010       0.017
  | Times    7:        0.001       0.000       0.000       0.001       0.001       0.004       0.010       0.016
  | Times    8:        0.001       0.003       0.001       0.001       0.001       0.000       0.009       0.016
  | Times    9:        0.001       0.000       0.000       0.001       0.001       0.005       0.009       0.016
  | Times   10:        0.001       0.003       0.001       0.001       0.001       0.001       0.008       0.016
  | Times   11:        0.001       0.000       0.000       0.001       0.001       0.005       0.009       0.016
  | Times   12:        0.001       0.003       0.001       0.001       0.001       0.000       0.009       0.016
  | Times   13:        0.001       0.000       0.000       0.001       0.001       0.005       0.009       0.016
  | Times   14:        0.001       0.002       0.001       0.001       0.001       0.001       0.009       0.016
  | Times   15:        0.001       0.000       0.000       0.001       0.001       0.005       0.009       0.016
  | Times   16:        0.001       0.002       0.001       0.001       0.001       0.000       0.010       0.016
  | Times   17:        0.001       0.000       0.000       0.001       0.001       0.004       0.010       0.016
  | Times   18:        0.001       0.002       0.001       0.001       0.001       0.001       0.010       0.016
  | Times   19:        0.001       0.000       0.000       0.001       0.001       0.004       0.010       0.016
  | Times   20:        0.001       0.003       0.001       0.001       0.001       0.000       0.010       0.016
  | Times   21:        0.001       0.000       0.000       0.001       0.001       0.005       0.010       0.016
  | Times   22:        0.001       0.003       0.001       0.001       0.001       0.001       0.009       0.016
  | Times   23:        0.001       0.000       0.000       0.001       0.001       0.005       0.010       0.016
  | Times   24:        0.000       0.003       0.001       0.002       0.001       0.000       0.009       0.016
  | Times   25:        0.000       0.000       0.000       0.001       0.001       0.005       0.009       0.016
  | Times   26:        0.000       0.003       0.001       0.002       0.001       0.001       0.009       0.016
  | Times   27:        0.000       0.000       0.000       0.001       0.001       0.005       0.009       0.016
  | Times   28:        0.001       0.003       0.001       0.002       0.001       0.000       0.008       0.016
  | Times   29:        0.001       0.000       0.000       0.001       0.001       0.005       0.008       0.016
  | Times   30:        0.001       0.003       0.001       0.002       0.001       0.001       0.008       0.016
  | Times   31:        0.001       0.000       0.000       0.001       0.001       0.005       0.008       0.016
  | Times   32:        0.001       0.002       0.001       0.001       0.001       0.001       0.010       0.016
  | Times   33:        0.001       0.000       0.000       0.001       0.001       0.004       0.010       0.016
  | Times   34:        0.001       0.002       0.001       0.001       0.001       0.000       0.010       0.016
  | Times   35:        0.001       0.000       0.000       0.001       0.001       0.004       0.010       0.016
  | Times   36:        0.001       0.003       0.001       0.001       0.001       0.001       0.008       0.016
  | Times   37:        0.001       0.000       0.000       0.001       0.001       0.005       0.009       0.016
  | Times   38:        0.001       0.003       0.001       0.001       0.001       0.000       0.009       0.016
  | Times   39:        0.001       0.000       0.000       0.001       0.001       0.005       0.009       0.016
  | Times   40:        0.001       0.002       0.001       0.001       0.001       0.001       0.010       0.016
  | Times   41:        0.001       0.000       0.000       0.001       0.001       0.004       0.010       0.016
  | Times   42:        0.001       0.002       0.001       0.001       0.001       0.000       0.010       0.016
  | Times   43:        0.001       0.000       0.000       0.001       0.001       0.004       0.010       0.016
  | Times   44:        0.001       0.003       0.001       0.001       0.001       0.001       0.009       0.016
  | Times   45:        0.001       0.000       0.000       0.001       0.001       0.005       0.009       0.016
  | Times   46:        0.001       0.002       0.001       0.001       0.001       0.000       0.009       0.016
  | Times   47:        0.001       0.000       0.000       0.001       0.001       0.005       0.009       0.016
  | Times   48:        0.001       0.003       0.001       0.001       0.001       0.001       0.009       0.016
  | Times   49:        0.001       0.000       0.000       0.001       0.001       0.005       0.009       0.016
  | Times   50:        0.001       0.002       0.001       0.001       0.001       0.001       0.009       0.016
  | Times   51:        0.001       0.000       0.000       0.001       0.001       0.005       0.009       0.016
  | Times   52:        0.001       0.003       0.001       0.001       0.001       0.001       0.009       0.016
  | Times   53:        0.001       0.000       0.000       0.001       0.001       0.005       0.009       0.016
  | Times   54:        0.001       0.003       0.001       0.001       0.001       0.001       0.009       0.016
  | Times   55:        0.001       0.000       0.000       0.001       0.001       0.005       0.009       0.016
  | Times   56:        0.000       0.003       0.001       0.001       0.001       0.001       0.010       0.016
  | Times   57:        0.000       0.000       0.000       0.001       0.001       0.005       0.010       0.016
  | Times   58:        0.000       0.002       0.001       0.001       0.001       0.001       0.010       0.016
  | Times   59:        0.000       0.000       0.000       0.001       0.001       0.005       0.010       0.016
  | Times   60:        0.001       0.003       0.001       0.001       0.001       0.001       0.009       0.016
  | Times   61:        0.001       0.000       0.000       0.001       0.001       0.005       0.009       0.016
  | Times   62:        0.001       0.002       0.001       0.001       0.001       0.001       0.010       0.016
  | Times   63:        0.001       0.000       0.000       0.001       0.001       0.005       0.009       0.016
  | Times  sum:        0.056       0.083       0.037       0.075       0.044       0.165       0.592       1.053

  Decomposition of Other based on code block (only on MPI task 0):
  Times             Block #1    Block #2    Block #3    Block #4    Block #5    Block #6    Block #7    Block #8
  | Times    0:        0.000       0.000       0.000       0.000       0.000       0.000       0.001       0.000

  Times             Block #9   Block #10   Block #11   Block #12   Block #13   Block #14   Block #15   Block #16
  | Times    0:        0.000       0.000       0.000       0.001       0.000       0.006       0.000       0.000

  Times            Block Sum    Expected
  | Times    0:        0.008       0.009
  Time for Fock matrix mixing     0.000

  Updating Kohn-Sham eigenvalues and eigenvectors using ELSI and the ELPA eigensolver.
  Starting ELPA eigensolver
  Finished transformation to standard eigenproblem
  | Time :     0.000 s
  Finished solving standard eigenproblem
  | Time :     0.001 s
  Finished back-transformation of eigenvectors
  | Time :     0.000 s

  Obtaining occupation numbers and electronic chemical potential using ELSI.
  | Note that, for insulating systems, the printed 'chemical potential' value is not uniquely defined.
  | It can be anywhere in the energy gap, as long as it correctly separates occupied and unoccupied states.
  | In systems with a gap, the physically relevant chemical potential is the VBM or HOMO.

  | Chemical potential (Fermi level):    -7.07867492 eV
  Highest occupied state (VBM) at     -9.29850988 eV
  | Occupation number:      2.00000000

  Lowest unoccupied state (CBM) at    -4.85883996 eV
  | Occupation number:      0.00000000

  Overall HOMO-LUMO gap:      4.43966992 eV.

  Total energy components:
  | Sum of eigenvalues            :         -47.08616856 Ha       -1281.27983742 eV
  | XC energy correction          :          -4.60328247 Ha        -125.26168934 eV
  | XC potential correction       :          10.41498558 Ha         283.40617722 eV
  | Free-atom electrostatic energy:         -36.94462506 Ha       -1005.31439784 eV
  | Hartree energy correction     :          -1.30060315 Ha         -35.39121232 eV
  | Entropy correction            :          -0.00000000 Ha          -0.00000000 eV
  | ---------------------------
  | Total energy                  :         -79.51969367 Ha       -2163.84095971 eV
  | Total energy, T -> 0          :         -79.51969367 Ha       -2163.84095971 eV  <-- do not rely on this value for anything but (periodic) metals
  | Electronic free energy        :         -79.51969367 Ha       -2163.84095971 eV

  Derived energy quantities:
  | Kinetic energy                :          78.96908118 Ha        2148.85803153 eV
  | Electrostatic energy          :        -147.82353020 Ha       -4022.48291852 eV
  | Energy correction for multipole
  | error in Hartree potential    :          -0.00040317 Ha          -0.01097090 eV
  | Sum of eigenvalues per atom                           :        -640.63991871 eV
  | Total energy (T->0) per atom                          :       -1081.92047985 eV  <-- do not rely on this value for anything but (periodic) metals
  | Electronic free energy per atom                       :       -1081.92047985 eV
  Evaluating new KS density.
  Integration grid: deviation in total charge (<rho> - N_e) =   3.552714E-15

  Self-consistency convergence accuracy:
  | Change of charge density      :  0.3394E+00
  | Change of unmixed KS density  :  0.6657E-01
  | Change of sum of eigenvalues  :  0.4194E+02 eV
  | Change of total energy        :  0.1517E+01 eV


------------------------------------------------------------
  End self-consistency iteration #     3       :  max(cpu_time)    wall_clock(cpu1)
  | Time for this iteration                     :        0.377 s           0.357 s
  | Charge density update                       :        0.001 s           0.001 s
  | Density mixing                              :        0.354 s           0.332 s
  | Hartree multipole update                    :        0.001 s           0.001 s
  | Hartree multipole summation                 :        0.002 s           0.002 s
  | Integration                                 :        0.002 s           0.002 s
  | Fock matrix evaluation                      :        0.017 s           0.017 s
  | Solution of K.-S. eqns.                     :        0.002 s           0.002 s
  | Total energy evaluation                     :        0.000 s           0.000 s

  Partial memory accounting:
  | Current value for overall tracked memory usage:
  |   Minimum:        4.321 MB (on task 21)
  |   Maximum:        4.426 MB (on task 58)
  |   Average:        4.362 MB
  | Peak value for overall tracked memory usage:
  |   Minimum:        5.098 MB (on task 21 after allocating wave)
  |   Maximum:        8.621 MB (on task 32 after allocating ovlp3fn_nosplit%tmploc)
  |   Average:        5.356 MB
  | Largest tracked array allocation so far:
  |   Minimum:        3.876 MB (ovlp3fn2%dat on task  0)
  |   Maximum:        3.911 MB (ovlp3fn2%dat on task  2)
  |   Average:        3.894 MB
  Note:  These values currently only include a subset of arrays which are explicitly tracked.
  The "true" memory usage will be greater.
------------------------------------------------------------

------------------------------------------------------------
          Begin self-consistency iteration #    4

  Date     :  20260717, Time     :  150635.325
------------------------------------------------------------
  Pulay mixing of updated and previous charge densities.
  Available memory per node after mixing [GB]:    999.16
  Renormalizing the density to the exact electron count on the 3D integration grid.
  | Formal number of electrons (from input files) :      12.0000000000
  | Integrated number of electrons on 3D grid     :      12.0000000000
  | Charge integration error                      :       0.0000000000
  | Normalization factor for density and gradient :       1.0000000000

  Evaluating partitioned Hartree potential by multipole expansion.
  | Original multipole sum: apparent total charge =   0.162345E-14
  | Sum of charges compensated after spline to logarithmic grids =   0.724761E-07
  | Analytical far-field extrapolation by fixed multipoles:
  | Hartree multipole sum: apparent total charge =   0.145127E-14
  Summing up the Hartree potential.
  Time summed over all CPUs for potential: real work        0.001 s, elapsed        0.001 s
  | RMS charge density error from multipole expansion :   0.686589E-03

  Integrating Hamiltonian matrix: batch-based integration.
  Time summed over all CPUs for integration: real work        0.125 s, elapsed        0.145 s
  Calculating non-local Hartree-Fock exchange by two-center RI (RI-LVL).
  screening_threshold (crit_val) =  0.000000100000
  Exact exchange progress report - outermost block loop i_block: 1 ..       5
  |        1         2         3         4         5  
 Total ovlp3fn data transfer [GB]   2.0888399740215391E-003
  Average sparsity of tmp1/2 0.50000000
  Average sparsity of fock_matrix_row 0.01282051
  Full exact exchange energy: weighted long- and short-range EXX     82.659184502913 eV.
  Times            DM_x_o3fn   CM_prod_1   CM_prod_2   tmp2_prod        Sync   Imbalance       Other  Total calc
  | Times    0:        0.001       0.003       0.001       0.001       0.001       0.001       0.009       0.017
  | Times    1:        0.001       0.000       0.000       0.001       0.001       0.006       0.009       0.017
  | Times    2:        0.002       0.003       0.002       0.001       0.001       0.001       0.008       0.017
  | Times    3:        0.001       0.000       0.000       0.001       0.001       0.006       0.009       0.017
  | Times    4:        0.001       0.002       0.001       0.001       0.001       0.000       0.011       0.017
  | Times    5:        0.001       0.000       0.000       0.001       0.001       0.004       0.011       0.017
  | Times    6:        0.001       0.002       0.001       0.001       0.001       0.001       0.011       0.018
  | Times    7:        0.001       0.000       0.000       0.001       0.001       0.004       0.011       0.017
  | Times    8:        0.001       0.003       0.001       0.001       0.001       0.000       0.010       0.017
  | Times    9:        0.001       0.000       0.000       0.001       0.001       0.005       0.010       0.017
  | Times   10:        0.001       0.003       0.001       0.001       0.001       0.001       0.010       0.017
  | Times   11:        0.001       0.000       0.000       0.001       0.001       0.005       0.010       0.017
  | Times   12:        0.001       0.003       0.001       0.001       0.001       0.000       0.011       0.017
  | Times   13:        0.001       0.000       0.000       0.001       0.001       0.005       0.010       0.017
  | Times   14:        0.001       0.002       0.001       0.001       0.001       0.001       0.010       0.017
  | Times   15:        0.001       0.000       0.000       0.001       0.001       0.005       0.010       0.017
  | Times   16:        0.001       0.002       0.001       0.001       0.001       0.000       0.011       0.017
  | Times   17:        0.001       0.000       0.000       0.001       0.001       0.004       0.011       0.017
  | Times   18:        0.001       0.002       0.001       0.001       0.001       0.000       0.011       0.017
  | Times   19:        0.001       0.000       0.000       0.001       0.001       0.004       0.011       0.017
  | Times   20:        0.001       0.003       0.001       0.001       0.001       0.000       0.010       0.017
  | Times   21:        0.001       0.000       0.000       0.001       0.001       0.005       0.010       0.017
  | Times   22:        0.001       0.003       0.001       0.002       0.001       0.001       0.009       0.017
  | Times   23:        0.000       0.000       0.000       0.001       0.001       0.005       0.010       0.017
  | Times   24:        0.000       0.003       0.001       0.001       0.001       0.000       0.012       0.017
  | Times   25:        0.000       0.000       0.000       0.001       0.001       0.004       0.011       0.017
  | Times   26:        0.000       0.002       0.001       0.001       0.001       0.001       0.011       0.017
  | Times   27:        0.000       0.000       0.000       0.001       0.001       0.004       0.011       0.017
  | Times   28:        0.001       0.003       0.001       0.002       0.001       0.000       0.010       0.017
  | Times   29:        0.001       0.000       0.000       0.001       0.001       0.005       0.009       0.017
  | Times   30:        0.001       0.003       0.001       0.002       0.001       0.001       0.009       0.017
  | Times   31:        0.001       0.000       0.000       0.001       0.001       0.005       0.009       0.017
  | Times   32:        0.001       0.002       0.001       0.001       0.001       0.001       0.010       0.017
  | Times   33:        0.001       0.000       0.000       0.001       0.001       0.004       0.011       0.017
  | Times   34:        0.001       0.003       0.001       0.001       0.001       0.000       0.011       0.017
  | Times   35:        0.001       0.000       0.000       0.001       0.001       0.004       0.011       0.017
  | Times   36:        0.001       0.002       0.001       0.001       0.001       0.001       0.011       0.017
  | Times   37:        0.001       0.000       0.000       0.001       0.001       0.004       0.011       0.017
  | Times   38:        0.001       0.002       0.001       0.001       0.001       0.000       0.011       0.017
  | Times   39:        0.001       0.000       0.000       0.001       0.001       0.004       0.011       0.017
  | Times   40:        0.001       0.003       0.001       0.001       0.001       0.001       0.010       0.017
  | Times   41:        0.001       0.000       0.000       0.001       0.001       0.005       0.010       0.017
  | Times   42:        0.001       0.003       0.001       0.001       0.001       0.000       0.010       0.017
  | Times   43:        0.001       0.000       0.000       0.001       0.001       0.005       0.010       0.017
  | Times   44:        0.001       0.003       0.001       0.001       0.001       0.001       0.010       0.017
  | Times   45:        0.001       0.000       0.000       0.001       0.001       0.005       0.010       0.017
  | Times   46:        0.001       0.002       0.001       0.001       0.001       0.000       0.010       0.017
  | Times   47:        0.001       0.000       0.000       0.001       0.001       0.005       0.010       0.017
  | Times   48:        0.001       0.003       0.001       0.001       0.001       0.001       0.010       0.017
  | Times   49:        0.001       0.000       0.000       0.001       0.001       0.005       0.010       0.017
  | Times   50:        0.001       0.002       0.001       0.001       0.001       0.001       0.010       0.017
  | Times   51:        0.001       0.000       0.000       0.001       0.001       0.005       0.010       0.017
  | Times   52:        0.001       0.003       0.001       0.001       0.001       0.001       0.010       0.017
  | Times   53:        0.001       0.000       0.000       0.001       0.001       0.005       0.010       0.017
  | Times   54:        0.001       0.003       0.001       0.001       0.001       0.000       0.010       0.017
  | Times   55:        0.001       0.000       0.000       0.001       0.001       0.005       0.010       0.017
  | Times   56:        0.000       0.003       0.001       0.001       0.001       0.001       0.011       0.017
  | Times   57:        0.000       0.000       0.000       0.001       0.001       0.004       0.011       0.017
  | Times   58:        0.000       0.002       0.001       0.001       0.001       0.001       0.011       0.017
  | Times   59:        0.000       0.000       0.000       0.001       0.001       0.005       0.011       0.017
  | Times   60:        0.001       0.003       0.001       0.001       0.001       0.001       0.010       0.017
  | Times   61:        0.001       0.000       0.000       0.001       0.001       0.005       0.011       0.017
  | Times   62:        0.001       0.002       0.001       0.001       0.001       0.001       0.011       0.017
  | Times   63:        0.001       0.000       0.000       0.001       0.001       0.005       0.011       0.017
  | Times  sum:        0.056       0.082       0.037       0.075       0.043       0.164       0.663       1.119

  Decomposition of Other based on code block (only on MPI task 0):
  Times             Block #1    Block #2    Block #3    Block #4    Block #5    Block #6    Block #7    Block #8
  | Times    0:        0.000       0.000       0.000       0.000       0.000       0.000       0.000       0.000

  Times             Block #9   Block #10   Block #11   Block #12   Block #13   Block #14   Block #15   Block #16
  | Times    0:        0.000       0.000       0.000       0.003       0.000       0.005       0.000       0.000

  Times            Block Sum    Expected
  | Times    0:        0.008       0.009
  Time for Fock matrix mixing     0.000

  Updating Kohn-Sham eigenvalues and eigenvectors using ELSI and the ELPA eigensolver.
  Starting ELPA eigensolver
  Finished transformation to standard eigenproblem
  | Time :     0.000 s
  Finished solving standard eigenproblem
  | Time :     0.001 s
  Finished back-transformation of eigenvectors
  | Time :     0.001 s

  Obtaining occupation numbers and electronic chemical potential using ELSI.
  | Note that, for insulating systems, the printed 'chemical potential' value is not uniquely defined.
  | It can be anywhere in the energy gap, as long as it correctly separates occupied and unoccupied states.
  | In systems with a gap, the physically relevant chemical potential is the VBM or HOMO.

  | Chemical potential (Fermi level):    -7.73904537 eV
  Highest occupied state (VBM) at    -11.24323382 eV
  | Occupation number:      2.00000000

  Lowest unoccupied state (CBM) at    -4.23485693 eV
  | Occupation number:      0.00000000

  Overall HOMO-LUMO gap:      7.00837689 eV.

  Total energy components:
  | Sum of eigenvalues            :         -47.94883843 Ha       -1304.75427889 eV
  | XC energy correction          :          -4.46487172 Ha        -121.49534116 eV
  | XC potential correction       :          10.31399082 Ha         280.65796987 eV
  | Free-atom electrostatic energy:         -36.94462506 Ha       -1005.31439784 eV
  | Hartree energy correction     :          -0.39730795 Ha         -10.81129927 eV
  | Entropy correction            :          -0.00000000 Ha          -0.00000000 eV
  | ---------------------------
  | Total energy                  :         -79.44165235 Ha       -2161.71734729 eV
  | Total energy, T -> 0          :         -79.44165235 Ha       -2161.71734729 eV  <-- do not rely on this value for anything but (periodic) metals
  | Electronic free energy        :         -79.44165235 Ha       -2161.71734729 eV

  Derived energy quantities:
  | Kinetic energy                :          78.90097299 Ha        2147.00471348 eV
  | Electrostatic energy          :        -147.68021648 Ha       -4018.58315363 eV
  | Energy correction for multipole
  | error in Hartree potential    :          -0.00020320 Ha          -0.00552945 eV
  | Sum of eigenvalues per atom                           :        -652.37713945 eV
  | Total energy (T->0) per atom                          :       -1080.85867364 eV  <-- do not rely on this value for anything but (periodic) metals
  | Electronic free energy per atom                       :       -1080.85867364 eV
  Evaluating new KS density.
  Integration grid: deviation in total charge (<rho> - N_e) =  -5.329071E-15

  Self-consistency convergence accuracy:
  | Change of charge density      :  0.2132E+00
  | Change of unmixed KS density  :  0.4011E+00
  | Change of sum of eigenvalues  : -0.2347E+02 eV
  | Change of total energy        :  0.2124E+01 eV


------------------------------------------------------------
  End self-consistency iteration #     4       :  max(cpu_time)    wall_clock(cpu1)
  | Time for this iteration                     :        0.283 s           0.283 s
  | Charge density update                       :        0.001 s           0.001 s
  | Density mixing                              :        0.259 s           0.256 s
  | Hartree multipole update                    :        0.001 s           0.001 s
  | Hartree multipole summation                 :        0.002 s           0.002 s
  | Integration                                 :        0.003 s           0.002 s
  | Fock matrix evaluation                      :        0.018 s           0.019 s
  | Solution of K.-S. eqns.                     :        0.002 s           0.002 s
  | Total energy evaluation                     :        0.000 s           0.000 s

  Partial memory accounting:
  | Current value for overall tracked memory usage:
  |   Minimum:        4.321 MB (on task 21)
  |   Maximum:        4.426 MB (on task 58)
  |   Average:        4.362 MB
  | Peak value for overall tracked memory usage:
  |   Minimum:        5.098 MB (on task 21 after allocating wave)
  |   Maximum:        8.621 MB (on task 32 after allocating ovlp3fn_nosplit%tmploc)
  |   Average:        5.356 MB
  | Largest tracked array allocation so far:
  |   Minimum:        3.876 MB (ovlp3fn2%dat on task  0)
  |   Maximum:        3.911 MB (ovlp3fn2%dat on task  2)
  |   Average:        3.894 MB
  Note:  These values currently only include a subset of arrays which are explicitly tracked.
  The "true" memory usage will be greater.
------------------------------------------------------------

------------------------------------------------------------
          Begin self-consistency iteration #    5

  Date     :  20260717, Time     :  150635.646
------------------------------------------------------------
  Pulay mixing of updated and previous charge densities.
  Available memory per node after mixing [GB]:    999.16
  Renormalizing the density to the exact electron count on the 3D integration grid.
  | Formal number of electrons (from input files) :      12.0000000000
  | Integrated number of electrons on 3D grid     :      12.0000000000
  | Charge integration error                      :       0.0000000000
  | Normalization factor for density and gradient :       1.0000000000

  Evaluating partitioned Hartree potential by multipole expansion.
  | Original multipole sum: apparent total charge =   0.570668E-14
  | Sum of charges compensated after spline to logarithmic grids =   0.982235E-07
  | Analytical far-field extrapolation by fixed multipoles:
  | Hartree multipole sum: apparent total charge =   0.531311E-14
  Summing up the Hartree potential.
  Time summed over all CPUs for potential: real work        0.001 s, elapsed        0.001 s
  | RMS charge density error from multipole expansion :   0.156972E-02

  Integrating Hamiltonian matrix: batch-based integration.
  Time summed over all CPUs for integration: real work        0.127 s, elapsed        0.152 s
  Calculating non-local Hartree-Fock exchange by two-center RI (RI-LVL).
  screening_threshold (crit_val) =  0.000000100000
  Exact exchange progress report - outermost block loop i_block: 1 ..       4
  |        1         2         3         4  
 Total ovlp3fn data transfer [GB]   1.6710719792172313E-003
  Average sparsity of tmp1/2 0.50000000
  Average sparsity of fock_matrix_row 0.01282051
  Full exact exchange energy: weighted long- and short-range EXX     84.805349375736 eV.
  Times            DM_x_o3fn   CM_prod_1   CM_prod_2   tmp2_prod        Sync   Imbalance       Other  Total calc
  | Times    0:        0.001       0.002       0.001       0.001       0.001       0.000       0.011       0.017
  | Times    1:        0.001       0.000       0.000       0.001       0.001       0.004       0.011       0.017
  | Times    2:        0.001       0.002       0.001       0.001       0.001       0.001       0.011       0.017
  | Times    3:        0.001       0.000       0.000       0.001       0.001       0.004       0.011       0.017
  | Times    4:        0.001       0.004       0.002       0.001       0.001       0.000       0.008       0.017
  | Times    5:        0.001       0.000       0.000       0.001       0.001       0.007       0.007       0.017
  | Times    6:        0.001       0.003       0.002       0.001       0.001       0.002       0.008       0.018
  | Times    7:        0.001       0.000       0.000       0.001       0.001       0.007       0.007       0.017
  | Times    8:        0.001       0.002       0.001       0.001       0.001       0.000       0.011       0.017
  | Times    9:        0.001       0.000       0.000       0.001       0.001       0.004       0.011       0.017
  | Times   10:        0.001       0.002       0.001       0.001       0.001       0.001       0.011       0.017
  | Times   11:        0.001       0.000       0.000       0.001       0.001       0.004       0.011       0.017
  | Times   12:        0.001       0.003       0.001       0.001       0.001       0.001       0.009       0.017
  | Times   13:        0.001       0.000       0.000       0.001       0.001       0.006       0.009       0.017
  | Times   14:        0.001       0.003       0.001       0.001       0.001       0.001       0.009       0.017
  | Times   15:        0.001       0.000       0.000       0.001       0.001       0.006       0.009       0.017
  | Times   16:        0.001       0.003       0.001       0.001       0.001       0.000       0.010       0.017
  | Times   17:        0.001       0.000       0.000       0.001       0.001       0.005       0.010       0.017
  | Times   18:        0.001       0.003       0.001       0.001       0.001       0.001       0.010       0.017
  | Times   19:        0.001       0.000       0.000       0.001       0.001       0.005       0.010       0.017
  | Times   20:        0.001       0.003       0.001       0.001       0.001       0.000       0.010       0.017
  | Times   21:        0.001       0.000       0.000       0.001       0.001       0.005       0.010       0.017
  | Times   22:        0.001       0.003       0.001       0.001       0.001       0.001       0.010       0.017
  | Times   23:        0.001       0.000       0.000       0.001       0.001       0.005       0.010       0.017
  | Times   24:        0.000       0.003       0.001       0.002       0.001       0.000       0.010       0.017
  | Times   25:        0.000       0.000       0.000       0.001       0.001       0.005       0.010       0.017
  | Times   26:        0.000       0.003       0.001       0.002       0.001       0.001       0.010       0.017
  | Times   27:        0.000       0.000       0.000       0.001       0.001       0.005       0.010       0.017
  | Times   28:        0.001       0.003       0.002       0.002       0.001       0.000       0.009       0.017
  | Times   29:        0.001       0.000       0.000       0.001       0.001       0.005       0.009       0.017
  | Times   30:        0.001       0.003       0.001       0.002       0.001       0.001       0.009       0.017
  | Times   31:        0.001       0.000       0.000       0.001       0.001       0.005       0.009       0.017
  | Times   32:        0.001       0.002       0.001       0.001       0.001       0.001       0.010       0.017
  | Times   33:        0.001       0.000       0.000       0.001       0.001       0.004       0.011       0.017
  | Times   34:        0.001       0.002       0.001       0.001       0.001       0.000       0.011       0.017
  | Times   35:        0.001       0.000       0.000       0.001       0.001       0.004       0.011       0.017
  | Times   36:        0.001       0.003       0.001       0.001       0.001       0.001       0.009       0.017
  | Times   37:        0.001       0.000       0.000       0.001       0.001       0.005       0.010       0.017
  | Times   38:        0.001       0.003       0.001       0.001       0.001       0.000       0.010       0.017
  | Times   39:        0.001       0.000       0.000       0.001       0.001       0.005       0.010       0.017
  | Times   40:        0.001       0.002       0.001       0.001       0.001       0.000       0.011       0.017
  | Times   41:        0.001       0.000       0.000       0.001       0.001       0.004       0.011       0.017
  | Times   42:        0.001       0.002       0.001       0.001       0.001       0.001       0.011       0.017
  | Times   43:        0.001       0.000       0.000       0.001       0.001       0.004       0.011       0.017
  | Times   44:        0.001       0.003       0.001       0.001       0.001       0.001       0.010       0.017
  | Times   45:        0.001       0.000       0.000       0.001       0.001       0.005       0.010       0.017
  | Times   46:        0.001       0.002       0.001       0.001       0.001       0.001       0.010       0.017
  | Times   47:        0.001       0.000       0.000       0.001       0.001       0.005       0.010       0.017
  | Times   48:        0.001       0.003       0.001       0.001       0.001       0.001       0.010       0.017
  | Times   49:        0.001       0.000       0.000       0.001       0.001       0.005       0.010       0.017
  | Times   50:        0.001       0.003       0.001       0.001       0.001       0.000       0.010       0.017
  | Times   51:        0.001       0.000       0.000       0.001       0.001       0.005       0.010       0.017
  | Times   52:        0.001       0.003       0.001       0.001       0.001       0.001       0.010       0.017
  | Times   53:        0.001       0.000       0.000       0.001       0.001       0.005       0.010       0.017
  | Times   54:        0.001       0.003       0.001       0.001       0.001       0.001       0.010       0.017
  | Times   55:        0.001       0.000       0.000       0.001       0.001       0.005       0.010       0.017
  | Times   56:        0.000       0.003       0.001       0.001       0.001       0.001       0.010       0.017
  | Times   57:        0.000       0.000       0.000       0.001       0.001       0.005       0.011       0.017
  | Times   58:        0.000       0.002       0.001       0.001       0.001       0.001       0.011       0.017
  | Times   59:        0.000       0.000       0.000       0.001       0.001       0.005       0.011       0.017
  | Times   60:        0.001       0.003       0.001       0.001       0.001       0.001       0.010       0.017
  | Times   61:        0.001       0.000       0.000       0.001       0.001       0.005       0.010       0.017
  | Times   62:        0.001       0.002       0.001       0.001       0.001       0.001       0.011       0.017
  | Times   63:        0.001       0.000       0.000       0.001       0.001       0.005       0.010       0.017
  | Times  sum:        0.053       0.085       0.039       0.074       0.041       0.172       0.635       1.099

  Decomposition of Other based on code block (only on MPI task 0):
  Times             Block #1    Block #2    Block #3    Block #4    Block #5    Block #6    Block #7    Block #8
  | Times    0:        0.000       0.000       0.000       0.000       0.000       0.000       0.000       0.000

  Times             Block #9   Block #10   Block #11   Block #12   Block #13   Block #14   Block #15   Block #16
  | Times    0:        0.000       0.000       0.000       0.001       0.000       0.005       0.000       0.000

  Times            Block Sum    Expected
  | Times    0:        0.007       0.011
  Time for Fock matrix mixing     0.000

  Updating Kohn-Sham eigenvalues and eigenvectors using ELSI and the ELPA eigensolver.
  Starting ELPA eigensolver
  Finished transformation to standard eigenproblem
  | Time :     0.000 s
  Finished solving standard eigenproblem
  | Time :     0.001 s
  Finished back-transformation of eigenvectors
  | Time :     0.000 s

  Obtaining occupation numbers and electronic chemical potential using ELSI.
  | Note that, for insulating systems, the printed 'chemical potential' value is not uniquely defined.
  | It can be anywhere in the energy gap, as long as it correctly separates occupied and unoccupied states.
  | In systems with a gap, the physically relevant chemical potential is the VBM or HOMO.

  | Chemical potential (Fermi level):    -7.54525385 eV
  Highest occupied state (VBM) at    -10.30994975 eV
  | Occupation number:      2.00000000

  Lowest unoccupied state (CBM) at    -4.78055796 eV
  | Occupation number:      0.00000000

  Overall HOMO-LUMO gap:      5.52939179 eV.

  Total energy components:
  | Sum of eigenvalues            :         -47.65758577 Ha       -1296.82889068 eV
  | XC energy correction          :          -4.50443740 Ha        -122.57197804 eV
  | XC potential correction       :          10.31601396 Ha         280.71302242 eV
  | Free-atom electrostatic energy:         -36.94462506 Ha       -1005.31439784 eV
  | Hartree energy correction     :          -0.63659485 Ha         -17.32262714 eV
  | Entropy correction            :          -0.00000000 Ha          -0.00000000 eV
  | ---------------------------
  | Total energy                  :         -79.42722912 Ha       -2161.32487128 eV
  | Total energy, T -> 0          :         -79.42722912 Ha       -2161.32487128 eV  <-- do not rely on this value for anything but (periodic) metals
  | Electronic free energy        :         -79.42722912 Ha       -2161.32487128 eV

  Derived energy quantities:
  | Kinetic energy                :          78.59939531 Ha        2138.79836727 eV
  | Electrostatic energy          :        -147.40309208 Ha       -4011.04221500 eV
  | Energy correction for multipole
  | error in Hartree potential    :          -0.00051985 Ha          -0.01414573 eV
  | Sum of eigenvalues per atom                           :        -648.41444534 eV
  | Total energy (T->0) per atom                          :       -1080.66243564 eV  <-- do not rely on this value for anything but (periodic) metals
  | Electronic free energy per atom                       :       -1080.66243564 eV
  Evaluating new KS density.
  Integration grid: deviation in total charge (<rho> - N_e) =  -7.105427E-15

  Self-consistency convergence accuracy:
  | Change of charge density      :  0.1639E+00
  | Change of unmixed KS density  :  0.2580E+00
  | Change of sum of eigenvalues  :  0.7925E+01 eV
  | Change of total energy        :  0.3925E+00 eV


------------------------------------------------------------
  End self-consistency iteration #     5       :  max(cpu_time)    wall_clock(cpu1)
  | Time for this iteration                     :        0.298 s           0.275 s
  | Charge density update                       :        0.001 s           0.002 s
  | Density mixing                              :        0.271 s           0.248 s
  | Hartree multipole update                    :        0.001 s           0.001 s
  | Hartree multipole summation                 :        0.002 s           0.001 s
  | Integration                                 :        0.003 s           0.003 s
  | Fock matrix evaluation                      :        0.018 s           0.019 s
  | Solution of K.-S. eqns.                     :        0.002 s           0.001 s
  | Total energy evaluation                     :        0.000 s           0.000 s

  Partial memory accounting:
  | Current value for overall tracked memory usage:
  |   Minimum:        4.321 MB (on task 21)
  |   Maximum:        4.426 MB (on task 58)
  |   Average:        4.362 MB
  | Peak value for overall tracked memory usage:
  |   Minimum:        5.098 MB (on task 21 after allocating wave)
  |   Maximum:        8.621 MB (on task 32 after allocating ovlp3fn_nosplit%tmploc)
  |   Average:        5.356 MB
  | Largest tracked array allocation so far:
  |   Minimum:        3.876 MB (ovlp3fn2%dat on task  0)
  |   Maximum:        3.911 MB (ovlp3fn2%dat on task  2)
  |   Average:        3.894 MB
  Note:  These values currently only include a subset of arrays which are explicitly tracked.
  The "true" memory usage will be greater.
------------------------------------------------------------

------------------------------------------------------------
          Begin self-consistency iteration #    6

  Date     :  20260717, Time     :  150636.159
------------------------------------------------------------
  Pulay mixing of updated and previous charge densities.
  Available memory per node after mixing [GB]:    999.16
  Renormalizing the density to the exact electron count on the 3D integration grid.
  | Formal number of electrons (from input files) :      12.0000000000
  | Integrated number of electrons on 3D grid     :      12.0000000000
  | Charge integration error                      :      -0.0000000000
  | Normalization factor for density and gradient :       1.0000000000

  Evaluating partitioned Hartree potential by multipole expansion.
  | Original multipole sum: apparent total charge =   0.368966E-14
  | Sum of charges compensated after spline to logarithmic grids =   0.986215E-07
  | Analytical far-field extrapolation by fixed multipoles:
  | Hartree multipole sum: apparent total charge =   0.418162E-14
  Summing up the Hartree potential.
  Time summed over all CPUs for potential: real work        0.001 s, elapsed        0.001 s
  | RMS charge density error from multipole expansion :   0.157760E-02

  Integrating Hamiltonian matrix: batch-based integration.
  Time summed over all CPUs for integration: real work        0.127 s, elapsed        0.145 s
  Calculating non-local Hartree-Fock exchange by two-center RI (RI-LVL).
  screening_threshold (crit_val) =  0.000000100000
  Exact exchange progress report - outermost block loop i_block: 1 ..       5
  |        1         2         3         4         5  
 Total ovlp3fn data transfer [GB]   2.0888399740215391E-003
  Average sparsity of tmp1/2 0.50000000
  Average sparsity of fock_matrix_row 0.01282051
  Full exact exchange energy: weighted long- and short-range EXX     83.615175275418 eV.
  Times            DM_x_o3fn   CM_prod_1   CM_prod_2   tmp2_prod        Sync   Imbalance       Other  Total calc
  | Times    0:        0.001       0.003       0.001       0.001       0.001       0.000       0.009       0.016
  | Times    1:        0.001       0.000       0.000       0.001       0.001       0.005       0.009       0.016
  | Times    2:        0.001       0.003       0.001       0.001       0.001       0.001       0.009       0.016
  | Times    3:        0.001       0.000       0.000       0.001       0.001       0.005       0.009       0.016
  | Times    4:        0.001       0.002       0.001       0.001       0.001       0.000       0.010       0.016
  | Times    5:        0.001       0.000       0.000       0.001       0.001       0.004       0.010       0.016
  | Times    6:        0.001       0.002       0.001       0.001       0.001       0.001       0.011       0.017
  | Times    7:        0.001       0.000       0.000       0.001       0.001       0.004       0.010       0.016
  | Times    8:        0.001       0.002       0.001       0.001       0.001       0.000       0.010       0.016
  | Times    9:        0.001       0.000       0.000       0.001       0.001       0.004       0.010       0.016
  | Times   10:        0.001       0.002       0.001       0.001       0.001       0.000       0.010       0.016
  | Times   11:        0.001       0.000       0.000       0.001       0.001       0.004       0.010       0.016
  | Times   12:        0.001       0.002       0.001       0.001       0.001       0.000       0.011       0.016
  | Times   13:        0.001       0.000       0.000       0.001       0.001       0.004       0.011       0.016
  | Times   14:        0.001       0.002       0.001       0.001       0.001       0.001       0.010       0.016
  | Times   15:        0.001       0.000       0.000       0.001       0.001       0.004       0.011       0.016
  | Times   16:        0.001       0.003       0.001       0.001       0.001       0.000       0.010       0.016
  | Times   17:        0.001       0.000       0.000       0.001       0.001       0.005       0.010       0.016
  | Times   18:        0.001       0.003       0.001       0.001       0.001       0.001       0.009       0.016
  | Times   19:        0.001       0.000       0.000       0.001       0.001       0.005       0.010       0.016
  | Times   20:        0.001       0.003       0.001       0.002       0.001       0.001       0.008       0.016
  | Times   21:        0.001       0.000       0.000       0.001       0.001       0.006       0.008       0.016
  | Times   22:        0.001       0.003       0.001       0.002       0.001       0.001       0.008       0.016
  | Times   23:        0.001       0.000       0.000       0.001       0.001       0.006       0.008       0.016
  | Times   24:        0.000       0.003       0.001       0.002       0.001       0.000       0.009       0.016
  | Times   25:        0.000       0.000       0.000       0.001       0.001       0.005       0.009       0.016
  | Times   26:        0.000       0.003       0.001       0.002       0.001       0.001       0.009       0.016
  | Times   27:        0.000       0.000       0.000       0.001       0.001       0.005       0.009       0.016
  | Times   28:        0.001       0.003       0.001       0.001       0.001       0.001       0.008       0.016
  | Times   29:        0.001       0.000       0.000       0.001       0.001       0.006       0.008       0.016
  | Times   30:        0.001       0.003       0.001       0.001       0.001       0.001       0.008       0.016
  | Times   31:        0.001       0.000       0.000       0.001       0.001       0.006       0.008       0.016
  | Times   32:        0.001       0.002       0.001       0.001       0.001       0.000       0.010       0.016
  | Times   33:        0.001       0.000       0.000       0.001       0.001       0.004       0.010       0.016
  | Times   34:        0.001       0.002       0.001       0.001       0.001       0.000       0.010       0.016
  | Times   35:        0.001       0.000       0.000       0.001       0.001       0.004       0.010       0.016
  | Times   36:        0.001       0.003       0.001       0.001       0.001       0.001       0.009       0.016
  | Times   37:        0.001       0.000       0.000       0.001       0.001       0.005       0.009       0.016
  | Times   38:        0.001       0.003       0.001       0.001       0.001       0.000       0.009       0.016
  | Times   39:        0.001       0.000       0.000       0.001       0.001       0.005       0.009       0.016
  | Times   40:        0.001       0.003       0.001       0.001       0.001       0.001       0.009       0.016
  | Times   41:        0.001       0.000       0.000       0.001       0.001       0.005       0.009       0.016
  | Times   42:        0.001       0.003       0.001       0.001       0.001       0.001       0.009       0.016
  | Times   43:        0.001       0.000       0.000       0.001       0.001       0.005       0.009       0.016
  | Times   44:        0.001       0.003       0.001       0.001       0.001       0.001       0.009       0.016
  | Times   45:        0.001       0.000       0.000       0.001       0.001       0.005       0.009       0.016
  | Times   46:        0.001       0.002       0.001       0.001       0.001       0.001       0.009       0.016
  | Times   47:        0.001       0.000       0.000       0.001       0.001       0.005       0.009       0.016
  | Times   48:        0.001       0.002       0.001       0.001       0.001       0.001       0.010       0.016
  | Times   49:        0.001       0.000       0.000       0.001       0.001       0.004       0.010       0.016
  | Times   50:        0.001       0.002       0.001       0.001       0.001       0.000       0.010       0.016
  | Times   51:        0.001       0.000       0.000       0.001       0.001       0.004       0.010       0.016
  | Times   52:        0.001       0.003       0.001       0.001       0.001       0.001       0.009       0.016
  | Times   53:        0.001       0.000       0.000       0.001       0.001       0.005       0.009       0.016
  | Times   54:        0.001       0.003       0.001       0.001       0.001       0.001       0.010       0.016
  | Times   55:        0.001       0.000       0.000       0.001       0.001       0.005       0.009       0.016
  | Times   56:        0.000       0.003       0.002       0.002       0.001       0.001       0.009       0.016
  | Times   57:        0.000       0.000       0.000       0.001       0.001       0.005       0.009       0.016
  | Times   58:        0.000       0.003       0.001       0.002       0.001       0.001       0.009       0.016
  | Times   59:        0.000       0.000       0.000       0.001       0.001       0.005       0.009       0.016
  | Times   60:        0.001       0.003       0.001       0.001       0.001       0.001       0.009       0.016
  | Times   61:        0.001       0.000       0.000       0.001       0.001       0.005       0.010       0.016
  | Times   62:        0.001       0.002       0.001       0.001       0.001       0.001       0.010       0.016
  | Times   63:        0.001       0.000       0.000       0.001       0.001       0.005       0.010       0.016
  | Times  sum:        0.051       0.084       0.038       0.074       0.040       0.169       0.599       1.055

  Decomposition of Other based on code block (only on MPI task 0):
  Times             Block #1    Block #2    Block #3    Block #4    Block #5    Block #6    Block #7    Block #8
  | Times    0:        0.000       0.000       0.000       0.000       0.000       0.000       0.000       0.000

  Times             Block #9   Block #10   Block #11   Block #12   Block #13   Block #14   Block #15   Block #16
  | Times    0:        0.000       0.000       0.000       0.002       0.000       0.005       0.000       0.000

  Times            Block Sum    Expected
  | Times    0:        0.008       0.009
  Time for Fock matrix mixing     0.000

  Updating Kohn-Sham eigenvalues and eigenvectors using ELSI and the ELPA eigensolver.
  Starting ELPA eigensolver
  Finished transformation to standard eigenproblem
  | Time :     0.000 s
  Finished solving standard eigenproblem
  | Time :     0.001 s
  Finished back-transformation of eigenvectors
  | Time :     0.000 s

  Obtaining occupation numbers and electronic chemical potential using ELSI.
  | Note that, for insulating systems, the printed 'chemical potential' value is not uniquely defined.
  | It can be anywhere in the energy gap, as long as it correctly separates occupied and unoccupied states.
  | In systems with a gap, the physically relevant chemical potential is the VBM or HOMO.

  | Chemical potential (Fermi level):    -7.53012164 eV
  Highest occupied state (VBM) at    -10.29288976 eV
  | Occupation number:      2.00000000

  Lowest unoccupied state (CBM) at    -4.76735352 eV
  | Occupation number:      0.00000000

  Overall HOMO-LUMO gap:      5.52553624 eV.

  Total energy components:
  | Sum of eigenvalues            :         -47.64702023 Ha       -1296.54138769 eV
  | XC energy correction          :          -4.50593831 Ha        -122.61281994 eV
  | XC potential correction       :          10.31810839 Ha         280.77001469 eV
  | Free-atom electrostatic energy:         -36.94462506 Ha       -1005.31439784 eV
  | Hartree energy correction     :          -0.64984350 Ha         -17.68314127 eV
  | Entropy correction            :          -0.00000000 Ha          -0.00000000 eV
  | ---------------------------
  | Total energy                  :         -79.42931871 Ha       -2161.38173205 eV
  | Total energy, T -> 0          :         -79.42931871 Ha       -2161.38173205 eV  <-- do not rely on this value for anything but (periodic) metals
  | Electronic free energy        :         -79.42931871 Ha       -2161.38173205 eV

  Derived energy quantities:
  | Kinetic energy                :          78.61022985 Ha        2139.09319012 eV
  | Electrostatic energy          :        -147.41451767 Ha       -4011.35312117 eV
  | Energy correction for multipole
  | error in Hartree potential    :          -0.00052439 Ha          -0.01426942 eV
  | Sum of eigenvalues per atom                           :        -648.27069384 eV
  | Total energy (T->0) per atom                          :       -1080.69086602 eV  <-- do not rely on this value for anything but (periodic) metals
  | Electronic free energy per atom                       :       -1080.69086602 eV
  Evaluating new KS density.
  Integration grid: deviation in total charge (<rho> - N_e) =   7.105427E-15

  Self-consistency convergence accuracy:
  | Change of charge density      :  0.3240E-01
  | Change of unmixed KS density  :  0.1274E+00
  | Change of sum of eigenvalues  :  0.2875E+00 eV
  | Change of total energy        : -0.5686E-01 eV


------------------------------------------------------------
  End self-consistency iteration #     6       :  max(cpu_time)    wall_clock(cpu1)
  | Time for this iteration                     :        0.306 s           0.083 s
  | Charge density update                       :        0.002 s           0.001 s
  | Density mixing                              :        0.282 s           0.057 s
  | Hartree multipole update                    :        0.001 s           0.001 s
  | Hartree multipole summation                 :        0.002 s           0.002 s
  | Integration                                 :        0.003 s           0.002 s
  | Fock matrix evaluation                      :        0.018 s           0.018 s
  | Solution of K.-S. eqns.                     :        0.002 s           0.001 s
  | Total energy evaluation                     :        0.000 s           0.000 s

  Partial memory accounting:
  | Current value for overall tracked memory usage:
  |   Minimum:        4.321 MB (on task 21)
  |   Maximum:        4.426 MB (on task 58)
  |   Average:        4.362 MB
  | Peak value for overall tracked memory usage:
  |   Minimum:        5.098 MB (on task 21 after allocating wave)
  |   Maximum:        8.621 MB (on task 32 after allocating ovlp3fn_nosplit%tmploc)
  |   Average:        5.356 MB
  | Largest tracked array allocation so far:
  |   Minimum:        3.876 MB (ovlp3fn2%dat on task  0)
  |   Maximum:        3.911 MB (ovlp3fn2%dat on task  2)
  |   Average:        3.894 MB
  Note:  These values currently only include a subset of arrays which are explicitly tracked.
  The "true" memory usage will be greater.
------------------------------------------------------------

------------------------------------------------------------
          Begin self-consistency iteration #    7

  Date     :  20260717, Time     :  150636.383
------------------------------------------------------------
  Pulay mixing of updated and previous charge densities.
  Available memory per node after mixing [GB]:    999.15
  Renormalizing the density to the exact electron count on the 3D integration grid.
  | Formal number of electrons (from input files) :      12.0000000000
  | Integrated number of electrons on 3D grid     :      12.0000000000
  | Charge integration error                      :       0.0000000000
  | Normalization factor for density and gradient :       1.0000000000

  Evaluating partitioned Hartree potential by multipole expansion.
  | Original multipole sum: apparent total charge =   0.836323E-15
  | Sum of charges compensated after spline to logarithmic grids =  -0.244118E-07
  | Analytical far-field extrapolation by fixed multipoles:
  | Hartree multipole sum: apparent total charge =   0.142667E-14
  Summing up the Hartree potential.
  Time summed over all CPUs for potential: real work        0.001 s, elapsed        0.001 s
  | RMS charge density error from multipole expansion :   0.167593E-02

  Integrating Hamiltonian matrix: batch-based integration.
  Time summed over all CPUs for integration: real work        0.126 s, elapsed        0.154 s
  Calculating non-local Hartree-Fock exchange by two-center RI (RI-LVL).
  screening_threshold (crit_val) =  0.000000100000
  Exact exchange progress report - outermost block loop i_block: 1 ..       5
  |        1         2         3         4         5  
 Total ovlp3fn data transfer [GB]   2.0888399740215391E-003
  Average sparsity of tmp1/2 0.50000000
  Average sparsity of fock_matrix_row 0.01282051
  Full exact exchange energy: weighted long- and short-range EXX     83.575976889250 eV.
  Times            DM_x_o3fn   CM_prod_1   CM_prod_2   tmp2_prod        Sync   Imbalance       Other  Total calc
  | Times    0:        0.001       0.003       0.001       0.001       0.001       0.000       0.024       0.031
  | Times    1:        0.001       0.000       0.000       0.001       0.001       0.005       0.023       0.031
  | Times    2:        0.001       0.003       0.001       0.001       0.001       0.001       0.023       0.031
  | Times    3:        0.001       0.000       0.000       0.001       0.001       0.005       0.023       0.031
  | Times    4:        0.001       0.003       0.001       0.001       0.001       0.000       0.024       0.031
  | Times    5:        0.001       0.000       0.000       0.001       0.001       0.005       0.023       0.031
  | Times    6:        0.001       0.003       0.001       0.001       0.001       0.001       0.024       0.032
  | Times    7:        0.001       0.000       0.000       0.001       0.001       0.005       0.023       0.031
  | Times    8:        0.001       0.002       0.001       0.001       0.001       0.000       0.025       0.031
  | Times    9:        0.001       0.000       0.000       0.001       0.001       0.004       0.025       0.031
  | Times   10:        0.001       0.002       0.001       0.001       0.001       0.001       0.025       0.031
  | Times   11:        0.001       0.000       0.000       0.001       0.001       0.004       0.025       0.031
  | Times   12:        0.001       0.003       0.001       0.001       0.001       0.000       0.024       0.031
  | Times   13:        0.001       0.000       0.000       0.001       0.001       0.005       0.024       0.031
  | Times   14:        0.001       0.002       0.001       0.001       0.001       0.001       0.024       0.031
  | Times   15:        0.001       0.000       0.000       0.001       0.001       0.005       0.024       0.031
  | Times   16:        0.001       0.003       0.001       0.001       0.001       0.001       0.023       0.031
  | Times   17:        0.001       0.000       0.000       0.001       0.001       0.006       0.023       0.031
  | Times   18:        0.001       0.003       0.002       0.001       0.001       0.001       0.022       0.031
  | Times   19:        0.001       0.000       0.000       0.001       0.001       0.006       0.023       0.031
  | Times   20:        0.001       0.003       0.001       0.001       0.001       0.000       0.025       0.031
  | Times   21:        0.001       0.000       0.000       0.001       0.001       0.005       0.024       0.031
  | Times   22:        0.001       0.003       0.001       0.001       0.001       0.001       0.024       0.031
  | Times   23:        0.001       0.000       0.000       0.001       0.001       0.005       0.024       0.031
  | Times   24:        0.000       0.003       0.001       0.001       0.001       0.000       0.024       0.031
  | Times   25:        0.000       0.000       0.000       0.001       0.001       0.005       0.024       0.031
  | Times   26:        0.001       0.003       0.001       0.001       0.001       0.001       0.024       0.031
  | Times   27:        0.000       0.000       0.000       0.001       0.001       0.005       0.024       0.031
  | Times   28:        0.000       0.002       0.001       0.001       0.000       0.000       0.026       0.031
  | Times   29:        0.000       0.000       0.000       0.001       0.000       0.003       0.026       0.031
  | Times   30:        0.000       0.002       0.001       0.001       0.000       0.001       0.026       0.031
  | Times   31:        0.000       0.000       0.000       0.001       0.000       0.003       0.026       0.031
  | Times   32:        0.002       0.003       0.001       0.001       0.001       0.001       0.023       0.031
  | Times   33:        0.001       0.000       0.000       0.001       0.001       0.005       0.023       0.031
  | Times   34:        0.001       0.003       0.001       0.001       0.001       0.001       0.023       0.031
  | Times   35:        0.001       0.000       0.000       0.001       0.001       0.005       0.023       0.031
  | Times   36:        0.001       0.002       0.001       0.001       0.001       0.000       0.025       0.031
  | Times   37:        0.001       0.000       0.000       0.001       0.001       0.004       0.025       0.031
  | Times   38:        0.001       0.002       0.001       0.001       0.001       0.000       0.025       0.031
  | Times   39:        0.001       0.000       0.000       0.001       0.001       0.004       0.025       0.031
  | Times   40:        0.001       0.003       0.001       0.001       0.001       0.001       0.023       0.031
  | Times   41:        0.001       0.000       0.000       0.001       0.001       0.005       0.024       0.031
  | Times   42:        0.001       0.003       0.001       0.001       0.001       0.001       0.024       0.031
  | Times   43:        0.001       0.000       0.000       0.001       0.001       0.005       0.024       0.031
  | Times   44:        0.001       0.003       0.001       0.001       0.001       0.001       0.023       0.031
  | Times   45:        0.001       0.000       0.000       0.001       0.001       0.005       0.024       0.031
  | Times   46:        0.001       0.003       0.001       0.001       0.001       0.001       0.024       0.031
  | Times   47:        0.001       0.000       0.000       0.001       0.001       0.005       0.024       0.031
  | Times   48:        0.001       0.003       0.001       0.001       0.001       0.001       0.024       0.031
  | Times   49:        0.001       0.000       0.000       0.001       0.001       0.005       0.024       0.031
  | Times   50:        0.001       0.003       0.001       0.001       0.001       0.000       0.024       0.031
  | Times   51:        0.001       0.000       0.000       0.001       0.001       0.005       0.024       0.031
  | Times   52:        0.001       0.003       0.001       0.001       0.001       0.001       0.024       0.031
  | Times   53:        0.001       0.000       0.000       0.001       0.001       0.005       0.024       0.031
  | Times   54:        0.001       0.003       0.001       0.001       0.001       0.001       0.024       0.031
  | Times   55:        0.001       0.000       0.000       0.001       0.001       0.005       0.024       0.031
  | Times   56:        0.000       0.003       0.001       0.001       0.001       0.001       0.024       0.031
  | Times   57:        0.000       0.000       0.000       0.001       0.001       0.005       0.025       0.031
  | Times   58:        0.000       0.003       0.001       0.001       0.001       0.000       0.025       0.031
  | Times   59:        0.000       0.000       0.000       0.001       0.001       0.005       0.025       0.031
  | Times   60:        0.001       0.003       0.001       0.001       0.001       0.001       0.024       0.031
  | Times   61:        0.001       0.000       0.000       0.001       0.001       0.005       0.024       0.031
  | Times   62:        0.001       0.002       0.001       0.001       0.001       0.001       0.025       0.031
  | Times   63:        0.001       0.000       0.000       0.001       0.001       0.005       0.024       0.031
  | Times  sum:        0.056       0.083       0.038       0.074       0.040       0.166       1.543       2.000

  Decomposition of Other based on code block (only on MPI task 0):
  Times             Block #1    Block #2    Block #3    Block #4    Block #5    Block #6    Block #7    Block #8
  | Times    0:        0.016       0.000       0.000       0.000       0.000       0.000       0.000       0.000

  Times             Block #9   Block #10   Block #11   Block #12   Block #13   Block #14   Block #15   Block #16
  | Times    0:        0.000       0.000       0.000       0.001       0.000       0.005       0.000       0.000

  Times            Block Sum    Expected
  | Times    0:        0.022       0.024
  Time for Fock matrix mixing     0.000

  Updating Kohn-Sham eigenvalues and eigenvectors using ELSI and the ELPA eigensolver.
  Starting ELPA eigensolver
  Finished transformation to standard eigenproblem
  | Time :     0.000 s
  Finished solving standard eigenproblem
  | Time :     0.001 s
  Finished back-transformation of eigenvectors
  | Time :     0.000 s

  Obtaining occupation numbers and electronic chemical potential using ELSI.
  | Note that, for insulating systems, the printed 'chemical potential' value is not uniquely defined.
  | It can be anywhere in the energy gap, as long as it correctly separates occupied and unoccupied states.
  | In systems with a gap, the physically relevant chemical potential is the VBM or HOMO.

  | Chemical potential (Fermi level):    -7.45021967 eV
  Highest occupied state (VBM) at    -10.48123384 eV
  | Occupation number:      2.00000000

  Lowest unoccupied state (CBM) at    -4.41920550 eV
  | Occupation number:      0.00000000

  Overall HOMO-LUMO gap:      6.06202834 eV.

  Total energy components:
  | Sum of eigenvalues            :         -47.68491188 Ha       -1297.57247199 eV
  | XC energy correction          :          -4.49925143 Ha        -122.43086073 eV
  | XC potential correction       :          10.32775091 Ha         281.03240103 eV
  | Free-atom electrostatic energy:         -36.94462506 Ha       -1005.31439784 eV
  | Hartree energy correction     :          -0.65110345 Ha         -17.71742626 eV
  | Entropy correction            :          -0.00000000 Ha          -0.00000000 eV
  | ---------------------------
  | Total energy                  :         -79.45214092 Ha       -2162.00275579 eV
  | Total energy, T -> 0          :         -79.45214092 Ha       -2162.00275579 eV  <-- do not rely on this value for anything but (periodic) metals
  | Electronic free energy        :         -79.45214092 Ha       -2162.00275579 eV

  Derived energy quantities:
  | Kinetic energy                :          78.74144297 Ha        2142.66368080 eV
  | Electrostatic energy          :        -147.54746392 Ha       -4014.97077266 eV
  | Energy correction for multipole
  | error in Hartree potential    :          -0.00058723 Ha          -0.01597940 eV
  | Sum of eigenvalues per atom                           :        -648.78623599 eV
  | Total energy (T->0) per atom                          :       -1081.00137790 eV  <-- do not rely on this value for anything but (periodic) metals
  | Electronic free energy per atom                       :       -1081.00137790 eV
  Evaluating new KS density.
  Integration grid: deviation in total charge (<rho> - N_e) =   3.552714E-15

  Self-consistency convergence accuracy:
  | Change of charge density      :  0.2911E-01
  | Change of unmixed KS density  :  0.5282E-02
  | Change of sum of eigenvalues  : -0.1031E+01 eV
  | Change of total energy        : -0.6210E+00 eV


------------------------------------------------------------
  End self-consistency iteration #     7       :  max(cpu_time)    wall_clock(cpu1)
  | Time for this iteration                     :        0.303 s           0.178 s
  | Charge density update                       :        0.001 s           0.001 s
  | Density mixing                              :        0.266 s           0.137 s
  | Hartree multipole update                    :        0.001 s           0.001 s
  | Hartree multipole summation                 :        0.002 s           0.002 s
  | Integration                                 :        0.003 s           0.003 s
  | Fock matrix evaluation                      :        0.032 s           0.032 s
  | Solution of K.-S. eqns.                     :        0.002 s           0.002 s
  | Total energy evaluation                     :        0.000 s           0.000 s

  Partial memory accounting:
  | Current value for overall tracked memory usage:
  |   Minimum:        4.321 MB (on task 21)
  |   Maximum:        4.426 MB (on task 58)
  |   Average:        4.362 MB
  | Peak value for overall tracked memory usage:
  |   Minimum:        5.098 MB (on task 21 after allocating wave)
  |   Maximum:        8.621 MB (on task 32 after allocating ovlp3fn_nosplit%tmploc)
  |   Average:        5.356 MB
  | Largest tracked array allocation so far:
  |   Minimum:        3.876 MB (ovlp3fn2%dat on task  0)
  |   Maximum:        3.911 MB (ovlp3fn2%dat on task  2)
  |   Average:        3.894 MB
  Note:  These values currently only include a subset of arrays which are explicitly tracked.
  The "true" memory usage will be greater.
------------------------------------------------------------

------------------------------------------------------------
          Begin self-consistency iteration #    8

  Date     :  20260717, Time     :  150636.594
------------------------------------------------------------
  Pulay mixing of updated and previous charge densities.
  Available memory per node after mixing [GB]:    999.15
  Renormalizing the density to the exact electron count on the 3D integration grid.
  | Formal number of electrons (from input files) :      12.0000000000
  | Integrated number of electrons on 3D grid     :      12.0000000000
  | Charge integration error                      :       0.0000000000
  | Normalization factor for density and gradient :       1.0000000000

  Evaluating partitioned Hartree potential by multipole expansion.
  | Original multipole sum: apparent total charge =   0.309932E-14
  | Sum of charges compensated after spline to logarithmic grids =  -0.929870E-08
  | Analytical far-field extrapolation by fixed multipoles:
  | Hartree multipole sum: apparent total charge =   0.245977E-14
  Summing up the Hartree potential.
  Time summed over all CPUs for potential: real work        0.001 s, elapsed        0.001 s
  | RMS charge density error from multipole expansion :   0.167170E-02

  Integrating Hamiltonian matrix: batch-based integration.
  Time summed over all CPUs for integration: real work        0.127 s, elapsed        0.153 s
  Calculating non-local Hartree-Fock exchange by two-center RI (RI-LVL).
  screening_threshold (crit_val) =  0.000000100000
  Exact exchange progress report - outermost block loop i_block: 1 ..       5
  |        1         2         3         4         5  
 Total ovlp3fn data transfer [GB]   2.0888399740215391E-003
  Average sparsity of tmp1/2 0.50000000
  Average sparsity of fock_matrix_row 0.01282051
  Full exact exchange energy: weighted long- and short-range EXX     83.453127451008 eV.
  Times            DM_x_o3fn   CM_prod_1   CM_prod_2   tmp2_prod        Sync   Imbalance       Other  Total calc
  | Times    0:        0.001       0.003       0.001       0.001       0.001       0.000       0.007       0.015
  | Times    1:        0.001       0.000       0.000       0.001       0.001       0.005       0.007       0.015
  | Times    2:        0.002       0.003       0.001       0.001       0.001       0.001       0.007       0.015
  | Times    3:        0.001       0.000       0.000       0.001       0.001       0.005       0.007       0.015
  | Times    4:        0.001       0.002       0.001       0.001       0.001       0.000       0.009       0.015
  | Times    5:        0.001       0.000       0.000       0.001       0.001       0.004       0.008       0.015
  | Times    6:        0.001       0.002       0.001       0.001       0.001       0.000       0.009       0.015
  | Times    7:        0.001       0.000       0.000       0.001       0.001       0.004       0.008       0.015
  | Times    8:        0.001       0.003       0.001       0.001       0.001       0.000       0.007       0.015
  | Times    9:        0.001       0.000       0.000       0.001       0.001       0.005       0.007       0.015
  | Times   10:        0.001       0.003       0.001       0.001       0.001       0.001       0.007       0.015
  | Times   11:        0.001       0.000       0.000       0.001       0.001       0.005       0.007       0.015
  | Times   12:        0.001       0.003       0.001       0.001       0.001       0.000       0.008       0.015
  | Times   13:        0.001       0.000       0.000       0.001       0.001       0.005       0.008       0.015
  | Times   14:        0.001       0.003       0.001       0.001       0.001       0.001       0.007       0.015
  | Times   15:        0.001       0.000       0.000       0.001       0.001       0.005       0.008       0.015
  | Times   16:        0.001       0.002       0.001       0.001       0.001       0.000       0.009       0.015
  | Times   17:        0.001       0.000       0.000       0.001       0.001       0.004       0.008       0.015
  | Times   18:        0.001       0.002       0.001       0.001       0.001       0.001       0.008       0.015
  | Times   19:        0.001       0.000       0.000       0.001       0.001       0.004       0.008       0.015
  | Times   20:        0.001       0.003       0.001       0.001       0.001       0.000       0.008       0.015
  | Times   21:        0.001       0.000       0.000       0.001       0.001       0.005       0.008       0.015
  | Times   22:        0.001       0.003       0.001       0.001       0.001       0.001       0.008       0.015
  | Times   23:        0.001       0.000       0.000       0.001       0.001       0.005       0.008       0.015
  | Times   24:        0.000       0.003       0.001       0.002       0.001       0.000       0.008       0.015
  | Times   25:        0.000       0.000       0.000       0.001       0.001       0.005       0.008       0.015
  | Times   26:        0.000       0.003       0.001       0.002       0.001       0.001       0.007       0.015
  | Times   27:        0.000       0.000       0.000       0.001       0.001       0.005       0.008       0.015
  | Times   28:        0.001       0.003       0.001       0.002       0.001       0.000       0.007       0.015
  | Times   29:        0.001       0.000       0.000       0.001       0.001       0.005       0.007       0.015
  | Times   30:        0.001       0.003       0.001       0.002       0.001       0.001       0.007       0.015
  | Times   31:        0.001       0.000       0.000       0.001       0.001       0.005       0.007       0.015
  | Times   32:        0.001       0.002       0.001       0.001       0.001       0.001       0.008       0.015
  | Times   33:        0.001       0.000       0.000       0.001       0.001       0.004       0.008       0.015
  | Times   34:        0.001       0.002       0.001       0.001       0.001       0.000       0.009       0.015
  | Times   35:        0.001       0.000       0.000       0.001       0.001       0.004       0.008       0.015
  | Times   36:        0.001       0.003       0.001       0.001       0.001       0.001       0.007       0.015
  | Times   37:        0.001       0.000       0.000       0.001       0.001       0.005       0.007       0.015
  | Times   38:        0.001       0.003       0.001       0.001       0.001       0.001       0.007       0.015
  | Times   39:        0.001       0.000       0.000       0.001       0.001       0.005       0.007       0.015
  | Times   40:        0.001       0.002       0.001       0.001       0.001       0.000       0.009       0.015
  | Times   41:        0.001       0.000       0.000       0.001       0.001       0.004       0.009       0.015
  | Times   42:        0.001       0.002       0.001       0.001       0.001       0.001       0.009       0.015
  | Times   43:        0.001       0.000       0.000       0.001       0.001       0.004       0.009       0.015
  | Times   44:        0.001       0.003       0.001       0.001       0.001       0.001       0.007       0.015
  | Times   45:        0.001       0.000       0.000       0.001       0.001       0.005       0.008       0.015
  | Times   46:        0.001       0.002       0.001       0.001       0.001       0.001       0.008       0.015
  | Times   47:        0.001       0.000       0.000       0.001       0.001       0.005       0.008       0.015
  | Times   48:        0.001       0.003       0.001       0.001       0.001       0.001       0.007       0.015
  | Times   49:        0.001       0.000       0.000       0.001       0.001       0.005       0.008       0.015
  | Times   50:        0.001       0.003       0.001       0.001       0.001       0.000       0.008       0.015
  | Times   51:        0.001       0.000       0.000       0.001       0.001       0.005       0.008       0.015
  | Times   52:        0.001       0.003       0.001       0.001       0.001       0.001       0.007       0.015
  | Times   53:        0.001       0.000       0.000       0.001       0.001       0.005       0.008       0.015
  | Times   54:        0.001       0.003       0.001       0.001       0.001       0.001       0.008       0.015
  | Times   55:        0.001       0.000       0.000       0.001       0.001       0.005       0.008       0.015
  | Times   56:        0.000       0.003       0.001       0.001       0.000       0.001       0.008       0.015
  | Times   57:        0.000       0.000       0.000       0.001       0.001       0.005       0.008       0.015
  | Times   58:        0.000       0.002       0.001       0.001       0.001       0.001       0.009       0.015
  | Times   59:        0.000       0.000       0.000       0.001       0.001       0.005       0.008       0.015
  | Times   60:        0.001       0.003       0.001       0.001       0.001       0.001       0.007       0.015
  | Times   61:        0.001       0.000       0.000       0.001       0.001       0.005       0.008       0.015
  | Times   62:        0.001       0.002       0.001       0.001       0.001       0.001       0.008       0.015
  | Times   63:        0.001       0.000       0.000       0.001       0.001       0.005       0.008       0.015
  | Times  sum:        0.055       0.084       0.037       0.075       0.042       0.167       0.496       0.955

  Decomposition of Other based on code block (only on MPI task 0):
  Times             Block #1    Block #2    Block #3    Block #4    Block #5    Block #6    Block #7    Block #8
  | Times    0:        0.000       0.000       0.000       0.000       0.000       0.000       0.001       0.000

  Times             Block #9   Block #10   Block #11   Block #12   Block #13   Block #14   Block #15   Block #16
  | Times    0:        0.000       0.000       0.000       0.001       0.000       0.005       0.000       0.000

  Times            Block Sum    Expected
  | Times    0:        0.006       0.007
  Time for Fock matrix mixing     0.000

  Updating Kohn-Sham eigenvalues and eigenvectors using ELSI and the ELPA eigensolver.
  Starting ELPA eigensolver
  Finished transformation to standard eigenproblem
  | Time :     0.000 s
  Finished solving standard eigenproblem
  | Time :     0.001 s
  Finished back-transformation of eigenvectors
  | Time :     0.000 s

  Obtaining occupation numbers and electronic chemical potential using ELSI.
  | Note that, for insulating systems, the printed 'chemical potential' value is not uniquely defined.
  | It can be anywhere in the energy gap, as long as it correctly separates occupied and unoccupied states.
  | In systems with a gap, the physically relevant chemical potential is the VBM or HOMO.

  | Chemical potential (Fermi level):    -7.40824972 eV
  Highest occupied state (VBM) at    -10.40293082 eV
  | Occupation number:      2.00000000

  Lowest unoccupied state (CBM) at    -4.41356862 eV
  | Occupation number:      0.00000000

  Overall HOMO-LUMO gap:      5.98936220 eV.

  Total energy components:
  | Sum of eigenvalues            :         -47.64261020 Ha       -1296.42138472 eV
  | XC energy correction          :          -4.50682911 Ha        -122.63705988 eV
  | XC potential correction       :          10.33323313 Ha         281.18157978 eV
  | Free-atom electrostatic energy:         -36.94462506 Ha       -1005.31439784 eV
  | Hartree energy correction     :          -0.68912263 Ha         -18.75198092 eV
  | Entropy correction            :          -0.00000000 Ha          -0.00000000 eV
  | ---------------------------
  | Total energy                  :         -79.44995388 Ha       -2161.94324358 eV
  | Total energy, T -> 0          :         -79.44995388 Ha       -2161.94324358 eV  <-- do not rely on this value for anything but (periodic) metals
  | Electronic free energy        :         -79.44995388 Ha       -2161.94324358 eV

  Derived energy quantities:
  | Kinetic energy                :          78.76260672 Ha        2143.23957563 eV
  | Electrostatic energy          :        -147.56613167 Ha       -4015.47874811 eV
  | Energy correction for multipole
  | error in Hartree potential    :          -0.00062681 Ha          -0.01705629 eV
  | Sum of eigenvalues per atom                           :        -648.21069236 eV
  | Total energy (T->0) per atom                          :       -1080.97162179 eV  <-- do not rely on this value for anything but (periodic) metals
  | Electronic free energy per atom                       :       -1080.97162179 eV
  Evaluating new KS density.
  Integration grid: deviation in total charge (<rho> - N_e) =   3.552714E-15

  Self-consistency convergence accuracy:
  | Change of charge density      :  0.2014E-01
  | Change of unmixed KS density  :  0.3445E-01
  | Change of sum of eigenvalues  :  0.1151E+01 eV
  | Change of total energy        :  0.5951E-01 eV


------------------------------------------------------------
  End self-consistency iteration #     8       :  max(cpu_time)    wall_clock(cpu1)
  | Time for this iteration                     :        0.328 s           0.310 s
  | Charge density update                       :        0.001 s           0.001 s
  | Density mixing                              :        0.306 s           0.286 s
  | Hartree multipole update                    :        0.001 s           0.001 s
  | Hartree multipole summation                 :        0.002 s           0.001 s
  | Integration                                 :        0.003 s           0.003 s
  | Fock matrix evaluation                      :        0.016 s           0.016 s
  | Solution of K.-S. eqns.                     :        0.002 s           0.001 s
  | Total energy evaluation                     :        0.000 s           0.001 s

  Partial memory accounting:
  | Current value for overall tracked memory usage:
  |   Minimum:        4.321 MB (on task 21)
  |   Maximum:        4.426 MB (on task 58)
  |   Average:        4.362 MB
  | Peak value for overall tracked memory usage:
  |   Minimum:        5.098 MB (on task 21 after allocating wave)
  |   Maximum:        8.621 MB (on task 32 after allocating ovlp3fn_nosplit%tmploc)
  |   Average:        5.356 MB
  | Largest tracked array allocation so far:
  |   Minimum:        3.876 MB (ovlp3fn2%dat on task  0)
  |   Maximum:        3.911 MB (ovlp3fn2%dat on task  2)
  |   Average:        3.894 MB
  Note:  These values currently only include a subset of arrays which are explicitly tracked.
  The "true" memory usage will be greater.
------------------------------------------------------------

------------------------------------------------------------
          Begin self-consistency iteration #    9

  Date     :  20260717, Time     :  150637.025
------------------------------------------------------------
  Pulay mixing of updated and previous charge densities.
  Available memory per node after mixing [GB]:    999.15
  Renormalizing the density to the exact electron count on the 3D integration grid.
  | Formal number of electrons (from input files) :      12.0000000000
  | Integrated number of electrons on 3D grid     :      12.0000000000
  | Charge integration error                      :       0.0000000000
  | Normalization factor for density and gradient :       1.0000000000

  Evaluating partitioned Hartree potential by multipole expansion.
  | Original multipole sum: apparent total charge =   0.511633E-14
  | Sum of charges compensated after spline to logarithmic grids =  -0.105255E-07
  | Analytical far-field extrapolation by fixed multipoles:
  | Hartree multipole sum: apparent total charge =   0.423081E-14
  Summing up the Hartree potential.
  Time summed over all CPUs for potential: real work        0.001 s, elapsed        0.001 s
  | RMS charge density error from multipole expansion :   0.161122E-02

  Integrating Hamiltonian matrix: batch-based integration.
  Time summed over all CPUs for integration: real work        0.127 s, elapsed        0.143 s
  Calculating non-local Hartree-Fock exchange by two-center RI (RI-LVL).
  screening_threshold (crit_val) =  0.000000100000
  Exact exchange progress report - outermost block loop i_block: 1 ..       5
  |        1         2         3         4         5  
 Total ovlp3fn data transfer [GB]   2.0888399740215391E-003
  Average sparsity of tmp1/2 0.50000000
  Average sparsity of fock_matrix_row 0.01282051
  Full exact exchange energy: weighted long- and short-range EXX     83.425097297870 eV.
  Times            DM_x_o3fn   CM_prod_1   CM_prod_2   tmp2_prod        Sync   Imbalance       Other  Total calc
  | Times    0:        0.001       0.003       0.001       0.001       0.001       0.000       0.008       0.015
  | Times    1:        0.001       0.000       0.000       0.001       0.001       0.005       0.007       0.015
  | Times    2:        0.002       0.003       0.001       0.001       0.001       0.001       0.007       0.015
  | Times    3:        0.001       0.000       0.000       0.001       0.001       0.005       0.007       0.015
  | Times    4:        0.001       0.002       0.001       0.001       0.001       0.000       0.009       0.015
  | Times    5:        0.001       0.000       0.000       0.001       0.001       0.004       0.009       0.015
  | Times    6:        0.001       0.002       0.001       0.001       0.001       0.001       0.009       0.016
  | Times    7:        0.001       0.000       0.000       0.001       0.001       0.004       0.009       0.015
  | Times    8:        0.001       0.003       0.001       0.001       0.001       0.000       0.008       0.015
  | Times    9:        0.001       0.000       0.000       0.001       0.001       0.005       0.008       0.015
  | Times   10:        0.001       0.003       0.001       0.001       0.001       0.001       0.008       0.015
  | Times   11:        0.001       0.000       0.000       0.001       0.001       0.005       0.008       0.015
  | Times   12:        0.001       0.003       0.001       0.001       0.001       0.000       0.008       0.015
  | Times   13:        0.001       0.000       0.000       0.001       0.001       0.005       0.008       0.015
  | Times   14:        0.001       0.003       0.001       0.001       0.001       0.001       0.008       0.015
  | Times   15:        0.001       0.000       0.000       0.001       0.001       0.005       0.008       0.015
  | Times   16:        0.001       0.002       0.001       0.001       0.001       0.000       0.009       0.015
  | Times   17:        0.001       0.000       0.000       0.001       0.001       0.004       0.009       0.015
  | Times   18:        0.001       0.002       0.001       0.001       0.001       0.001       0.009       0.015
  | Times   19:        0.001       0.000       0.000       0.001       0.001       0.004       0.009       0.015
  | Times   20:        0.001       0.003       0.001       0.001       0.001       0.000       0.008       0.015
  | Times   21:        0.001       0.000       0.000       0.001       0.001       0.005       0.007       0.015
  | Times   22:        0.001       0.003       0.001       0.002       0.001       0.001       0.007       0.015
  | Times   23:        0.001       0.000       0.000       0.001       0.001       0.006       0.007       0.015
  | Times   24:        0.001       0.003       0.001       0.001       0.001       0.000       0.008       0.015
  | Times   25:        0.000       0.000       0.000       0.001       0.001       0.005       0.008       0.015
  | Times   26:        0.001       0.003       0.001       0.002       0.001       0.001       0.008       0.015
  | Times   27:        0.000       0.000       0.000       0.001       0.001       0.005       0.008       0.015
  | Times   28:        0.001       0.003       0.001       0.001       0.001       0.000       0.009       0.015
  | Times   29:        0.001       0.000       0.000       0.001       0.001       0.004       0.009       0.015
  | Times   30:        0.001       0.002       0.001       0.002       0.001       0.001       0.008       0.015
  | Times   31:        0.001       0.000       0.000       0.001       0.001       0.005       0.009       0.015
  | Times   32:        0.001       0.002       0.001       0.001       0.001       0.001       0.009       0.015
  | Times   33:        0.001       0.000       0.000       0.001       0.001       0.004       0.009       0.015
  | Times   34:        0.001       0.002       0.001       0.001       0.001       0.000       0.009       0.015
  | Times   35:        0.001       0.000       0.000       0.001       0.001       0.004       0.009       0.015
  | Times   36:        0.001       0.003       0.001       0.001       0.001       0.001       0.007       0.015
  | Times   37:        0.001       0.000       0.000       0.001       0.001       0.005       0.008       0.015
  | Times   38:        0.001       0.003       0.001       0.001       0.001       0.000       0.008       0.015
  | Times   39:        0.001       0.000       0.000       0.001       0.001       0.005       0.008       0.015
  | Times   40:        0.001       0.002       0.001       0.001       0.001       0.000       0.009       0.015
  | Times   41:        0.001       0.000       0.000       0.001       0.001       0.004       0.009       0.015
  | Times   42:        0.001       0.002       0.001       0.001       0.001       0.000       0.009       0.015
  | Times   43:        0.001       0.000       0.000       0.001       0.001       0.004       0.009       0.015
  | Times   44:        0.001       0.003       0.001       0.001       0.001       0.001       0.008       0.015
  | Times   45:        0.001       0.000       0.000       0.001       0.001       0.005       0.008       0.015
  | Times   46:        0.001       0.002       0.001       0.001       0.001       0.001       0.008       0.015
  | Times   47:        0.001       0.000       0.000       0.001       0.001       0.005       0.008       0.015
  | Times   48:        0.001       0.003       0.001       0.001       0.001       0.001       0.008       0.015
  | Times   49:        0.001       0.000       0.000       0.001       0.001       0.005       0.008       0.015
  | Times   50:        0.001       0.002       0.001       0.001       0.001       0.000       0.008       0.015
  | Times   51:        0.001       0.000       0.000       0.001       0.001       0.005       0.008       0.015
  | Times   52:        0.001       0.003       0.001       0.001       0.001       0.001       0.008       0.015
  | Times   53:        0.001       0.000       0.000       0.001       0.001       0.005       0.008       0.015
  | Times   54:        0.001       0.003       0.001       0.001       0.001       0.000       0.009       0.015
  | Times   55:        0.001       0.000       0.000       0.001       0.001       0.005       0.008       0.015
  | Times   56:        0.001       0.003       0.002       0.002       0.001       0.001       0.007       0.015
  | Times   57:        0.000       0.000       0.000       0.001       0.001       0.006       0.007       0.015
  | Times   58:        0.001       0.003       0.001       0.001       0.001       0.001       0.008       0.015
  | Times   59:        0.000       0.000       0.000       0.001       0.001       0.006       0.007       0.015
  | Times   60:        0.000       0.002       0.001       0.001       0.000       0.001       0.010       0.015
  | Times   61:        0.000       0.000       0.000       0.001       0.000       0.004       0.010       0.015
  | Times   62:        0.000       0.002       0.001       0.001       0.000       0.000       0.010       0.015
  | Times   63:        0.000       0.000       0.000       0.001       0.000       0.004       0.010       0.015
  | Times  sum:        0.055       0.083       0.037       0.075       0.040       0.164       0.529       0.983

  Decomposition of Other based on code block (only on MPI task 0):
  Times             Block #1    Block #2    Block #3    Block #4    Block #5    Block #6    Block #7    Block #8
  | Times    0:        0.000       0.000       0.000       0.000       0.000       0.000       0.001       0.000

  Times             Block #9   Block #10   Block #11   Block #12   Block #13   Block #14   Block #15   Block #16
  | Times    0:        0.000       0.000       0.000       0.001       0.000       0.005       0.000       0.000

  Times            Block Sum    Expected
  | Times    0:        0.007       0.008
  Time for Fock matrix mixing     0.000

  Updating Kohn-Sham eigenvalues and eigenvectors using ELSI and the ELPA eigensolver.
  Starting ELPA eigensolver
  Finished transformation to standard eigenproblem
  | Time :     0.000 s
  Finished solving standard eigenproblem
  | Time :     0.001 s
  Finished back-transformation of eigenvectors
  | Time :     0.000 s

  Obtaining occupation numbers and electronic chemical potential using ELSI.
  | Note that, for insulating systems, the printed 'chemical potential' value is not uniquely defined.
  | It can be anywhere in the energy gap, as long as it correctly separates occupied and unoccupied states.
  | In systems with a gap, the physically relevant chemical potential is the VBM or HOMO.

  | Chemical potential (Fermi level):    -7.41452795 eV
  Highest occupied state (VBM) at    -10.48012138 eV
  | Occupation number:      2.00000000

  Lowest unoccupied state (CBM) at    -4.34893451 eV
  | Occupation number:      0.00000000

  Overall HOMO-LUMO gap:      6.13118687 eV.

  Total energy components:
  | Sum of eigenvalues            :         -47.64896941 Ha       -1296.59442759 eV
  | XC energy correction          :          -4.50945874 Ha        -122.70861574 eV
  | XC potential correction       :          10.33693435 Ha         281.28229513 eV
  | Free-atom electrostatic energy:         -36.94462506 Ha       -1005.31439784 eV
  | Hartree energy correction     :          -0.67885078 Ha         -18.47246949 eV
  | Entropy correction            :          -0.00000000 Ha          -0.00000000 eV
  | ---------------------------
  | Total energy                  :         -79.44496964 Ha       -2161.80761554 eV
  | Total energy, T -> 0          :         -79.44496964 Ha       -2161.80761554 eV  <-- do not rely on this value for anything but (periodic) metals
  | Electronic free energy        :         -79.44496964 Ha       -2161.80761554 eV

  Derived energy quantities:
  | Kinetic energy                :          78.82224850 Ha        2144.86251098 eV
  | Electrostatic energy          :        -147.61768385 Ha       -4016.88155417 eV
  | Energy correction for multipole
  | error in Hartree potential    :          -0.00067081 Ha          -0.01825376 eV
  | Sum of eigenvalues per atom                           :        -648.29721380 eV
  | Total energy (T->0) per atom                          :       -1080.90380777 eV  <-- do not rely on this value for anything but (periodic) metals
  | Electronic free energy per atom                       :       -1080.90380777 eV
  Evaluating new KS density.
  Integration grid: deviation in total charge (<rho> - N_e) =   3.552714E-15

  Self-consistency convergence accuracy:
  | Change of charge density      :  0.2122E-01
  | Change of unmixed KS density  :  0.5590E-02
  | Change of sum of eigenvalues  : -0.1730E+00 eV
  | Change of total energy        :  0.1356E+00 eV


------------------------------------------------------------
  End self-consistency iteration #     9       :  max(cpu_time)    wall_clock(cpu1)
  | Time for this iteration                     :        0.355 s           0.256 s
  | Charge density update                       :        0.001 s           0.002 s
  | Density mixing                              :        0.334 s           0.231 s
  | Hartree multipole update                    :        0.001 s           0.001 s
  | Hartree multipole summation                 :        0.002 s           0.001 s
  | Integration                                 :        0.003 s           0.003 s
  | Fock matrix evaluation                      :        0.017 s           0.017 s
  | Solution of K.-S. eqns.                     :        0.002 s           0.001 s
  | Total energy evaluation                     :        0.000 s           0.000 s

  Partial memory accounting:
  | Current value for overall tracked memory usage:
  |   Minimum:        4.321 MB (on task 21)
  |   Maximum:        4.426 MB (on task 58)
  |   Average:        4.362 MB
  | Peak value for overall tracked memory usage:
  |   Minimum:        5.098 MB (on task 21 after allocating wave)
  |   Maximum:        8.621 MB (on task 32 after allocating ovlp3fn_nosplit%tmploc)
  |   Average:        5.356 MB
  | Largest tracked array allocation so far:
  |   Minimum:        3.876 MB (ovlp3fn2%dat on task  0)
  |   Maximum:        3.911 MB (ovlp3fn2%dat on task  2)
  |   Average:        3.894 MB
  Note:  These values currently only include a subset of arrays which are explicitly tracked.
  The "true" memory usage will be greater.
------------------------------------------------------------

------------------------------------------------------------
          Begin self-consistency iteration #   10

  Date     :  20260717, Time     :  150637.502
------------------------------------------------------------
  Pulay mixing of updated and previous charge densities.
  Available memory per node after mixing [GB]:    999.15
  Renormalizing the density to the exact electron count on the 3D integration grid.
  | Formal number of electrons (from input files) :      12.0000000000
  | Integrated number of electrons on 3D grid     :      12.0000000000
  | Charge integration error                      :       0.0000000000
  | Normalization factor for density and gradient :       1.0000000000

  Evaluating partitioned Hartree potential by multipole expansion.
  | Original multipole sum: apparent total charge =   0.270575E-14
  | Sum of charges compensated after spline to logarithmic grids =  -0.752840E-08
  | Analytical far-field extrapolation by fixed multipoles:
  | Hartree multipole sum: apparent total charge =   0.236138E-14
  Summing up the Hartree potential.
  Time summed over all CPUs for potential: real work        0.001 s, elapsed        0.001 s
  | RMS charge density error from multipole expansion :   0.160708E-02

  Integrating Hamiltonian matrix: batch-based integration.
  Time summed over all CPUs for integration: real work        0.127 s, elapsed        0.145 s
  Calculating non-local Hartree-Fock exchange by two-center RI (RI-LVL).
  screening_threshold (crit_val) =  0.000000100000
  Exact exchange progress report - outermost block loop i_block: 1 ..       5
  |        1         2         3         4         5  
 Total ovlp3fn data transfer [GB]   2.0888399740215391E-003
  Average sparsity of tmp1/2 0.50000000
  Average sparsity of fock_matrix_row 0.01282051
  Full exact exchange energy: weighted long- and short-range EXX     83.553837461275 eV.
  Times            DM_x_o3fn   CM_prod_1   CM_prod_2   tmp2_prod        Sync   Imbalance       Other  Total calc
  | Times    0:        0.001       0.003       0.001       0.001       0.001       0.001       0.008       0.016
  | Times    1:        0.001       0.000       0.000       0.001       0.001       0.006       0.008       0.016
  | Times    2:        0.001       0.003       0.001       0.001       0.001       0.001       0.008       0.016
  | Times    3:        0.001       0.000       0.000       0.001       0.001       0.006       0.008       0.016
  | Times    4:        0.001       0.002       0.001       0.001       0.001       0.000       0.010       0.016
  | Times    5:        0.001       0.000       0.000       0.001       0.001       0.004       0.010       0.016
  | Times    6:        0.001       0.002       0.001       0.001       0.001       0.000       0.010       0.017
  | Times    7:        0.001       0.000       0.000       0.001       0.001       0.004       0.010       0.016
  | Times    8:        0.001       0.003       0.001       0.001       0.001       0.000       0.009       0.016
  | Times    9:        0.001       0.000       0.000       0.001       0.001       0.005       0.009       0.016
  | Times   10:        0.001       0.003       0.001       0.001       0.001       0.001       0.008       0.016
  | Times   11:        0.001       0.000       0.000       0.001       0.001       0.005       0.008       0.016
  | Times   12:        0.001       0.002       0.001       0.001       0.001       0.000       0.010       0.016
  | Times   13:        0.001       0.000       0.000       0.001       0.001       0.004       0.010       0.016
  | Times   14:        0.001       0.002       0.001       0.001       0.001       0.000       0.010       0.016
  | Times   15:        0.001       0.000       0.000       0.001       0.001       0.004       0.010       0.016
  | Times   16:        0.001       0.003       0.001       0.001       0.001       0.000       0.009       0.016
  | Times   17:        0.001       0.000       0.000       0.001       0.001       0.005       0.009       0.016
  | Times   18:        0.001       0.003       0.001       0.001       0.001       0.001       0.009       0.016
  | Times   19:        0.001       0.000       0.000       0.001       0.001       0.005       0.009       0.016
  | Times   20:        0.001       0.003       0.001       0.001       0.001       0.000       0.010       0.016
  | Times   21:        0.001       0.000       0.000       0.001       0.001       0.005       0.009       0.016
  | Times   22:        0.001       0.003       0.001       0.001       0.001       0.001       0.009       0.016
  | Times   23:        0.001       0.000       0.000       0.001       0.001       0.005       0.009       0.016
  | Times   24:        0.000       0.003       0.001       0.002       0.001       0.000       0.009       0.016
  | Times   25:        0.000       0.000       0.000       0.001       0.001       0.005       0.009       0.016
  | Times   26:        0.000       0.003       0.001       0.002       0.001       0.001       0.009       0.016
  | Times   27:        0.000       0.000       0.000       0.001       0.001       0.005       0.009       0.016
  | Times   28:        0.001       0.003       0.001       0.002       0.001       0.000       0.008       0.016
  | Times   29:        0.001       0.000       0.000       0.001       0.001       0.005       0.008       0.016
  | Times   30:        0.001       0.003       0.001       0.002       0.001       0.001       0.008       0.016
  | Times   31:        0.001       0.000       0.000       0.001       0.001       0.005       0.008       0.016
  | Times   32:        0.001       0.002       0.001       0.001       0.001       0.001       0.009       0.016
  | Times   33:        0.001       0.000       0.000       0.001       0.001       0.004       0.010       0.016
  | Times   34:        0.001       0.002       0.001       0.001       0.001       0.000       0.010       0.016
  | Times   35:        0.001       0.000       0.000       0.001       0.001       0.004       0.010       0.016
  | Times   36:        0.001       0.002       0.001       0.001       0.001       0.000       0.010       0.016
  | Times   37:        0.001       0.000       0.000       0.001       0.001       0.004       0.010       0.016
  | Times   38:        0.001       0.002       0.001       0.001       0.001       0.000       0.010       0.016
  | Times   39:        0.001       0.000       0.000       0.001       0.001       0.004       0.010       0.016
  | Times   40:        0.001       0.003       0.001       0.001       0.001       0.001       0.008       0.016
  | Times   41:        0.001       0.000       0.000       0.001       0.001       0.005       0.009       0.016
  | Times   42:        0.001       0.003       0.001       0.001       0.001       0.000       0.009       0.016
  | Times   43:        0.001       0.000       0.000       0.001       0.001       0.005       0.009       0.016
  | Times   44:        0.001       0.003       0.001       0.001       0.001       0.001       0.009       0.016
  | Times   45:        0.001       0.000       0.000       0.001       0.001       0.005       0.009       0.016
  | Times   46:        0.001       0.002       0.001       0.001       0.001       0.001       0.009       0.016
  | Times   47:        0.001       0.000       0.000       0.001       0.001       0.005       0.009       0.016
  | Times   48:        0.001       0.003       0.001       0.001       0.001       0.001       0.009       0.016
  | Times   49:        0.001       0.000       0.000       0.001       0.001       0.005       0.009       0.016
  | Times   50:        0.001       0.002       0.001       0.001       0.001       0.000       0.009       0.016
  | Times   51:        0.001       0.000       0.000       0.001       0.001       0.005       0.009       0.016
  | Times   52:        0.001       0.003       0.001       0.001       0.001       0.001       0.009       0.016
  | Times   53:        0.001       0.000       0.000       0.001       0.001       0.005       0.009       0.016
  | Times   54:        0.001       0.003       0.001       0.001       0.001       0.000       0.009       0.016
  | Times   55:        0.001       0.000       0.000       0.001       0.001       0.005       0.009       0.016
  | Times   56:        0.000       0.003       0.001       0.001       0.000       0.001       0.010       0.016
  | Times   57:        0.000       0.000       0.000       0.001       0.000       0.005       0.010       0.016
  | Times   58:        0.000       0.002       0.001       0.001       0.001       0.000       0.010       0.016
  | Times   59:        0.000       0.000       0.000       0.001       0.001       0.005       0.010       0.016
  | Times   60:        0.001       0.003       0.001       0.001       0.001       0.001       0.009       0.016
  | Times   61:        0.001       0.000       0.000       0.001       0.001       0.005       0.009       0.016
  | Times   62:        0.001       0.002       0.001       0.001       0.001       0.001       0.010       0.016
  | Times   63:        0.001       0.000       0.000       0.001       0.001       0.005       0.009       0.016
  | Times  sum:        0.054       0.083       0.037       0.075       0.040       0.165       0.585       1.040

  Decomposition of Other based on code block (only on MPI task 0):
  Times             Block #1    Block #2    Block #3    Block #4    Block #5    Block #6    Block #7    Block #8
  | Times    0:        0.000       0.000       0.000       0.000       0.000       0.000       0.000       0.000

  Times             Block #9   Block #10   Block #11   Block #12   Block #13   Block #14   Block #15   Block #16
  | Times    0:        0.000       0.000       0.000       0.002       0.000       0.005       0.000       0.000

  Times            Block Sum    Expected
  | Times    0:        0.007       0.008
  Time for Fock matrix mixing     0.000

  Updating Kohn-Sham eigenvalues and eigenvectors using ELSI and the ELPA eigensolver.
  Starting ELPA eigensolver
  Finished transformation to standard eigenproblem
  | Time :     0.000 s
  Finished solving standard eigenproblem
  | Time :     0.001 s
  Finished back-transformation of eigenvectors
  | Time :     0.001 s

  Obtaining occupation numbers and electronic chemical potential using ELSI.
  | Note that, for insulating systems, the printed 'chemical potential' value is not uniquely defined.
  | It can be anywhere in the energy gap, as long as it correctly separates occupied and unoccupied states.
  | In systems with a gap, the physically relevant chemical potential is the VBM or HOMO.

  | Chemical potential (Fermi level):    -7.40520244 eV
  Highest occupied state (VBM) at    -10.47039236 eV
  | Occupation number:      2.00000000

  Lowest unoccupied state (CBM) at    -4.34001253 eV
  | Occupation number:      0.00000000

  Overall HOMO-LUMO gap:      6.13037983 eV.

  Total energy components:
  | Sum of eigenvalues            :         -47.64081412 Ha       -1296.37251084 eV
  | XC energy correction          :          -4.51098095 Ha        -122.75003720 eV
  | XC potential correction       :          10.33851913 Ha         281.32541929 eV
  | Free-atom electrostatic energy:         -36.94462506 Ha       -1005.31439784 eV
  | Hartree energy correction     :          -0.68675744 Ha         -18.68762073 eV
  | Entropy correction            :          -0.00000000 Ha          -0.00000000 eV
  | ---------------------------
  | Total energy                  :         -79.44465844 Ha       -2161.79914732 eV
  | Total energy, T -> 0          :         -79.44465844 Ha       -2161.79914732 eV  <-- do not rely on this value for anything but (periodic) metals
  | Electronic free energy        :         -79.44465844 Ha       -2161.79914732 eV

  Derived energy quantities:
  | Kinetic energy                :          78.83233973 Ha        2145.13710739 eV
  | Electrostatic energy          :        -147.62668689 Ha       -4017.12653935 eV
  | Energy correction for multipole
  | error in Hartree potential    :          -0.00067915 Ha          -0.01848055 eV
  | Sum of eigenvalues per atom                           :        -648.18625542 eV
  | Total energy (T->0) per atom                          :       -1080.89957366 eV  <-- do not rely on this value for anything but (periodic) metals
  | Electronic free energy per atom                       :       -1080.89957366 eV
  Evaluating new KS density.
  Integration grid: deviation in total charge (<rho> - N_e) =   3.552714E-15

  Self-consistency convergence accuracy:
  | Change of charge density      :  0.5648E-02
  | Change of unmixed KS density  :  0.1618E-01
  | Change of sum of eigenvalues  :  0.2219E+00 eV
  | Change of total energy        :  0.8468E-02 eV


------------------------------------------------------------
  End self-consistency iteration #    10       :  max(cpu_time)    wall_clock(cpu1)
  | Time for this iteration                     :        0.285 s           0.084 s
  | Charge density update                       :        0.001 s           0.001 s
  | Density mixing                              :        0.264 s           0.059 s
  | Hartree multipole update                    :        0.001 s           0.001 s
  | Hartree multipole summation                 :        0.002 s           0.001 s
  | Integration                                 :        0.003 s           0.003 s
  | Fock matrix evaluation                      :        0.017 s           0.017 s
  | Solution of K.-S. eqns.                     :        0.002 s           0.002 s
  | Total energy evaluation                     :        0.000 s           0.000 s

  Partial memory accounting:
  | Current value for overall tracked memory usage:
  |   Minimum:        4.321 MB (on task 21)
  |   Maximum:        4.426 MB (on task 58)
  |   Average:        4.362 MB
  | Peak value for overall tracked memory usage:
  |   Minimum:        5.098 MB (on task 21 after allocating wave)
  |   Maximum:        8.621 MB (on task 32 after allocating ovlp3fn_nosplit%tmploc)
  |   Average:        5.356 MB
  | Largest tracked array allocation so far:
  |   Minimum:        3.876 MB (ovlp3fn2%dat on task  0)
  |   Maximum:        3.911 MB (ovlp3fn2%dat on task  2)
  |   Average:        3.894 MB
  Note:  These values currently only include a subset of arrays which are explicitly tracked.
  The "true" memory usage will be greater.
------------------------------------------------------------

------------------------------------------------------------
          Begin self-consistency iteration #   11

  Date     :  20260717, Time     :  150637.831
------------------------------------------------------------
  Pulay mixing of updated and previous charge densities.
  Available memory per node after mixing [GB]:    999.15
  Renormalizing the density to the exact electron count on the 3D integration grid.
  | Formal number of electrons (from input files) :      12.0000000000
  | Integrated number of electrons on 3D grid     :      12.0000000000
  | Charge integration error                      :       0.0000000000
  | Normalization factor for density and gradient :       1.0000000000

  Evaluating partitioned Hartree potential by multipole expansion.
  | Original multipole sum: apparent total charge =   0.250897E-14
  | Sum of charges compensated after spline to logarithmic grids =  -0.263103E-07
  | Analytical far-field extrapolation by fixed multipoles:
  | Hartree multipole sum: apparent total charge =   0.255816E-14
  Summing up the Hartree potential.
  Time summed over all CPUs for potential: real work        0.001 s, elapsed        0.001 s
  | RMS charge density error from multipole expansion :   0.160717E-02

  Integrating Hamiltonian matrix: batch-based integration.
  Time summed over all CPUs for integration: real work        0.127 s, elapsed        0.144 s
  Calculating non-local Hartree-Fock exchange by two-center RI (RI-LVL).
  screening_threshold (crit_val) =  0.000000100000
  Exact exchange progress report - outermost block loop i_block: 1 ..       5
  |        1         2         3         4         5  
 Total ovlp3fn data transfer [GB]   2.0888399740215391E-003
  Average sparsity of tmp1/2 0.50000000
  Average sparsity of fock_matrix_row 0.01282051
  Full exact exchange energy: weighted long- and short-range EXX     83.553332057915 eV.
  Times            DM_x_o3fn   CM_prod_1   CM_prod_2   tmp2_prod        Sync   Imbalance       Other  Total calc
  | Times    0:        0.001       0.003       0.001       0.001       0.001       0.000       0.007       0.015
  | Times    1:        0.001       0.000       0.000       0.001       0.001       0.005       0.007       0.015
  | Times    2:        0.001       0.003       0.001       0.001       0.001       0.001       0.007       0.015
  | Times    3:        0.001       0.000       0.000       0.001       0.001       0.005       0.007       0.015
  | Times    4:        0.001       0.003       0.001       0.001       0.001       0.000       0.007       0.015
  | Times    5:        0.001       0.000       0.000       0.001       0.001       0.005       0.007       0.015
  | Times    6:        0.001       0.002       0.001       0.001       0.001       0.002       0.007       0.015
  | Times    7:        0.001       0.000       0.000       0.001       0.001       0.005       0.007       0.015
  | Times    8:        0.001       0.002       0.001       0.001       0.001       0.000       0.008       0.015
  | Times    9:        0.001       0.000       0.000       0.001       0.001       0.004       0.008       0.015
  | Times   10:        0.001       0.002       0.001       0.001       0.001       0.001       0.008       0.015
  | Times   11:        0.001       0.000       0.000       0.001       0.001       0.004       0.008       0.015
  | Times   12:        0.001       0.003       0.001       0.001       0.001       0.000       0.007       0.015
  | Times   13:        0.001       0.000       0.000       0.001       0.001       0.005       0.007       0.015
  | Times   14:        0.001       0.003       0.001       0.001       0.001       0.001       0.007       0.015
  | Times   15:        0.001       0.000       0.000       0.001       0.001       0.005       0.007       0.015
  | Times   16:        0.001       0.003       0.001       0.001       0.001       0.000       0.008       0.015
  | Times   17:        0.001       0.000       0.000       0.001       0.001       0.005       0.007       0.015
  | Times   18:        0.001       0.003       0.001       0.001       0.001       0.001       0.007       0.015
  | Times   19:        0.001       0.000       0.000       0.001       0.001       0.005       0.007       0.015
  | Times   20:        0.001       0.003       0.002       0.001       0.001       0.000       0.007       0.015
  | Times   21:        0.001       0.000       0.000       0.001       0.001       0.006       0.006       0.015
  | Times   22:        0.001       0.003       0.001       0.001       0.001       0.002       0.006       0.015
  | Times   23:        0.001       0.000       0.000       0.001       0.001       0.006       0.006       0.015
  | Times   24:        0.000       0.003       0.001       0.002       0.001       0.000       0.008       0.015
  | Times   25:        0.000       0.000       0.000       0.001       0.001       0.005       0.007       0.015
  | Times   26:        0.000       0.003       0.001       0.002       0.001       0.001       0.007       0.015
  | Times   27:        0.000       0.000       0.000       0.001       0.001       0.005       0.007       0.015
  | Times   28:        0.001       0.003       0.002       0.002       0.001       0.000       0.007       0.015
  | Times   29:        0.001       0.000       0.000       0.001       0.001       0.005       0.007       0.015
  | Times   30:        0.001       0.003       0.001       0.002       0.001       0.001       0.006       0.015
  | Times   31:        0.001       0.000       0.000       0.001       0.001       0.006       0.006       0.015
  | Times   32:        0.001       0.002       0.001       0.001       0.001       0.000       0.008       0.015
  | Times   33:        0.001       0.000       0.000       0.001       0.001       0.004       0.008       0.015
  | Times   34:        0.001       0.002       0.001       0.001       0.001       0.000       0.008       0.015
  | Times   35:        0.001       0.000       0.000       0.001       0.001       0.004       0.008       0.015
  | Times   36:        0.001       0.003       0.001       0.001       0.001       0.001       0.007       0.015
  | Times   37:        0.001       0.000       0.000       0.001       0.001       0.005       0.007       0.015
  | Times   38:        0.001       0.003       0.001       0.001       0.001       0.000       0.007       0.015
  | Times   39:        0.001       0.000       0.000       0.001       0.001       0.005       0.007       0.015
  | Times   40:        0.001       0.002       0.001       0.001       0.001       0.001       0.008       0.015
  | Times   41:        0.001       0.000       0.000       0.001       0.001       0.004       0.008       0.015
  | Times   42:        0.001       0.002       0.001       0.001       0.001       0.000       0.009       0.015
  | Times   43:        0.001       0.000       0.000       0.001       0.001       0.004       0.008       0.015
  | Times   44:        0.001       0.003       0.001       0.001       0.001       0.001       0.007       0.015
  | Times   45:        0.001       0.000       0.000       0.001       0.001       0.005       0.007       0.015
  | Times   46:        0.001       0.002       0.001       0.001       0.001       0.000       0.008       0.015
  | Times   47:        0.001       0.000       0.000       0.001       0.001       0.005       0.007       0.015
  | Times   48:        0.001       0.003       0.001       0.001       0.001       0.001       0.007       0.015
  | Times   49:        0.001       0.000       0.000       0.001       0.001       0.005       0.007       0.015
  | Times   50:        0.001       0.002       0.001       0.001       0.001       0.001       0.008       0.015
  | Times   51:        0.001       0.000       0.000       0.001       0.001       0.005       0.007       0.015
  | Times   52:        0.001       0.003       0.001       0.001       0.001       0.001       0.007       0.015
  | Times   53:        0.001       0.000       0.000       0.001       0.001       0.005       0.007       0.015
  | Times   54:        0.001       0.003       0.001       0.001       0.001       0.000       0.008       0.015
  | Times   55:        0.001       0.000       0.000       0.001       0.001       0.005       0.007       0.015
  | Times   56:        0.000       0.003       0.001       0.001       0.000       0.001       0.008       0.015
  | Times   57:        0.000       0.000       0.000       0.001       0.001       0.005       0.008       0.015
  | Times   58:        0.000       0.003       0.001       0.001       0.001       0.001       0.008       0.015
  | Times   59:        0.000       0.000       0.000       0.001       0.001       0.005       0.008       0.015
  | Times   60:        0.001       0.003       0.001       0.001       0.001       0.001       0.007       0.015
  | Times   61:        0.001       0.000       0.000       0.001       0.001       0.005       0.007       0.015
  | Times   62:        0.001       0.003       0.001       0.001       0.001       0.001       0.007       0.015
  | Times   63:        0.001       0.000       0.000       0.001       0.001       0.005       0.007       0.015
  | Times  sum:        0.053       0.085       0.038       0.075       0.040       0.174       0.469       0.935

  Decomposition of Other based on code block (only on MPI task 0):
  Times             Block #1    Block #2    Block #3    Block #4    Block #5    Block #6    Block #7    Block #8
  | Times    0:        0.000       0.000       0.000       0.000       0.000       0.000       0.000       0.000

  Times             Block #9   Block #10   Block #11   Block #12   Block #13   Block #14   Block #15   Block #16
  | Times    0:        0.000       0.000       0.000       0.001       0.000       0.004       0.000       0.000

  Times            Block Sum    Expected
  | Times    0:        0.006       0.007
  Time for Fock matrix mixing     0.000

  Updating Kohn-Sham eigenvalues and eigenvectors using ELSI and the ELPA eigensolver.
  Starting ELPA eigensolver
  Finished transformation to standard eigenproblem
  | Time :     0.000 s
  Finished solving standard eigenproblem
  | Time :     0.001 s
  Finished back-transformation of eigenvectors
  | Time :     0.000 s

  Obtaining occupation numbers and electronic chemical potential using ELSI.
  | Note that, for insulating systems, the printed 'chemical potential' value is not uniquely defined.
  | It can be anywhere in the energy gap, as long as it correctly separates occupied and unoccupied states.
  | In systems with a gap, the physically relevant chemical potential is the VBM or HOMO.

  | Chemical potential (Fermi level):    -7.41460874 eV
  Highest occupied state (VBM) at    -10.58028100 eV
  | Occupation number:      2.00000000

  Lowest unoccupied state (CBM) at    -4.24893649 eV
  | Occupation number:      0.00000000

  Overall HOMO-LUMO gap:      6.33134451 eV.

  Total energy components:
  | Sum of eigenvalues            :         -47.68195418 Ha       -1297.49198898 eV
  | XC energy correction          :          -4.50741490 Ha        -122.65299995 eV
  | XC potential correction       :          10.33918838 Ha         281.34363047 eV
  | Free-atom electrostatic energy:         -36.94462506 Ha       -1005.31439784 eV
  | Hartree energy correction     :          -0.65093081 Ha         -17.71272859 eV
  | Entropy correction            :          -0.00000000 Ha          -0.00000000 eV
  | ---------------------------
  | Total energy                  :         -79.44573658 Ha       -2161.82848489 eV
  | Total energy, T -> 0          :         -79.44573658 Ha       -2161.82848489 eV  <-- do not rely on this value for anything but (periodic) metals
  | Electronic free energy        :         -79.44573658 Ha       -2161.82848489 eV

  Derived energy quantities:
  | Kinetic energy                :          78.85121712 Ha        2145.65078729 eV
  | Electrostatic energy          :        -147.64179293 Ha       -4017.53759561 eV
  | Energy correction for multipole
  | error in Hartree potential    :          -0.00074749 Ha          -0.02034019 eV
  | Sum of eigenvalues per atom                           :        -648.74599449 eV
  | Total energy (T->0) per atom                          :       -1080.91424245 eV  <-- do not rely on this value for anything but (periodic) metals
  | Electronic free energy per atom                       :       -1080.91424245 eV
  Evaluating new KS density.
  Integration grid: deviation in total charge (<rho> - N_e) =   3.552714E-15

  Self-consistency convergence accuracy:
  | Change of charge density      :  0.5595E-02
  | Change of unmixed KS density  :  0.1029E-02
  | Change of sum of eigenvalues  : -0.1119E+01 eV
  | Change of total energy        : -0.2934E-01 eV


------------------------------------------------------------
  End self-consistency iteration #    11       :  max(cpu_time)    wall_clock(cpu1)
  | Time for this iteration                     :        0.284 s           0.053 s
  | Charge density update                       :        0.001 s           0.002 s
  | Density mixing                              :        0.262 s           0.029 s
  | Hartree multipole update                    :        0.001 s           0.001 s
  | Hartree multipole summation                 :        0.002 s           0.001 s
  | Integration                                 :        0.003 s           0.003 s
  | Fock matrix evaluation                      :        0.016 s           0.016 s
  | Solution of K.-S. eqns.                     :        0.002 s           0.001 s
  | Total energy evaluation                     :        0.000 s           0.000 s

  Partial memory accounting:
  | Current value for overall tracked memory usage:
  |   Minimum:        4.321 MB (on task 21)
  |   Maximum:        4.426 MB (on task 58)
  |   Average:        4.362 MB
  | Peak value for overall tracked memory usage:
  |   Minimum:        5.098 MB (on task 21 after allocating wave)
  |   Maximum:        8.621 MB (on task 32 after allocating ovlp3fn_nosplit%tmploc)
  |   Average:        5.356 MB
  | Largest tracked array allocation so far:
  |   Minimum:        3.876 MB (ovlp3fn2%dat on task  0)
  |   Maximum:        3.911 MB (ovlp3fn2%dat on task  2)
  |   Average:        3.894 MB
  Note:  These values currently only include a subset of arrays which are explicitly tracked.
  The "true" memory usage will be greater.
------------------------------------------------------------

------------------------------------------------------------
          Begin self-consistency iteration #   12

  Date     :  20260717, Time     :  150638.098
------------------------------------------------------------
  Pulay mixing of updated and previous charge densities.
  Available memory per node after mixing [GB]:    999.14
  Renormalizing the density to the exact electron count on the 3D integration grid.
  | Formal number of electrons (from input files) :      12.0000000000
  | Integrated number of electrons on 3D grid     :      12.0000000000
  | Charge integration error                      :      -0.0000000000
  | Normalization factor for density and gradient :       1.0000000000

  Evaluating partitioned Hartree potential by multipole expansion.
  | Original multipole sum: apparent total charge =   0.309932E-14
  | Sum of charges compensated after spline to logarithmic grids =  -0.102341E-07
  | Analytical far-field extrapolation by fixed multipoles:
  | Hartree multipole sum: apparent total charge =   0.334529E-14
  Summing up the Hartree potential.
  Time summed over all CPUs for potential: real work        0.001 s, elapsed        0.001 s
  | RMS charge density error from multipole expansion :   0.163475E-02

  Integrating Hamiltonian matrix: batch-based integration.
  Time summed over all CPUs for integration: real work        0.126 s, elapsed        0.146 s
  Calculating non-local Hartree-Fock exchange by two-center RI (RI-LVL).
  screening_threshold (crit_val) =  0.000000100000
  Exact exchange progress report - outermost block loop i_block: 1 ..       5
  |        1         2         3         4         5  
 Total ovlp3fn data transfer [GB]   2.0888399740215391E-003
  Average sparsity of tmp1/2 0.50000000
  Average sparsity of fock_matrix_row 0.01282051
  Full exact exchange energy: weighted long- and short-range EXX     83.651860045401 eV.
  Times            DM_x_o3fn   CM_prod_1   CM_prod_2   tmp2_prod        Sync   Imbalance       Other  Total calc
  | Times    0:        0.001       0.003       0.001       0.001       0.001       0.000       0.008       0.016
  | Times    1:        0.001       0.000       0.000       0.001       0.001       0.005       0.008       0.016
  | Times    2:        0.001       0.003       0.001       0.001       0.001       0.001       0.008       0.016
  | Times    3:        0.001       0.000       0.000       0.001       0.001       0.005       0.008       0.016
  | Times    4:        0.001       0.002       0.001       0.001       0.001       0.000       0.009       0.016
  | Times    5:        0.001       0.000       0.000       0.001       0.001       0.004       0.009       0.016
  | Times    6:        0.001       0.002       0.001       0.001       0.001       0.001       0.009       0.016
  | Times    7:        0.001       0.000       0.000       0.001       0.001       0.004       0.009       0.016
  | Times    8:        0.001       0.002       0.001       0.001       0.001       0.000       0.009       0.016
  | Times    9:        0.001       0.000       0.000       0.001       0.001       0.004       0.009       0.016
  | Times   10:        0.001       0.002       0.001       0.001       0.001       0.000       0.009       0.016
  | Times   11:        0.001       0.000       0.000       0.001       0.001       0.004       0.009       0.016
  | Times   12:        0.001       0.003       0.001       0.001       0.001       0.000       0.009       0.016
  | Times   13:        0.001       0.000       0.000       0.001       0.001       0.005       0.008       0.016
  | Times   14:        0.001       0.003       0.001       0.001       0.001       0.001       0.008       0.016
  | Times   15:        0.001       0.000       0.000       0.001       0.001       0.005       0.008       0.016
  | Times   16:        0.001       0.003       0.001       0.001       0.001       0.000       0.009       0.016
  | Times   17:        0.001       0.000       0.000       0.001       0.001       0.005       0.008       0.016
  | Times   18:        0.001       0.003       0.001       0.001       0.001       0.001       0.008       0.016
  | Times   19:        0.001       0.000       0.000       0.001       0.001       0.005       0.008       0.016
  | Times   20:        0.001       0.003       0.001       0.001       0.001       0.000       0.009       0.016
  | Times   21:        0.001       0.000       0.000       0.001       0.001       0.005       0.009       0.016
  | Times   22:        0.001       0.003       0.001       0.001       0.001       0.001       0.008       0.016
  | Times   23:        0.001       0.000       0.000       0.001       0.001       0.005       0.009       0.016
  | Times   24:        0.000       0.003       0.001       0.002       0.001       0.000       0.009       0.016
  | Times   25:        0.000       0.000       0.000       0.001       0.001       0.005       0.008       0.016
  | Times   26:        0.000       0.003       0.001       0.002       0.001       0.001       0.008       0.016
  | Times   27:        0.000       0.000       0.000       0.001       0.001       0.005       0.008       0.016
  | Times   28:        0.001       0.003       0.001       0.001       0.001       0.000       0.009       0.016
  | Times   29:        0.001       0.000       0.000       0.001       0.001       0.005       0.009       0.016
  | Times   30:        0.001       0.002       0.001       0.001       0.001       0.001       0.009       0.016
  | Times   31:        0.001       0.000       0.000       0.001       0.001       0.005       0.009       0.016
  | Times   32:        0.001       0.003       0.001       0.001       0.001       0.001       0.007       0.016
  | Times   33:        0.001       0.000       0.000       0.001       0.001       0.005       0.008       0.016
  | Times   34:        0.001       0.003       0.001       0.001       0.001       0.000       0.008       0.016
  | Times   35:        0.001       0.000       0.000       0.001       0.001       0.005       0.008       0.016
  | Times   36:        0.001       0.002       0.001       0.001       0.001       0.000       0.009       0.016
  | Times   37:        0.001       0.000       0.000       0.001       0.001       0.004       0.009       0.016
  | Times   38:        0.001       0.002       0.001       0.001       0.001       0.000       0.009       0.016
  | Times   39:        0.001       0.000       0.000       0.001       0.001       0.004       0.009       0.016
  | Times   40:        0.001       0.003       0.001       0.001       0.001       0.001       0.008       0.016
  | Times   41:        0.001       0.000       0.000       0.001       0.001       0.005       0.008       0.016
  | Times   42:        0.001       0.003       0.001       0.001       0.001       0.000       0.008       0.016
  | Times   43:        0.001       0.000       0.000       0.001       0.001       0.005       0.008       0.016
  | Times   44:        0.001       0.003       0.001       0.001       0.001       0.001       0.008       0.016
  | Times   45:        0.001       0.000       0.000       0.001       0.001       0.005       0.008       0.016
  | Times   46:        0.001       0.002       0.001       0.001       0.001       0.000       0.009       0.016
  | Times   47:        0.001       0.000       0.000       0.001       0.001       0.005       0.008       0.016
  | Times   48:        0.001       0.003       0.001       0.001       0.001       0.001       0.008       0.016
  | Times   49:        0.001       0.000       0.000       0.001       0.001       0.005       0.008       0.016
  | Times   50:        0.001       0.002       0.001       0.001       0.001       0.001       0.009       0.016
  | Times   51:        0.001       0.000       0.000       0.001       0.001       0.005       0.008       0.016
  | Times   52:        0.001       0.003       0.001       0.001       0.001       0.001       0.008       0.016
  | Times   53:        0.001       0.000       0.000       0.001       0.001       0.005       0.008       0.016
  | Times   54:        0.001       0.003       0.001       0.001       0.001       0.000       0.009       0.016
  | Times   55:        0.001       0.000       0.000       0.001       0.001       0.005       0.008       0.016
  | Times   56:        0.001       0.003       0.002       0.002       0.001       0.001       0.007       0.016
  | Times   57:        0.000       0.000       0.000       0.001       0.001       0.006       0.008       0.016
  | Times   58:        0.001       0.003       0.001       0.001       0.001       0.001       0.008       0.016
  | Times   59:        0.000       0.000       0.000       0.001       0.001       0.006       0.008       0.016
  | Times   60:        0.000       0.002       0.001       0.001       0.000       0.001       0.010       0.016
  | Times   61:        0.000       0.000       0.000       0.001       0.000       0.004       0.010       0.016
  | Times   62:        0.000       0.002       0.001       0.001       0.000       0.000       0.010       0.016
  | Times   63:        0.000       0.000       0.000       0.001       0.000       0.004       0.010       0.016
  | Times  sum:        0.052       0.083       0.037       0.075       0.040       0.164       0.542       0.993

  Decomposition of Other based on code block (only on MPI task 0):
  Times             Block #1    Block #2    Block #3    Block #4    Block #5    Block #6    Block #7    Block #8
  | Times    0:        0.000       0.000       0.000       0.000       0.000       0.000       0.000       0.000

  Times             Block #9   Block #10   Block #11   Block #12   Block #13   Block #14   Block #15   Block #16
  | Times    0:        0.000       0.000       0.000       0.002       0.000       0.005       0.000       0.000

  Times            Block Sum    Expected
  | Times    0:        0.007       0.008
  Time for Fock matrix mixing     0.000

  Updating Kohn-Sham eigenvalues and eigenvectors using ELSI and the ELPA eigensolver.
  Starting ELPA eigensolver
  Finished transformation to standard eigenproblem
  | Time :     0.001 s
  Finished solving standard eigenproblem
  | Time :     0.001 s
  Finished back-transformation of eigenvectors
  | Time :     0.000 s

  Obtaining occupation numbers and electronic chemical potential using ELSI.
  | Note that, for insulating systems, the printed 'chemical potential' value is not uniquely defined.
  | It can be anywhere in the energy gap, as long as it correctly separates occupied and unoccupied states.
  | In systems with a gap, the physically relevant chemical potential is the VBM or HOMO.

  | Chemical potential (Fermi level):    -7.41335125 eV
  Highest occupied state (VBM) at    -10.48395684 eV
  | Occupation number:      2.00000000

  Lowest unoccupied state (CBM) at    -4.34274565 eV
  | Occupation number:      0.00000000

  Overall HOMO-LUMO gap:      6.14121119 eV.

  Total energy components:
  | Sum of eigenvalues            :         -47.66120243 Ha       -1296.92730519 eV
  | XC energy correction          :          -4.50811571 Ha        -122.67206996 eV
  | XC potential correction       :          10.33616356 Ha         281.26132093 eV
  | Free-atom electrostatic energy:         -36.94462506 Ha       -1005.31439784 eV
  | Hartree energy correction     :          -0.66868349 Ha         -18.19580348 eV
  | Entropy correction            :          -0.00000000 Ha          -0.00000000 eV
  | ---------------------------
  | Total energy                  :         -79.44646314 Ha       -2161.84825553 eV
  | Total energy, T -> 0          :         -79.44646314 Ha       -2161.84825553 eV  <-- do not rely on this value for anything but (periodic) metals
  | Electronic free energy        :         -79.44646314 Ha       -2161.84825553 eV

  Derived energy quantities:
  | Kinetic energy                :          78.80656588 Ha        2144.43576541 eV
  | Electrostatic energy          :        -147.60325660 Ha       -4016.48896885 eV
  | Energy correction for multipole
  | error in Hartree potential    :          -0.00069707 Ha          -0.01896837 eV
  | Sum of eigenvalues per atom                           :        -648.46365259 eV
  | Total energy (T->0) per atom                          :       -1080.92412777 eV  <-- do not rely on this value for anything but (periodic) metals
  | Electronic free energy per atom                       :       -1080.92412777 eV
  Evaluating new KS density.
  Integration grid: deviation in total charge (<rho> - N_e) =  -3.552714E-15

  Self-consistency convergence accuracy:
  | Change of charge density      :  0.1100E-01
  | Change of unmixed KS density  :  0.1639E-01
  | Change of sum of eigenvalues  :  0.5647E+00 eV
  | Change of total energy        : -0.1977E-01 eV


------------------------------------------------------------
  End self-consistency iteration #    12       :  max(cpu_time)    wall_clock(cpu1)
  | Time for this iteration                     :        0.302 s           0.102 s
  | Charge density update                       :        0.001 s           0.001 s
  | Density mixing                              :        0.278 s           0.078 s
  | Hartree multipole update                    :        0.001 s           0.001 s
  | Hartree multipole summation                 :        0.002 s           0.002 s
  | Integration                                 :        0.003 s           0.002 s
  | Fock matrix evaluation                      :        0.016 s           0.016 s
  | Solution of K.-S. eqns.                     :        0.002 s           0.002 s
  | Total energy evaluation                     :        0.000 s           0.000 s

  Partial memory accounting:
  | Current value for overall tracked memory usage:
  |   Minimum:        4.321 MB (on task 21)
  |   Maximum:        4.426 MB (on task 58)
  |   Average:        4.362 MB
  | Peak value for overall tracked memory usage:
  |   Minimum:        5.098 MB (on task 21 after allocating wave)
  |   Maximum:        8.621 MB (on task 32 after allocating ovlp3fn_nosplit%tmploc)
  |   Average:        5.356 MB
  | Largest tracked array allocation so far:
  |   Minimum:        3.876 MB (ovlp3fn2%dat on task  0)
  |   Maximum:        3.911 MB (ovlp3fn2%dat on task  2)
  |   Average:        3.894 MB
  Note:  These values currently only include a subset of arrays which are explicitly tracked.
  The "true" memory usage will be greater.
------------------------------------------------------------

------------------------------------------------------------
          Begin self-consistency iteration #   13

  Date     :  20260717, Time     :  150638.341
------------------------------------------------------------
  Pulay mixing of updated and previous charge densities.
  Available memory per node after mixing [GB]:    999.14
  Renormalizing the density to the exact electron count on the 3D integration grid.
  | Formal number of electrons (from input files) :      12.0000000000
  | Integrated number of electrons on 3D grid     :      12.0000000000
  | Charge integration error                      :       0.0000000000
  | Normalization factor for density and gradient :       1.0000000000

  Evaluating partitioned Hartree potential by multipole expansion.
  | Original multipole sum: apparent total charge =   0.157426E-14
  | Sum of charges compensated after spline to logarithmic grids =  -0.852932E-08
  | Analytical far-field extrapolation by fixed multipoles:
  | Hartree multipole sum: apparent total charge =   0.191862E-14
  Summing up the Hartree potential.
  Time summed over all CPUs for potential: real work        0.001 s, elapsed        0.001 s
  | RMS charge density error from multipole expansion :   0.164091E-02

  Integrating Hamiltonian matrix: batch-based integration.
  Time summed over all CPUs for integration: real work        0.127 s, elapsed        0.146 s
  Calculating non-local Hartree-Fock exchange by two-center RI (RI-LVL).
  screening_threshold (crit_val) =  0.000000100000
  Exact exchange progress report - outermost block loop i_block: 1 ..       5
  |        1         2         3         4         5  
 Total ovlp3fn data transfer [GB]   2.0888399740215391E-003
  Average sparsity of tmp1/2 0.50000000
  Average sparsity of fock_matrix_row 0.01282051
  Full exact exchange energy: weighted long- and short-range EXX     83.540163515592 eV.
  Times            DM_x_o3fn   CM_prod_1   CM_prod_2   tmp2_prod        Sync   Imbalance       Other  Total calc
  | Times    0:        0.001       0.003       0.002       0.001       0.001       0.000       0.007       0.016
  | Times    1:        0.001       0.000       0.000       0.001       0.001       0.006       0.007       0.016
  | Times    2:        0.002       0.003       0.001       0.001       0.001       0.002       0.007       0.016
  | Times    3:        0.001       0.000       0.000       0.001       0.001       0.006       0.007       0.016
  | Times    4:        0.001       0.002       0.001       0.001       0.001       0.000       0.010       0.016
  | Times    5:        0.001       0.000       0.000       0.001       0.001       0.004       0.009       0.016
  | Times    6:        0.001       0.002       0.001       0.001       0.001       0.000       0.009       0.016
  | Times    7:        0.001       0.000       0.000       0.001       0.001       0.004       0.009       0.016
  | Times    8:        0.001       0.003       0.001       0.001       0.001       0.000       0.009       0.016
  | Times    9:        0.001       0.000       0.000       0.001       0.001       0.005       0.009       0.016
  | Times   10:        0.001       0.003       0.001       0.001       0.001       0.001       0.008       0.016
  | Times   11:        0.001       0.000       0.000       0.001       0.001       0.005       0.008       0.016
  | Times   12:        0.001       0.003       0.001       0.001       0.001       0.000       0.009       0.016
  | Times   13:        0.001       0.000       0.000       0.001       0.001       0.005       0.009       0.016
  | Times   14:        0.001       0.002       0.001       0.001       0.001       0.001       0.009       0.016
  | Times   15:        0.001       0.000       0.000       0.001       0.001       0.005       0.009       0.016
  | Times   16:        0.001       0.003       0.001       0.001       0.001       0.000       0.009       0.016
  | Times   17:        0.001       0.000       0.000       0.001       0.001       0.005       0.009       0.016
  | Times   18:        0.001       0.002       0.001       0.001       0.001       0.001       0.008       0.016
  | Times   19:        0.001       0.000       0.000       0.001       0.001       0.005       0.009       0.016
  | Times   20:        0.001       0.003       0.001       0.001       0.001       0.000       0.009       0.016
  | Times   21:        0.001       0.000       0.000       0.001       0.001       0.005       0.009       0.016
  | Times   22:        0.001       0.003       0.001       0.001       0.001       0.001       0.009       0.016
  | Times   23:        0.001       0.000       0.000       0.001       0.001       0.005       0.009       0.016
  | Times   24:        0.001       0.003       0.001       0.001       0.001       0.000       0.009       0.016
  | Times   25:        0.000       0.000       0.000       0.001       0.001       0.005       0.008       0.016
  | Times   26:        0.001       0.003       0.001       0.002       0.001       0.001       0.008       0.016
  | Times   27:        0.000       0.000       0.000       0.001       0.001       0.005       0.008       0.016
  | Times   28:        0.001       0.003       0.001       0.001       0.001       0.000       0.009       0.016
  | Times   29:        0.001       0.000       0.000       0.001       0.001       0.004       0.009       0.016
  | Times   30:        0.001       0.002       0.001       0.001       0.001       0.001       0.009       0.016
  | Times   31:        0.001       0.000       0.000       0.001       0.001       0.004       0.009       0.016
  | Times   32:        0.001       0.002       0.001       0.001       0.001       0.001       0.009       0.016
  | Times   33:        0.001       0.000       0.000       0.001       0.001       0.004       0.009       0.016
  | Times   34:        0.001       0.002       0.001       0.001       0.001       0.000       0.010       0.016
  | Times   35:        0.001       0.000       0.000       0.001       0.001       0.004       0.009       0.016
  | Times   36:        0.001       0.003       0.001       0.001       0.001       0.001       0.008       0.016
  | Times   37:        0.001       0.000       0.000       0.001       0.001       0.005       0.008       0.016
  | Times   38:        0.001       0.003       0.001       0.001       0.001       0.000       0.008       0.016
  | Times   39:        0.001       0.000       0.000       0.001       0.001       0.005       0.008       0.016
  | Times   40:        0.001       0.002       0.001       0.001       0.001       0.000       0.010       0.016
  | Times   41:        0.001       0.000       0.000       0.001       0.001       0.004       0.010       0.016
  | Times   42:        0.001       0.002       0.001       0.001       0.001       0.000       0.010       0.016
  | Times   43:        0.001       0.000       0.000       0.001       0.001       0.004       0.010       0.016
  | Times   44:        0.001       0.003       0.001       0.001       0.001       0.001       0.008       0.016
  | Times   45:        0.001       0.000       0.000       0.001       0.001       0.005       0.009       0.016
  | Times   46:        0.001       0.002       0.001       0.001       0.001       0.001       0.009       0.016
  | Times   47:        0.001       0.000       0.000       0.001       0.001       0.005       0.009       0.016
  | Times   48:        0.001       0.003       0.001       0.001       0.001       0.001       0.008       0.016
  | Times   49:        0.001       0.000       0.000       0.001       0.001       0.005       0.009       0.016
  | Times   50:        0.001       0.002       0.001       0.001       0.001       0.001       0.009       0.016
  | Times   51:        0.001       0.000       0.000       0.001       0.001       0.005       0.009       0.016
  | Times   52:        0.001       0.003       0.001       0.001       0.001       0.001       0.008       0.016
  | Times   53:        0.001       0.000       0.000       0.001       0.001       0.005       0.009       0.016
  | Times   54:        0.001       0.003       0.001       0.001       0.001       0.001       0.009       0.016
  | Times   55:        0.001       0.000       0.000       0.001       0.001       0.005       0.009       0.016
  | Times   56:        0.001       0.003       0.002       0.002       0.001       0.001       0.008       0.016
  | Times   57:        0.000       0.000       0.000       0.001       0.001       0.006       0.008       0.016
  | Times   58:        0.001       0.003       0.001       0.001       0.001       0.001       0.008       0.016
  | Times   59:        0.000       0.000       0.000       0.001       0.001       0.006       0.008       0.016
  | Times   60:        0.000       0.002       0.001       0.001       0.000       0.000       0.010       0.016
  | Times   61:        0.000       0.000       0.000       0.001       0.000       0.003       0.011       0.016
  | Times   62:        0.000       0.002       0.001       0.001       0.000       0.000       0.011       0.016
  | Times   63:        0.000       0.000       0.000       0.001       0.000       0.003       0.011       0.016
  | Times  sum:        0.055       0.082       0.037       0.074       0.039       0.165       0.562       1.016

  Decomposition of Other based on code block (only on MPI task 0):
  Times             Block #1    Block #2    Block #3    Block #4    Block #5    Block #6    Block #7    Block #8
  | Times    0:        0.000       0.000       0.000       0.000       0.000       0.000       0.000       0.000

  Times             Block #9   Block #10   Block #11   Block #12   Block #13   Block #14   Block #15   Block #16
  | Times    0:        0.000       0.000       0.000       0.002       0.000       0.005       0.000       0.000

  Times            Block Sum    Expected
  | Times    0:        0.007       0.007
  Time for Fock matrix mixing     0.001

  Updating Kohn-Sham eigenvalues and eigenvectors using ELSI and the ELPA eigensolver.
  Starting ELPA eigensolver
  Finished transformation to standard eigenproblem
  | Time :     0.001 s
  Finished solving standard eigenproblem
  | Time :     0.001 s
  Finished back-transformation of eigenvectors
  | Time :     0.000 s

  Obtaining occupation numbers and electronic chemical potential using ELSI.
  | Note that, for insulating systems, the printed 'chemical potential' value is not uniquely defined.
  | It can be anywhere in the energy gap, as long as it correctly separates occupied and unoccupied states.
  | In systems with a gap, the physically relevant chemical potential is the VBM or HOMO.

  | Chemical potential (Fermi level):    -7.42556482 eV
  Highest occupied state (VBM) at    -10.47816765 eV
  | Occupation number:      2.00000000

  Lowest unoccupied state (CBM) at    -4.37296198 eV
  | Occupation number:      0.00000000

  Overall HOMO-LUMO gap:      6.10520567 eV.

  Total energy components:
  | Sum of eigenvalues            :         -47.65906880 Ha       -1296.86924598 eV
  | XC energy correction          :          -4.50945449 Ha        -122.70850003 eV
  | XC potential correction       :          10.33603934 Ha         281.25794081 eV
  | Free-atom electrostatic energy:         -36.94462506 Ha       -1005.31439784 eV
  | Hartree energy correction     :          -0.66820417 Ha         -18.18276059 eV
  | Entropy correction            :          -0.00000000 Ha          -0.00000000 eV
  | ---------------------------
  | Total energy                  :         -79.44531318 Ha       -2161.81696364 eV
  | Total energy, T -> 0          :         -79.44531318 Ha       -2161.81696364 eV  <-- do not rely on this value for anything but (periodic) metals
  | Electronic free energy        :         -79.44531318 Ha       -2161.81696364 eV

  Derived energy quantities:
  | Kinetic energy                :          78.80328000 Ha        2144.34635190 eV
  | Electrostatic energy          :        -147.60034349 Ha       -4016.40969893 eV
  | Energy correction for multipole
  | error in Hartree potential    :          -0.00070043 Ha          -0.01905977 eV
  | Sum of eigenvalues per atom                           :        -648.43462299 eV
  | Total energy (T->0) per atom                          :       -1080.90848182 eV  <-- do not rely on this value for anything but (periodic) metals
  | Electronic free energy per atom                       :       -1080.90848182 eV
  Evaluating new KS density.
  Integration grid: deviation in total charge (<rho> - N_e) =   0.000000E+00

  Self-consistency convergence accuracy:
  | Change of charge density      :  0.5347E-02
  | Change of unmixed KS density  :  0.1428E-01
  | Change of sum of eigenvalues  :  0.5806E-01 eV
  | Change of total energy        :  0.3129E-01 eV


------------------------------------------------------------
  End self-consistency iteration #    13       :  max(cpu_time)    wall_clock(cpu1)
  | Time for this iteration                     :        0.289 s           0.167 s
  | Charge density update                       :        0.001 s           0.001 s
  | Density mixing                              :        0.264 s           0.142 s
  | Hartree multipole update                    :        0.001 s           0.001 s
  | Hartree multipole summation                 :        0.002 s           0.002 s
  | Integration                                 :        0.003 s           0.002 s
  | Fock matrix evaluation                      :        0.017 s           0.017 s
  | Solution of K.-S. eqns.                     :        0.002 s           0.002 s
  | Total energy evaluation                     :        0.000 s           0.000 s

  Partial memory accounting:
  | Current value for overall tracked memory usage:
  |   Minimum:        4.321 MB (on task 21)
  |   Maximum:        4.426 MB (on task 58)
  |   Average:        4.362 MB
  | Peak value for overall tracked memory usage:
  |   Minimum:        5.098 MB (on task 21 after allocating wave)
  |   Maximum:        8.621 MB (on task 32 after allocating ovlp3fn_nosplit%tmploc)
  |   Average:        5.356 MB
  | Largest tracked array allocation so far:
  |   Minimum:        3.876 MB (ovlp3fn2%dat on task  0)
  |   Maximum:        3.911 MB (ovlp3fn2%dat on task  2)
  |   Average:        3.894 MB
  Note:  These values currently only include a subset of arrays which are explicitly tracked.
  The "true" memory usage will be greater.
------------------------------------------------------------

------------------------------------------------------------
          Begin self-consistency iteration #   14

  Date     :  20260717, Time     :  150638.557
------------------------------------------------------------
  Pulay mixing of updated and previous charge densities.
  Available memory per node after mixing [GB]:    999.14
  Renormalizing the density to the exact electron count on the 3D integration grid.
  | Formal number of electrons (from input files) :      12.0000000000
  | Integrated number of electrons on 3D grid     :      12.0000000000
  | Charge integration error                      :       0.0000000000
  | Normalization factor for density and gradient :       1.0000000000

  Evaluating partitioned Hartree potential by multipole expansion.
  | Original multipole sum: apparent total charge =   0.236138E-14
  | Sum of charges compensated after spline to logarithmic grids =  -0.144804E-07
  | Analytical far-field extrapolation by fixed multipoles:
  | Hartree multipole sum: apparent total charge =   0.309932E-14
  Summing up the Hartree potential.
  Time summed over all CPUs for potential: real work        0.001 s, elapsed        0.002 s
  | RMS charge density error from multipole expansion :   0.163692E-02

  Integrating Hamiltonian matrix: batch-based integration.
  Time summed over all CPUs for integration: real work        0.128 s, elapsed        0.151 s
  Calculating non-local Hartree-Fock exchange by two-center RI (RI-LVL).
  screening_threshold (crit_val) =  0.000000100000
  Exact exchange progress report - outermost block loop i_block: 1 ..       4
  |        1         2         3         4  
 Total ovlp3fn data transfer [GB]   1.6710719792172313E-003
  Average sparsity of tmp1/2 0.50000000
  Average sparsity of fock_matrix_row 0.01282051
  Full exact exchange energy: weighted long- and short-range EXX     83.533935839181 eV.
  Times            DM_x_o3fn   CM_prod_1   CM_prod_2   tmp2_prod        Sync   Imbalance       Other  Total calc
  | Times    0:        0.001       0.002       0.001       0.001       0.001       0.001       0.007       0.014
  | Times    1:        0.001       0.000       0.000       0.001       0.001       0.005       0.007       0.014
  | Times    2:        0.001       0.003       0.001       0.001       0.001       0.001       0.006       0.014
  | Times    3:        0.001       0.000       0.000       0.001       0.001       0.005       0.007       0.014
  | Times    4:        0.001       0.003       0.001       0.001       0.001       0.000       0.007       0.014
  | Times    5:        0.001       0.000       0.000       0.001       0.001       0.005       0.006       0.014
  | Times    6:        0.001       0.003       0.001       0.001       0.001       0.001       0.006       0.014
  | Times    7:        0.001       0.000       0.000       0.001       0.001       0.005       0.006       0.014
  | Times    8:        0.001       0.002       0.001       0.001       0.001       0.000       0.008       0.014
  | Times    9:        0.001       0.000       0.000       0.001       0.001       0.004       0.008       0.014
  | Times   10:        0.001       0.002       0.001       0.001       0.001       0.000       0.008       0.014
  | Times   11:        0.001       0.000       0.000       0.001       0.001       0.004       0.008       0.014
  | Times   12:        0.001       0.003       0.001       0.001       0.001       0.000       0.007       0.014
  | Times   13:        0.001       0.000       0.000       0.001       0.001       0.005       0.007       0.014
  | Times   14:        0.001       0.003       0.001       0.001       0.001       0.001       0.007       0.014
  | Times   15:        0.001       0.000       0.000       0.001       0.001       0.005       0.007       0.014
  | Times   16:        0.001       0.003       0.001       0.001       0.001       0.000       0.007       0.014
  | Times   17:        0.001       0.000       0.000       0.001       0.001       0.005       0.007       0.014
  | Times   18:        0.001       0.003       0.001       0.001       0.001       0.001       0.007       0.014
  | Times   19:        0.001       0.000       0.000       0.001       0.001       0.005       0.007       0.014
  | Times   20:        0.001       0.003       0.001       0.001       0.001       0.000       0.007       0.014
  | Times   21:        0.001       0.000       0.000       0.001       0.001       0.005       0.007       0.014
  | Times   22:        0.001       0.003       0.001       0.001       0.001       0.001       0.007       0.014
  | Times   23:        0.001       0.000       0.000       0.001       0.001       0.005       0.007       0.014
  | Times   24:        0.000       0.003       0.001       0.002       0.001       0.000       0.007       0.014
  | Times   25:        0.000       0.000       0.000       0.001       0.001       0.005       0.007       0.014
  | Times   26:        0.000       0.003       0.001       0.002       0.001       0.001       0.007       0.014
  | Times   27:        0.000       0.000       0.000       0.001       0.001       0.005       0.007       0.014
  | Times   28:        0.001       0.003       0.002       0.002       0.001       0.000       0.006       0.014
  | Times   29:        0.001       0.000       0.000       0.001       0.001       0.005       0.006       0.014
  | Times   30:        0.001       0.003       0.001       0.002       0.001       0.001       0.006       0.014
  | Times   31:        0.001       0.000       0.000       0.001       0.001       0.005       0.006       0.014
  | Times   32:        0.001       0.003       0.001       0.001       0.001       0.001       0.007       0.014
  | Times   33:        0.001       0.000       0.000       0.001       0.001       0.004       0.007       0.014
  | Times   34:        0.001       0.003       0.001       0.001       0.001       0.000       0.007       0.014
  | Times   35:        0.001       0.000       0.000       0.001       0.001       0.005       0.007       0.014
  | Times   36:        0.001       0.002       0.001       0.001       0.001       0.000       0.007       0.014
  | Times   37:        0.001       0.000       0.000       0.001       0.001       0.004       0.007       0.014
  | Times   38:        0.001       0.003       0.001       0.001       0.001       0.000       0.008       0.014
  | Times   39:        0.001       0.000       0.000       0.001       0.001       0.004       0.007       0.014
  | Times   40:        0.001       0.003       0.001       0.001       0.001       0.001       0.006       0.014
  | Times   41:        0.001       0.000       0.000       0.001       0.001       0.005       0.006       0.014
  | Times   42:        0.001       0.003       0.001       0.001       0.001       0.001       0.007       0.014
  | Times   43:        0.001       0.000       0.000       0.001       0.001       0.005       0.006       0.014
  | Times   44:        0.001       0.003       0.001       0.001       0.001       0.001       0.006       0.014
  | Times   45:        0.001       0.000       0.000       0.001       0.001       0.005       0.006       0.014
  | Times   46:        0.001       0.003       0.001       0.001       0.001       0.001       0.007       0.014
  | Times   47:        0.001       0.000       0.000       0.001       0.001       0.005       0.006       0.014
  | Times   48:        0.001       0.003       0.001       0.001       0.001       0.001       0.006       0.014
  | Times   49:        0.001       0.000       0.000       0.001       0.001       0.005       0.007       0.014
  | Times   50:        0.001       0.003       0.001       0.001       0.001       0.001       0.007       0.014
  | Times   51:        0.001       0.000       0.000       0.001       0.001       0.005       0.007       0.014
  | Times   52:        0.001       0.004       0.001       0.001       0.001       0.001       0.006       0.014
  | Times   53:        0.001       0.000       0.000       0.001       0.001       0.006       0.006       0.014
  | Times   54:        0.001       0.003       0.001       0.001       0.001       0.001       0.007       0.014
  | Times   55:        0.001       0.000       0.000       0.001       0.001       0.006       0.006       0.014
  | Times   56:        0.000       0.003       0.001       0.001       0.001       0.001       0.007       0.014
  | Times   57:        0.000       0.000       0.000       0.001       0.001       0.005       0.007       0.014
  | Times   58:        0.000       0.003       0.001       0.001       0.001       0.001       0.007       0.014
  | Times   59:        0.000       0.000       0.000       0.001       0.001       0.005       0.007       0.014
  | Times   60:        0.001       0.003       0.001       0.001       0.001       0.001       0.007       0.014
  | Times   61:        0.001       0.000       0.000       0.001       0.001       0.005       0.007       0.014
  | Times   62:        0.001       0.003       0.001       0.001       0.001       0.000       0.007       0.014
  | Times   63:        0.001       0.000       0.000       0.001       0.001       0.005       0.007       0.014
  | Times  sum:        0.054       0.090       0.038       0.075       0.040       0.173       0.438       0.909

  Decomposition of Other based on code block (only on MPI task 0):
  Times             Block #1    Block #2    Block #3    Block #4    Block #5    Block #6    Block #7    Block #8
  | Times    0:        0.000       0.000       0.000       0.000       0.000       0.000       0.000       0.000

  Times             Block #9   Block #10   Block #11   Block #12   Block #13   Block #14   Block #15   Block #16
  | Times    0:        0.000       0.000       0.000       0.001       0.000       0.004       0.000       0.000

  Times            Block Sum    Expected
  | Times    0:        0.006       0.007
  Time for Fock matrix mixing     0.000

  Updating Kohn-Sham eigenvalues and eigenvectors using ELSI and the ELPA eigensolver.
  Starting ELPA eigensolver
  Finished transformation to standard eigenproblem
  | Time :     0.000 s
  Finished solving standard eigenproblem
  | Time :     0.001 s
  Finished back-transformation of eigenvectors
  | Time :     0.000 s

  Obtaining occupation numbers and electronic chemical potential using ELSI.
  | Note that, for insulating systems, the printed 'chemical potential' value is not uniquely defined.
  | It can be anywhere in the energy gap, as long as it correctly separates occupied and unoccupied states.
  | In systems with a gap, the physically relevant chemical potential is the VBM or HOMO.

  | Chemical potential (Fermi level):    -7.45285964 eV
  Highest occupied state (VBM) at    -10.51739772 eV
  | Occupation number:      2.00000000

  Lowest unoccupied state (CBM) at    -4.38832157 eV
  | Occupation number:      0.00000000

  Overall HOMO-LUMO gap:      6.12907615 eV.

  Total energy components:
  | Sum of eigenvalues            :         -47.66994073 Ha       -1297.16508629 eV
  | XC energy correction          :          -4.50969976 Ha        -122.71517427 eV
  | XC potential correction       :          10.33576537 Ha         281.25048570 eV
  | Free-atom electrostatic energy:         -36.94462506 Ha       -1005.31439784 eV
  | Hartree energy correction     :          -0.65512517 Ha         -17.82686284 eV
  | Entropy correction            :          -0.00000000 Ha          -0.00000000 eV
  | ---------------------------
  | Total energy                  :         -79.44362535 Ha       -2161.77103554 eV
  | Total energy, T -> 0          :         -79.44362535 Ha       -2161.77103554 eV  <-- do not rely on this value for anything but (periodic) metals
  | Electronic free energy        :         -79.44362535 Ha       -2161.77103554 eV

  Derived energy quantities:
  | Kinetic energy                :          78.81191902 Ha        2144.58143170 eV
  | Electrostatic energy          :        -147.60782508 Ha       -4016.61328343 eV
  | Energy correction for multipole
  | error in Hartree potential    :          -0.00070948 Ha          -0.01930594 eV
  | Sum of eigenvalues per atom                           :        -648.58254314 eV
  | Total energy (T->0) per atom                          :       -1080.88551777 eV  <-- do not rely on this value for anything but (periodic) metals
  | Electronic free energy per atom                       :       -1080.88551777 eV
  Evaluating new KS density.
  Integration grid: deviation in total charge (<rho> - N_e) =   3.552714E-15

  Self-consistency convergence accuracy:
  | Change of charge density      :  0.6196E-02
  | Change of unmixed KS density  :  0.1603E-02
  | Change of sum of eigenvalues  : -0.2958E+00 eV
  | Change of total energy        :  0.4593E-01 eV


------------------------------------------------------------
  End self-consistency iteration #    14       :  max(cpu_time)    wall_clock(cpu1)
  | Time for this iteration                     :        0.287 s           0.251 s
  | Charge density update                       :        0.001 s           0.002 s
  | Density mixing                              :        0.265 s           0.227 s
  | Hartree multipole update                    :        0.001 s           0.001 s
  | Hartree multipole summation                 :        0.002 s           0.002 s
  | Integration                                 :        0.003 s           0.003 s
  | Fock matrix evaluation                      :        0.015 s           0.015 s
  | Solution of K.-S. eqns.                     :        0.002 s           0.001 s
  | Total energy evaluation                     :        0.000 s           0.000 s

  Partial memory accounting:
  | Current value for overall tracked memory usage:
  |   Minimum:        4.321 MB (on task 21)
  |   Maximum:        4.426 MB (on task 58)
  |   Average:        4.362 MB
  | Peak value for overall tracked memory usage:
  |   Minimum:        5.098 MB (on task 21 after allocating wave)
  |   Maximum:        8.621 MB (on task 32 after allocating ovlp3fn_nosplit%tmploc)
  |   Average:        5.356 MB
  | Largest tracked array allocation so far:
  |   Minimum:        3.876 MB (ovlp3fn2%dat on task  0)
  |   Maximum:        3.911 MB (ovlp3fn2%dat on task  2)
  |   Average:        3.894 MB
  Note:  These values currently only include a subset of arrays which are explicitly tracked.
  The "true" memory usage will be greater.
------------------------------------------------------------

------------------------------------------------------------
          Begin self-consistency iteration #   15

  Date     :  20260717, Time     :  150638.847
------------------------------------------------------------
  Pulay mixing of updated and previous charge densities.
  Available memory per node after mixing [GB]:    999.14
  Renormalizing the density to the exact electron count on the 3D integration grid.
  | Formal number of electrons (from input files) :      12.0000000000
  | Integrated number of electrons on 3D grid     :      12.0000000000
  | Charge integration error                      :       0.0000000000
  | Normalization factor for density and gradient :       1.0000000000

  Evaluating partitioned Hartree potential by multipole expansion.
  | Original multipole sum: apparent total charge =   0.393564E-14
  | Sum of charges compensated after spline to logarithmic grids =  -0.207419E-07
  | Analytical far-field extrapolation by fixed multipoles:
  | Hartree multipole sum: apparent total charge =   0.383725E-14
  Summing up the Hartree potential.
  Time summed over all CPUs for potential: real work        0.001 s, elapsed        0.001 s
  | RMS charge density error from multipole expansion :   0.163217E-02

  Integrating Hamiltonian matrix: batch-based integration.
  Time summed over all CPUs for integration: real work        0.126 s, elapsed        0.143 s
  Calculating non-local Hartree-Fock exchange by two-center RI (RI-LVL).
  screening_threshold (crit_val) =  0.000000100000
  Exact exchange progress report - outermost block loop i_block: 1 ..       4
  |        1         2         3         4  
 Total ovlp3fn data transfer [GB]   1.6710719792172313E-003
  Average sparsity of tmp1/2 0.50000000
  Average sparsity of fock_matrix_row 0.01282051
  Full exact exchange energy: weighted long- and short-range EXX     83.568208123815 eV.
  Times            DM_x_o3fn   CM_prod_1   CM_prod_2   tmp2_prod        Sync   Imbalance       Other  Total calc
  | Times    0:        0.001       0.002       0.001       0.001       0.001       0.000       0.008       0.014
  | Times    1:        0.001       0.000       0.000       0.001       0.001       0.004       0.007       0.014
  | Times    2:        0.001       0.002       0.001       0.001       0.001       0.001       0.007       0.014
  | Times    3:        0.001       0.000       0.000       0.001       0.001       0.005       0.007       0.014
  | Times    4:        0.001       0.003       0.001       0.001       0.001       0.000       0.007       0.014
  | Times    5:        0.001       0.000       0.000       0.001       0.001       0.005       0.007       0.014
  | Times    6:        0.001       0.003       0.001       0.001       0.001       0.001       0.006       0.014
  | Times    7:        0.001       0.000       0.000       0.001       0.001       0.005       0.007       0.014
  | Times    8:        0.001       0.003       0.001       0.001       0.001       0.000       0.006       0.014
  | Times    9:        0.001       0.000       0.000       0.001       0.001       0.005       0.006       0.014
  | Times   10:        0.001       0.003       0.001       0.001       0.001       0.001       0.006       0.014
  | Times   11:        0.001       0.000       0.000       0.001       0.001       0.005       0.006       0.014
  | Times   12:        0.001       0.003       0.001       0.001       0.001       0.000       0.007       0.014
  | Times   13:        0.001       0.000       0.000       0.001       0.001       0.005       0.007       0.014
  | Times   14:        0.001       0.003       0.001       0.001       0.001       0.001       0.006       0.014
  | Times   15:        0.001       0.000       0.000       0.001       0.001       0.005       0.007       0.014
  | Times   16:        0.001       0.003       0.001       0.001       0.001       0.000       0.007       0.014
  | Times   17:        0.001       0.000       0.000       0.001       0.001       0.005       0.007       0.014
  | Times   18:        0.001       0.003       0.001       0.002       0.001       0.001       0.007       0.014
  | Times   19:        0.001       0.000       0.000       0.001       0.001       0.005       0.007       0.014
  | Times   20:        0.001       0.003       0.001       0.001       0.001       0.000       0.007       0.014
  | Times   21:        0.001       0.000       0.000       0.001       0.001       0.005       0.007       0.014
  | Times   22:        0.001       0.003       0.001       0.001       0.001       0.001       0.007       0.014
  | Times   23:        0.001       0.000       0.000       0.001       0.001       0.005       0.007       0.014
  | Times   24:        0.001       0.003       0.001       0.002       0.001       0.000       0.007       0.014
  | Times   25:        0.000       0.000       0.000       0.001       0.001       0.005       0.007       0.014
  | Times   26:        0.001       0.003       0.001       0.002       0.001       0.001       0.007       0.014
  | Times   27:        0.000       0.000       0.000       0.001       0.001       0.005       0.007       0.014
  | Times   28:        0.001       0.003       0.001       0.002       0.001       0.000       0.006       0.014
  | Times   29:        0.001       0.000       0.000       0.001       0.001       0.005       0.006       0.014
  | Times   30:        0.001       0.003       0.001       0.002       0.001       0.001       0.006       0.014
  | Times   31:        0.001       0.000       0.000       0.001       0.001       0.005       0.006       0.014
  | Times   32:        0.001       0.002       0.001       0.001       0.001       0.001       0.007       0.014
  | Times   33:        0.001       0.000       0.000       0.001       0.001       0.004       0.008       0.014
  | Times   34:        0.001       0.002       0.001       0.001       0.001       0.000       0.008       0.014
  | Times   35:        0.001       0.000       0.000       0.001       0.001       0.004       0.008       0.014
  | Times   36:        0.001       0.002       0.001       0.001       0.001       0.001       0.007       0.014
  | Times   37:        0.001       0.000       0.000       0.001       0.001       0.004       0.008       0.014
  | Times   38:        0.001       0.002       0.001       0.001       0.001       0.001       0.008       0.014
  | Times   39:        0.001       0.000       0.000       0.001       0.001       0.004       0.008       0.014
  | Times   40:        0.001       0.003       0.001       0.001       0.001       0.001       0.007       0.014
  | Times   41:        0.001       0.000       0.000       0.001       0.001       0.005       0.007       0.014
  | Times   42:        0.001       0.002       0.001       0.001       0.001       0.001       0.007       0.014
  | Times   43:        0.001       0.000       0.000       0.001       0.001       0.005       0.007       0.014
  | Times   44:        0.001       0.003       0.001       0.001       0.001       0.001       0.007       0.014
  | Times   45:        0.001       0.000       0.000       0.001       0.001       0.005       0.007       0.014
  | Times   46:        0.001       0.002       0.001       0.001       0.001       0.000       0.007       0.014
  | Times   47:        0.001       0.000       0.000       0.001       0.001       0.005       0.007       0.014
  | Times   48:        0.001       0.003       0.001       0.001       0.001       0.001       0.007       0.014
  | Times   49:        0.001       0.000       0.000       0.001       0.001       0.005       0.008       0.014
  | Times   50:        0.001       0.002       0.001       0.001       0.001       0.001       0.008       0.014
  | Times   51:        0.001       0.000       0.000       0.001       0.001       0.005       0.008       0.014
  | Times   52:        0.001       0.002       0.001       0.001       0.001       0.001       0.008       0.014
  | Times   53:        0.001       0.000       0.000       0.001       0.001       0.004       0.008       0.014
  | Times   54:        0.001       0.002       0.001       0.001       0.001       0.000       0.008       0.014
  | Times   55:        0.001       0.000       0.000       0.001       0.001       0.004       0.008       0.014
  | Times   56:        0.000       0.003       0.001       0.001       0.000       0.001       0.008       0.014
  | Times   57:        0.000       0.000       0.000       0.001       0.001       0.005       0.008       0.014
  | Times   58:        0.000       0.002       0.001       0.001       0.000       0.001       0.008       0.014
  | Times   59:        0.000       0.000       0.000       0.001       0.000       0.005       0.008       0.014
  | Times   60:        0.001       0.003       0.001       0.001       0.001       0.001       0.007       0.014
  | Times   61:        0.001       0.000       0.000       0.001       0.001       0.005       0.007       0.014
  | Times   62:        0.001       0.002       0.001       0.001       0.001       0.001       0.008       0.014
  | Times   63:        0.001       0.000       0.000       0.001       0.001       0.005       0.008       0.014
  | Times  sum:        0.058       0.084       0.037       0.076       0.040       0.171       0.459       0.924

  Decomposition of Other based on code block (only on MPI task 0):
  Times             Block #1    Block #2    Block #3    Block #4    Block #5    Block #6    Block #7    Block #8
  | Times    0:        0.000       0.000       0.000       0.000       0.000       0.000       0.000       0.000

  Times             Block #9   Block #10   Block #11   Block #12   Block #13   Block #14   Block #15   Block #16
  | Times    0:        0.000       0.000       0.000       0.001       0.000       0.004       0.000       0.000

  Times            Block Sum    Expected
  | Times    0:        0.006       0.008
  Time for Fock matrix mixing     0.000

  Updating Kohn-Sham eigenvalues and eigenvectors using ELSI and the ELPA eigensolver.
  Starting ELPA eigensolver
  Finished transformation to standard eigenproblem
  | Time :     0.000 s
  Finished solving standard eigenproblem
  | Time :     0.001 s
  Finished back-transformation of eigenvectors
  | Time :     0.000 s

  Obtaining occupation numbers and electronic chemical potential using ELSI.
  | Note that, for insulating systems, the printed 'chemical potential' value is not uniquely defined.
  | It can be anywhere in the energy gap, as long as it correctly separates occupied and unoccupied states.
  | In systems with a gap, the physically relevant chemical potential is the VBM or HOMO.

  | Chemical potential (Fermi level):    -7.43888368 eV
  Highest occupied state (VBM) at    -10.53316456 eV
  | Occupation number:      2.00000000

  Lowest unoccupied state (CBM) at    -4.34460281 eV
  | Occupation number:      0.00000000

  Overall HOMO-LUMO gap:      6.18856175 eV.

  Total energy components:
  | Sum of eigenvalues            :         -47.67534684 Ha       -1297.31219407 eV
  | XC energy correction          :          -4.50758015 Ha        -122.65749664 eV
  | XC potential correction       :          10.33644636 Ha         281.26901633 eV
  | Free-atom electrostatic energy:         -36.94462506 Ha       -1005.31439784 eV
  | Hartree energy correction     :          -0.65474059 Ha         -17.81639798 eV
  | Entropy correction            :          -0.00000000 Ha          -0.00000000 eV
  | ---------------------------
  | Total energy                  :         -79.44584629 Ha       -2161.83147021 eV
  | Total energy, T -> 0          :         -79.44584629 Ha       -2161.83147021 eV  <-- do not rely on this value for anything but (periodic) metals
  | Electronic free energy        :         -79.44584629 Ha       -2161.83147021 eV

  Derived energy quantities:
  | Kinetic energy                :          78.82047314 Ha        2144.81420096 eV
  | Electrostatic energy          :        -147.61547913 Ha       -4016.82156065 eV
  | Energy correction for multipole
  | error in Hartree potential    :          -0.00071276 Ha          -0.01939516 eV
  | Sum of eigenvalues per atom                           :        -648.65609704 eV
  | Total energy (T->0) per atom                          :       -1080.91573510 eV  <-- do not rely on this value for anything but (periodic) metals
  | Electronic free energy per atom                       :       -1080.91573510 eV
  Evaluating new KS density.
  Integration grid: deviation in total charge (<rho> - N_e) =   0.000000E+00

  Self-consistency convergence accuracy:
  | Change of charge density      :  0.1924E-02
  | Change of unmixed KS density  :  0.4714E-02
  | Change of sum of eigenvalues  : -0.1471E+00 eV
  | Change of total energy        : -0.6043E-01 eV


------------------------------------------------------------
  End self-consistency iteration #    15       :  max(cpu_time)    wall_clock(cpu1)
  | Time for this iteration                     :        0.295 s           0.271 s
  | Charge density update                       :        0.001 s           0.001 s
  | Density mixing                              :        0.274 s           0.248 s
  | Hartree multipole update                    :        0.001 s           0.001 s
  | Hartree multipole summation                 :        0.002 s           0.002 s
  | Integration                                 :        0.003 s           0.003 s
  | Fock matrix evaluation                      :        0.015 s           0.015 s
  | Solution of K.-S. eqns.                     :        0.002 s           0.001 s
  | Total energy evaluation                     :        0.000 s           0.000 s

  Partial memory accounting:
  | Current value for overall tracked memory usage:
  |   Minimum:        4.321 MB (on task 21)
  |   Maximum:        4.426 MB (on task 58)
  |   Average:        4.362 MB
  | Peak value for overall tracked memory usage:
  |   Minimum:        5.098 MB (on task 21 after allocating wave)
  |   Maximum:        8.621 MB (on task 32 after allocating ovlp3fn_nosplit%tmploc)
  |   Average:        5.356 MB
  | Largest tracked array allocation so far:
  |   Minimum:        3.876 MB (ovlp3fn2%dat on task  0)
  |   Maximum:        3.911 MB (ovlp3fn2%dat on task  2)
  |   Average:        3.894 MB
  Note:  These values currently only include a subset of arrays which are explicitly tracked.
  The "true" memory usage will be greater.
------------------------------------------------------------

------------------------------------------------------------
          Begin self-consistency iteration #   16

  Date     :  20260717, Time     :  150639.279
------------------------------------------------------------
  Pulay mixing of updated and previous charge densities.
  Available memory per node after mixing [GB]:    999.14
  Renormalizing the density to the exact electron count on the 3D integration grid.
  | Formal number of electrons (from input files) :      12.0000000000
  | Integrated number of electrons on 3D grid     :      12.0000000000
  | Charge integration error                      :      -0.0000000000
  | Normalization factor for density and gradient :       1.0000000000

  Evaluating partitioned Hartree potential by multipole expansion.
  | Original multipole sum: apparent total charge =   0.162345E-14
  | Sum of charges compensated after spline to logarithmic grids =  -0.203598E-07
  | Analytical far-field extrapolation by fixed multipoles:
  | Hartree multipole sum: apparent total charge =   0.182023E-14
  Summing up the Hartree potential.
  Time summed over all CPUs for potential: real work        0.002 s, elapsed        0.002 s
  | RMS charge density error from multipole expansion :   0.163215E-02

  Integrating Hamiltonian matrix: batch-based integration.
  Time summed over all CPUs for integration: real work        0.130 s, elapsed        0.150 s
  Calculating non-local Hartree-Fock exchange by two-center RI (RI-LVL).
  screening_threshold (crit_val) =  0.000000100000
  Exact exchange progress report - outermost block loop i_block: 1 ..       5
  |        1         2         3         4         5  
 Total ovlp3fn data transfer [GB]   2.0888399740215391E-003
  Average sparsity of tmp1/2 0.50000000
  Average sparsity of fock_matrix_row 0.01282051
  Full exact exchange energy: weighted long- and short-range EXX     83.579069336285 eV.
  Times            DM_x_o3fn   CM_prod_1   CM_prod_2   tmp2_prod        Sync   Imbalance       Other  Total calc
  | Times    0:        0.001       0.003       0.001       0.001       0.001       0.000       0.007       0.014
  | Times    1:        0.001       0.000       0.000       0.001       0.001       0.005       0.007       0.014
  | Times    2:        0.001       0.003       0.001       0.001       0.001       0.001       0.007       0.014
  | Times    3:        0.001       0.000       0.000       0.001       0.001       0.005       0.007       0.014
  | Times    4:        0.001       0.002       0.001       0.001       0.001       0.000       0.008       0.014
  | Times    5:        0.001       0.000       0.000       0.001       0.001       0.004       0.008       0.014
  | Times    6:        0.001       0.003       0.001       0.001       0.001       0.000       0.007       0.014
  | Times    7:        0.001       0.000       0.000       0.001       0.001       0.004       0.008       0.014
  | Times    8:        0.001       0.002       0.001       0.001       0.001       0.000       0.008       0.014
  | Times    9:        0.001       0.000       0.000       0.001       0.001       0.004       0.008       0.014
  | Times   10:        0.001       0.002       0.001       0.001       0.001       0.001       0.008       0.014
  | Times   11:        0.001       0.000       0.000       0.001       0.001       0.004       0.008       0.014
  | Times   12:        0.001       0.003       0.001       0.001       0.001       0.000       0.008       0.014
  | Times   13:        0.001       0.000       0.000       0.001       0.001       0.005       0.007       0.014
  | Times   14:        0.001       0.003       0.001       0.001       0.001       0.001       0.007       0.014
  | Times   15:        0.001       0.000       0.000       0.001       0.001       0.005       0.007       0.014
  | Times   16:        0.001       0.003       0.001       0.001       0.001       0.000       0.008       0.014
  | Times   17:        0.001       0.000       0.000       0.001       0.001       0.005       0.007       0.014
  | Times   18:        0.001       0.003       0.001       0.001       0.001       0.001       0.007       0.014
  | Times   19:        0.001       0.000       0.000       0.001       0.001       0.005       0.007       0.014
  | Times   20:        0.001       0.003       0.001       0.001       0.001       0.000       0.007       0.014
  | Times   21:        0.001       0.000       0.000       0.001       0.001       0.005       0.007       0.014
  | Times   22:        0.001       0.003       0.001       0.001       0.001       0.001       0.007       0.014
  | Times   23:        0.001       0.000       0.000       0.001       0.001       0.005       0.007       0.014
  | Times   24:        0.000       0.003       0.001       0.002       0.001       0.000       0.007       0.014
  | Times   25:        0.000       0.000       0.000       0.001       0.001       0.005       0.007       0.014
  | Times   26:        0.000       0.003       0.001       0.002       0.001       0.001       0.007       0.014
  | Times   27:        0.000       0.000       0.000       0.001       0.001       0.005       0.007       0.014
  | Times   28:        0.001       0.003       0.001       0.001       0.001       0.000       0.008       0.014
  | Times   29:        0.001       0.000       0.000       0.001       0.001       0.005       0.008       0.014
  | Times   30:        0.001       0.002       0.001       0.001       0.001       0.001       0.007       0.014
  | Times   31:        0.001       0.000       0.000       0.001       0.001       0.005       0.008       0.014
  | Times   32:        0.002       0.003       0.001       0.001       0.001       0.001       0.006       0.014
  | Times   33:        0.001       0.000       0.000       0.001       0.001       0.005       0.006       0.014
  | Times   34:        0.001       0.003       0.001       0.001       0.001       0.001       0.007       0.014
  | Times   35:        0.001       0.000       0.000       0.001       0.001       0.005       0.006       0.014
  | Times   36:        0.001       0.002       0.001       0.001       0.001       0.000       0.008       0.014
  | Times   37:        0.001       0.000       0.000       0.001       0.001       0.004       0.008       0.014
  | Times   38:        0.001       0.002       0.001       0.001       0.001       0.000       0.008       0.014
  | Times   39:        0.001       0.000       0.000       0.001       0.001       0.004       0.008       0.014
  | Times   40:        0.001       0.003       0.001       0.001       0.001       0.001       0.007       0.014
  | Times   41:        0.001       0.000       0.000       0.001       0.001       0.005       0.007       0.014
  | Times   42:        0.001       0.003       0.001       0.001       0.001       0.000       0.007       0.014
  | Times   43:        0.001       0.000       0.000       0.001       0.001       0.005       0.007       0.014
  | Times   44:        0.001       0.003       0.001       0.001       0.001       0.001       0.007       0.014
  | Times   45:        0.001       0.000       0.000       0.001       0.001       0.005       0.007       0.014
  | Times   46:        0.001       0.002       0.001       0.001       0.001       0.001       0.007       0.014
  | Times   47:        0.001       0.000       0.000       0.001       0.001       0.005       0.007       0.014
  | Times   48:        0.001       0.003       0.001       0.001       0.001       0.001       0.007       0.014
  | Times   49:        0.001       0.000       0.000       0.001       0.001       0.005       0.007       0.014
  | Times   50:        0.001       0.002       0.001       0.001       0.001       0.001       0.007       0.014
  | Times   51:        0.001       0.000       0.000       0.001       0.001       0.005       0.007       0.014
  | Times   52:        0.001       0.002       0.001       0.001       0.001       0.001       0.008       0.014
  | Times   53:        0.001       0.000       0.000       0.001       0.001       0.004       0.008       0.014
  | Times   54:        0.001       0.002       0.001       0.001       0.001       0.000       0.009       0.014
  | Times   55:        0.001       0.000       0.000       0.001       0.001       0.004       0.008       0.014
  | Times   56:        0.000       0.003       0.002       0.002       0.001       0.001       0.007       0.014
  | Times   57:        0.000       0.000       0.000       0.001       0.001       0.005       0.007       0.014
  | Times   58:        0.000       0.003       0.001       0.002       0.001       0.001       0.007       0.014
  | Times   59:        0.000       0.000       0.000       0.001       0.001       0.005       0.007       0.014
  | Times   60:        0.001       0.003       0.001       0.001       0.001       0.001       0.007       0.014
  | Times   61:        0.001       0.000       0.000       0.001       0.001       0.005       0.008       0.014
  | Times   62:        0.001       0.002       0.001       0.001       0.001       0.001       0.008       0.014
  | Times   63:        0.001       0.000       0.000       0.001       0.001       0.005       0.008       0.014
  | Times  sum:        0.054       0.083       0.038       0.074       0.040       0.167       0.469       0.924

  Decomposition of Other based on code block (only on MPI task 0):
  Times             Block #1    Block #2    Block #3    Block #4    Block #5    Block #6    Block #7    Block #8
  | Times    0:        0.000       0.000       0.000       0.000       0.000       0.000       0.001       0.000

  Times             Block #9   Block #10   Block #11   Block #12   Block #13   Block #14   Block #15   Block #16
  | Times    0:        0.000       0.000       0.000       0.001       0.000       0.004       0.000       0.000

  Times            Block Sum    Expected
  | Times    0:        0.006       0.007
  Time for Fock matrix mixing     0.000

  Updating Kohn-Sham eigenvalues and eigenvectors using ELSI and the ELPA eigensolver.
  Starting ELPA eigensolver
  Finished transformation to standard eigenproblem
  | Time :     0.000 s
  Finished solving standard eigenproblem
  | Time :     0.001 s
  Finished back-transformation of eigenvectors
  | Time :     0.001 s

  Obtaining occupation numbers and electronic chemical potential using ELSI.
  | Note that, for insulating systems, the printed 'chemical potential' value is not uniquely defined.
  | It can be anywhere in the energy gap, as long as it correctly separates occupied and unoccupied states.
  | In systems with a gap, the physically relevant chemical potential is the VBM or HOMO.

  | Chemical potential (Fermi level):    -7.43944174 eV
  Highest occupied state (VBM) at    -10.53222386 eV
  | Occupation number:      2.00000000

  Lowest unoccupied state (CBM) at    -4.34665962 eV
  | Occupation number:      0.00000000

  Overall HOMO-LUMO gap:      6.18556424 eV.

  Total energy components:
  | Sum of eigenvalues            :         -47.67490751 Ha       -1297.30023925 eV
  | XC energy correction          :          -4.50770854 Ha        -122.66099019 eV
  | XC potential correction       :          10.33643701 Ha         281.26876193 eV
  | Free-atom electrostatic energy:         -36.94462506 Ha       -1005.31439784 eV
  | Hartree energy correction     :          -0.65491406 Ha         -17.82111840 eV
  | Entropy correction            :          -0.00000000 Ha          -0.00000000 eV
  | ---------------------------
  | Total energy                  :         -79.44571816 Ha       -2161.82798375 eV
  | Total energy, T -> 0          :         -79.44571816 Ha       -2161.82798375 eV  <-- do not rely on this value for anything but (periodic) metals
  | Electronic free energy        :         -79.44571816 Ha       -2161.82798375 eV

  Derived energy quantities:
  | Kinetic energy                :          78.82019431 Ha        2144.80661384 eV
  | Electrostatic energy          :        -147.61521492 Ha       -4016.81437134 eV
  | Energy correction for multipole
  | error in Hartree potential    :          -0.00071270 Ha          -0.01939366 eV
  | Sum of eigenvalues per atom                           :        -648.65011963 eV
  | Total energy (T->0) per atom                          :       -1080.91399188 eV  <-- do not rely on this value for anything but (periodic) metals
  | Electronic free energy per atom                       :       -1080.91399188 eV
  Evaluating new KS density.
  Integration grid: deviation in total charge (<rho> - N_e) =   1.065814E-14

  Self-consistency convergence accuracy:
  | Change of charge density      :  0.1982E-03
  | Change of unmixed KS density  :  0.1870E-02
  | Change of sum of eigenvalues  :  0.1195E-01 eV
  | Change of total energy        :  0.3486E-02 eV


------------------------------------------------------------
  End self-consistency iteration #    16       :  max(cpu_time)    wall_clock(cpu1)
  | Time for this iteration                     :        0.286 s           0.142 s
  | Charge density update                       :        0.001 s           0.001 s
  | Density mixing                              :        0.265 s           0.118 s
  | Hartree multipole update                    :        0.001 s           0.001 s
  | Hartree multipole summation                 :        0.003 s           0.003 s
  | Integration                                 :        0.003 s           0.002 s
  | Fock matrix evaluation                      :        0.015 s           0.015 s
  | Solution of K.-S. eqns.                     :        0.002 s           0.002 s
  | Total energy evaluation                     :        0.000 s           0.000 s

  Partial memory accounting:
  | Current value for overall tracked memory usage:
  |   Minimum:        4.321 MB (on task 21)
  |   Maximum:        4.426 MB (on task 58)
  |   Average:        4.362 MB
  | Peak value for overall tracked memory usage:
  |   Minimum:        5.098 MB (on task 21 after allocating wave)
  |   Maximum:        8.621 MB (on task 32 after allocating ovlp3fn_nosplit%tmploc)
  |   Average:        5.356 MB
  | Largest tracked array allocation so far:
  |   Minimum:        3.876 MB (ovlp3fn2%dat on task  0)
  |   Maximum:        3.911 MB (ovlp3fn2%dat on task  2)
  |   Average:        3.894 MB
  Note:  These values currently only include a subset of arrays which are explicitly tracked.
  The "true" memory usage will be greater.
------------------------------------------------------------

------------------------------------------------------------
          Begin self-consistency iteration #   17

  Date     :  20260717, Time     :  150639.593
------------------------------------------------------------
  Pulay mixing of updated and previous charge densities.
  Available memory per node after mixing [GB]:    999.13
  Renormalizing the density to the exact electron count on the 3D integration grid.
  | Formal number of electrons (from input files) :      12.0000000000
  | Integrated number of electrons on 3D grid     :      12.0000000000
  | Charge integration error                      :       0.0000000000
  | Normalization factor for density and gradient :       1.0000000000

  Evaluating partitioned Hartree potential by multipole expansion.
  | Original multipole sum: apparent total charge =   0.211541E-14
  | Sum of charges compensated after spline to logarithmic grids =  -0.208583E-07
  | Analytical far-field extrapolation by fixed multipoles:
  | Hartree multipole sum: apparent total charge =   0.137747E-14
  Summing up the Hartree potential.
  Time summed over all CPUs for potential: real work        0.001 s, elapsed        0.001 s
  | RMS charge density error from multipole expansion :   0.163103E-02

  Integrating Hamiltonian matrix: batch-based integration.
  Time summed over all CPUs for integration: real work        0.126 s, elapsed        0.145 s
  Calculating non-local Hartree-Fock exchange by two-center RI (RI-LVL).
  screening_threshold (crit_val) =  0.000000100000
  Exact exchange progress report - outermost block loop i_block: 1 ..       5
  |        1         2         3         4         5  
 Total ovlp3fn data transfer [GB]   2.0888399740215391E-003
  Average sparsity of tmp1/2 0.50000000
  Average sparsity of fock_matrix_row 0.01282051
  Full exact exchange energy: weighted long- and short-range EXX     83.578867046404 eV.
  Times            DM_x_o3fn   CM_prod_1   CM_prod_2   tmp2_prod        Sync   Imbalance       Other  Total calc
  | Times    0:        0.001       0.003       0.001       0.001       0.001       0.001       0.007       0.016
  | Times    1:        0.001       0.000       0.000       0.001       0.001       0.006       0.007       0.016
  | Times    2:        0.001       0.003       0.002       0.001       0.001       0.001       0.006       0.016
  | Times    3:        0.001       0.000       0.000       0.001       0.001       0.006       0.007       0.016
  | Times    4:        0.001       0.002       0.001       0.001       0.001       0.000       0.009       0.016
  | Times    5:        0.001       0.000       0.000       0.001       0.001       0.004       0.009       0.016
  | Times    6:        0.001       0.002       0.001       0.001       0.001       0.000       0.009       0.016
  | Times    7:        0.001       0.000       0.000       0.001       0.001       0.004       0.009       0.016
  | Times    8:        0.001       0.003       0.001       0.001       0.001       0.000       0.008       0.016
  | Times    9:        0.001       0.000       0.000       0.001       0.001       0.005       0.008       0.016
  | Times   10:        0.001       0.003       0.001       0.001       0.001       0.001       0.008       0.016
  | Times   11:        0.001       0.000       0.000       0.001       0.001       0.005       0.008       0.016
  | Times   12:        0.001       0.003       0.001       0.001       0.001       0.000       0.009       0.016
  | Times   13:        0.001       0.000       0.000       0.001       0.001       0.005       0.008       0.016
  | Times   14:        0.001       0.002       0.001       0.001       0.001       0.001       0.008       0.016
  | Times   15:        0.001       0.000       0.000       0.001       0.001       0.005       0.008       0.016
  | Times   16:        0.001       0.003       0.001       0.001       0.001       0.001       0.008       0.016
  | Times   17:        0.001       0.000       0.000       0.001       0.001       0.006       0.007       0.016
  | Times   18:        0.001       0.003       0.002       0.001       0.001       0.001       0.007       0.016
  | Times   19:        0.001       0.000       0.000       0.001       0.001       0.006       0.007       0.016
  | Times   20:        0.001       0.004       0.002       0.001       0.001       0.000       0.006       0.016
  | Times   21:        0.001       0.000       0.000       0.001       0.001       0.007       0.006       0.016
  | Times   22:        0.001       0.003       0.001       0.001       0.001       0.003       0.006       0.016
  | Times   23:        0.001       0.000       0.000       0.001       0.001       0.007       0.006       0.016
  | Times   24:        0.000       0.003       0.001       0.001       0.001       0.000       0.010       0.016
  | Times   25:        0.000       0.000       0.000       0.001       0.001       0.004       0.009       0.016
  | Times   26:        0.000       0.002       0.001       0.001       0.001       0.001       0.009       0.016
  | Times   27:        0.000       0.000       0.000       0.001       0.001       0.004       0.009       0.016
  | Times   28:        0.001       0.003       0.001       0.002       0.001       0.000       0.008       0.016
  | Times   29:        0.001       0.000       0.000       0.001       0.001       0.005       0.008       0.016
  | Times   30:        0.001       0.003       0.001       0.002       0.001       0.001       0.007       0.016
  | Times   31:        0.001       0.000       0.000       0.001       0.001       0.005       0.007       0.016
  | Times   32:        0.001       0.002       0.001       0.001       0.001       0.000       0.009       0.016
  | Times   33:        0.001       0.000       0.000       0.001       0.001       0.004       0.009       0.016
  | Times   34:        0.001       0.002       0.001       0.001       0.001       0.000       0.009       0.016
  | Times   35:        0.001       0.000       0.000       0.001       0.001       0.004       0.009       0.016
  | Times   36:        0.001       0.002       0.001       0.001       0.001       0.001       0.009       0.016
  | Times   37:        0.001       0.000       0.000       0.001       0.001       0.004       0.009       0.016
  | Times   38:        0.001       0.002       0.001       0.001       0.001       0.000       0.009       0.016
  | Times   39:        0.001       0.000       0.000       0.001       0.001       0.004       0.009       0.016
  | Times   40:        0.001       0.003       0.001       0.001       0.001       0.001       0.008       0.016
  | Times   41:        0.001       0.000       0.000       0.001       0.001       0.005       0.008       0.016
  | Times   42:        0.001       0.003       0.001       0.001       0.001       0.000       0.008       0.016
  | Times   43:        0.001       0.000       0.000       0.001       0.001       0.005       0.008       0.016
  | Times   44:        0.001       0.003       0.001       0.001       0.001       0.001       0.008       0.016
  | Times   45:        0.001       0.000       0.000       0.001       0.001       0.005       0.008       0.016
  | Times   46:        0.001       0.002       0.001       0.001       0.001       0.001       0.008       0.016
  | Times   47:        0.001       0.000       0.000       0.001       0.001       0.005       0.008       0.016
  | Times   48:        0.001       0.003       0.001       0.001       0.001       0.001       0.008       0.016
  | Times   49:        0.001       0.000       0.000       0.001       0.001       0.005       0.008       0.016
  | Times   50:        0.001       0.002       0.001       0.001       0.001       0.001       0.009       0.016
  | Times   51:        0.001       0.000       0.000       0.001       0.001       0.005       0.008       0.016
  | Times   52:        0.001       0.003       0.001       0.001       0.001       0.001       0.008       0.016
  | Times   53:        0.001       0.000       0.000       0.001       0.001       0.005       0.008       0.016
  | Times   54:        0.001       0.003       0.001       0.001       0.001       0.001       0.009       0.016
  | Times   55:        0.001       0.000       0.000       0.001       0.001       0.005       0.008       0.016
  | Times   56:        0.000       0.003       0.001       0.001       0.001       0.001       0.009       0.016
  | Times   57:        0.000       0.000       0.000       0.001       0.001       0.005       0.009       0.016
  | Times   58:        0.000       0.002       0.001       0.001       0.000       0.001       0.009       0.016
  | Times   59:        0.000       0.000       0.000       0.001       0.000       0.005       0.009       0.016
  | Times   60:        0.001       0.003       0.001       0.001       0.001       0.001       0.008       0.016
  | Times   61:        0.001       0.000       0.000       0.001       0.001       0.005       0.009       0.016
  | Times   62:        0.001       0.002       0.001       0.001       0.001       0.000       0.009       0.016
  | Times   63:        0.001       0.000       0.000       0.001       0.001       0.005       0.009       0.016
  | Times  sum:        0.056       0.085       0.038       0.075       0.040       0.174       0.525       0.995

  Decomposition of Other based on code block (only on MPI task 0):
  Times             Block #1    Block #2    Block #3    Block #4    Block #5    Block #6    Block #7    Block #8
  | Times    0:        0.000       0.000       0.000       0.000       0.000       0.000       0.000       0.000

  Times             Block #9   Block #10   Block #11   Block #12   Block #13   Block #14   Block #15   Block #16
  | Times    0:        0.000       0.000       0.000       0.001       0.000       0.004       0.000       0.000

  Times            Block Sum    Expected
  | Times    0:        0.006       0.007
  Time for Fock matrix mixing     0.000

  Updating Kohn-Sham eigenvalues and eigenvectors using ELSI and the ELPA eigensolver.
  Starting ELPA eigensolver
  Finished transformation to standard eigenproblem
  | Time :     0.000 s
  Finished solving standard eigenproblem
  | Time :     0.001 s
  Finished back-transformation of eigenvectors
  | Time :     0.000 s

  Obtaining occupation numbers and electronic chemical potential using ELSI.
  | Note that, for insulating systems, the printed 'chemical potential' value is not uniquely defined.
  | It can be anywhere in the energy gap, as long as it correctly separates occupied and unoccupied states.
  | In systems with a gap, the physically relevant chemical potential is the VBM or HOMO.

  | Chemical potential (Fermi level):    -7.43979671 eV
  Highest occupied state (VBM) at    -10.53310090 eV
  | Occupation number:      2.00000000

  Lowest unoccupied state (CBM) at    -4.34649252 eV
  | Occupation number:      0.00000000

  Overall HOMO-LUMO gap:      6.18660839 eV.

  Total energy components:
  | Sum of eigenvalues            :         -47.67516321 Ha       -1297.30719715 eV
  | XC energy correction          :          -4.50764624 Ha        -122.65929506 eV
  | XC potential correction       :          10.33636177 Ha         281.26671439 eV
  | Free-atom electrostatic energy:         -36.94462506 Ha       -1005.31439784 eV
  | Hartree energy correction     :          -0.65465231 Ha         -17.81399585 eV
  | Entropy correction            :          -0.00000000 Ha          -0.00000000 eV
  | ---------------------------
  | Total energy                  :         -79.44572506 Ha       -2161.82817151 eV
  | Total energy, T -> 0          :         -79.44572506 Ha       -2161.82817151 eV  <-- do not rely on this value for anything but (periodic) metals
  | Electronic free energy        :         -79.44572506 Ha       -2161.82817151 eV

  Derived energy quantities:
  | Kinetic energy                :          78.81995245 Ha        2144.80003230 eV
  | Electrostatic energy          :        -147.61502867 Ha       -4016.80930299 eV
  | Energy correction for multipole
  | error in Hartree potential    :          -0.00071113 Ha          -0.01935096 eV
  | Sum of eigenvalues per atom                           :        -648.65359858 eV
  | Total energy (T->0) per atom                          :       -1080.91408576 eV  <-- do not rely on this value for anything but (periodic) metals
  | Electronic free energy per atom                       :       -1080.91408576 eV
  Evaluating new KS density.
  Integration grid: deviation in total charge (<rho> - N_e) =   3.552714E-15

  Self-consistency convergence accuracy:
  | Change of charge density      :  0.1343E-03
  | Change of unmixed KS density  :  0.6819E-04
  | Change of sum of eigenvalues  : -0.6958E-02 eV
  | Change of total energy        : -0.1878E-03 eV


------------------------------------------------------------
  End self-consistency iteration #    17       :  max(cpu_time)    wall_clock(cpu1)
  | Time for this iteration                     :        0.278 s           0.122 s
  | Charge density update                       :        0.001 s           0.001 s
  | Density mixing                              :        0.254 s           0.097 s
  | Hartree multipole update                    :        0.001 s           0.001 s
  | Hartree multipole summation                 :        0.002 s           0.002 s
  | Integration                                 :        0.003 s           0.003 s
  | Fock matrix evaluation                      :        0.016 s           0.016 s
  | Solution of K.-S. eqns.                     :        0.002 s           0.001 s
  | Total energy evaluation                     :        0.000 s           0.001 s

  Partial memory accounting:
  | Current value for overall tracked memory usage:
  |   Minimum:        4.321 MB (on task 21)
  |   Maximum:        4.426 MB (on task 58)
  |   Average:        4.362 MB
  | Peak value for overall tracked memory usage:
  |   Minimum:        5.098 MB (on task 21 after allocating wave)
  |   Maximum:        8.621 MB (on task 32 after allocating ovlp3fn_nosplit%tmploc)
  |   Average:        5.356 MB
  | Largest tracked array allocation so far:
  |   Minimum:        3.876 MB (ovlp3fn2%dat on task  0)
  |   Maximum:        3.911 MB (ovlp3fn2%dat on task  2)
  |   Average:        3.894 MB
  Note:  These values currently only include a subset of arrays which are explicitly tracked.
  The "true" memory usage will be greater.
------------------------------------------------------------

------------------------------------------------------------
          Begin self-consistency iteration #   18

  Date     :  20260717, Time     :  150639.743
------------------------------------------------------------
  Pulay mixing of updated and previous charge densities.
  Available memory per node after mixing [GB]:    999.13
  Renormalizing the density to the exact electron count on the 3D integration grid.
  | Formal number of electrons (from input files) :      12.0000000000
  | Integrated number of electrons on 3D grid     :      12.0000000000
  | Charge integration error                      :       0.0000000000
  | Normalization factor for density and gradient :       1.0000000000

  Evaluating partitioned Hartree potential by multipole expansion.
  | Original multipole sum: apparent total charge =   0.580507E-14
  | Sum of charges compensated after spline to logarithmic grids =  -0.207413E-07
  | Analytical far-field extrapolation by fixed multipoles:
  | Hartree multipole sum: apparent total charge =   0.541150E-14
  Summing up the Hartree potential.
  Time summed over all CPUs for potential: real work        0.001 s, elapsed        0.001 s
  | RMS charge density error from multipole expansion :   0.163121E-02

  Integrating Hamiltonian matrix: batch-based integration.
  Time summed over all CPUs for integration: real work        0.127 s, elapsed        0.147 s
  Calculating non-local Hartree-Fock exchange by two-center RI (RI-LVL).
  screening_threshold (crit_val) =  0.000000100000
  Exact exchange progress report - outermost block loop i_block: 1 ..       5
  |        1         2         3         4         5  
 Total ovlp3fn data transfer [GB]   2.0888399740215391E-003
  Average sparsity of tmp1/2 0.50000000
  Average sparsity of fock_matrix_row 0.01282051
  Full exact exchange energy: weighted long- and short-range EXX     83.578863665444 eV.
  Times            DM_x_o3fn   CM_prod_1   CM_prod_2   tmp2_prod        Sync   Imbalance       Other  Total calc
  | Times    0:        0.001       0.003       0.001       0.001       0.001       0.000       0.007       0.015
  | Times    1:        0.001       0.000       0.000       0.001       0.001       0.005       0.007       0.015
  | Times    2:        0.002       0.003       0.001       0.001       0.001       0.001       0.006       0.015
  | Times    3:        0.001       0.000       0.000       0.001       0.001       0.005       0.007       0.015
  | Times    4:        0.001       0.002       0.001       0.001       0.001       0.000       0.008       0.015
  | Times    5:        0.001       0.000       0.000       0.001       0.001       0.004       0.008       0.015
  | Times    6:        0.001       0.002       0.001       0.001       0.001       0.000       0.008       0.015
  | Times    7:        0.001       0.000       0.000       0.001       0.001       0.004       0.008       0.015
  | Times    8:        0.001       0.003       0.001       0.001       0.001       0.000       0.007       0.015
  | Times    9:        0.001       0.000       0.000       0.001       0.001       0.005       0.007       0.015
  | Times   10:        0.001       0.003       0.001       0.001       0.001       0.001       0.007       0.015
  | Times   11:        0.001       0.000       0.000       0.001       0.001       0.005       0.007       0.015
  | Times   12:        0.001       0.003       0.001       0.001       0.001       0.000       0.007       0.015
  | Times   13:        0.001       0.000       0.000       0.001       0.001       0.005       0.007       0.015
  | Times   14:        0.001       0.003       0.001       0.001       0.001       0.001       0.007       0.015
  | Times   15:        0.001       0.000       0.000       0.001       0.001       0.005       0.007       0.015
  | Times   16:        0.001       0.002       0.001       0.001       0.001       0.000       0.008       0.015
  | Times   17:        0.001       0.000       0.000       0.001       0.001       0.004       0.008       0.015
  | Times   18:        0.001       0.002       0.001       0.001       0.001       0.001       0.008       0.015
  | Times   19:        0.001       0.000       0.000       0.001       0.001       0.004       0.008       0.015
  | Times   20:        0.001       0.003       0.001       0.001       0.001       0.000       0.008       0.015
  | Times   21:        0.001       0.000       0.000       0.001       0.001       0.005       0.008       0.015
  | Times   22:        0.001       0.003       0.001       0.001       0.001       0.001       0.007       0.015
  | Times   23:        0.001       0.000       0.000       0.001       0.001       0.005       0.008       0.015
  | Times   24:        0.000       0.003       0.001       0.001       0.000       0.000       0.009       0.015
  | Times   25:        0.000       0.000       0.000       0.001       0.000       0.004       0.009       0.015
  | Times   26:        0.000       0.002       0.001       0.001       0.000       0.001       0.008       0.015
  | Times   27:        0.000       0.000       0.000       0.001       0.000       0.004       0.009       0.015
  | Times   28:        0.001       0.003       0.001       0.001       0.001       0.000       0.008       0.015
  | Times   29:        0.001       0.000       0.000       0.001       0.001       0.005       0.007       0.015
  | Times   30:        0.001       0.003       0.001       0.001       0.001       0.001       0.007       0.015
  | Times   31:        0.001       0.000       0.000       0.001       0.001       0.005       0.007       0.015
  | Times   32:        0.001       0.003       0.001       0.001       0.001       0.000       0.007       0.015
  | Times   33:        0.001       0.000       0.000       0.001       0.001       0.005       0.007       0.015
  | Times   34:        0.001       0.003       0.001       0.001       0.001       0.001       0.007       0.015
  | Times   35:        0.001       0.000       0.000       0.001       0.001       0.005       0.007       0.015
  | Times   36:        0.001       0.003       0.001       0.001       0.001       0.001       0.007       0.015
  | Times   37:        0.001       0.000       0.000       0.001       0.001       0.005       0.007       0.015
  | Times   38:        0.001       0.003       0.001       0.001       0.001       0.001       0.007       0.015
  | Times   39:        0.001       0.000       0.000       0.001       0.001       0.005       0.007       0.015
  | Times   40:        0.001       0.002       0.001       0.001       0.001       0.000       0.008       0.015
  | Times   41:        0.001       0.000       0.000       0.001       0.001       0.004       0.008       0.015
  | Times   42:        0.001       0.002       0.001       0.001       0.001       0.000       0.009       0.015
  | Times   43:        0.001       0.000       0.000       0.001       0.001       0.004       0.008       0.015
  | Times   44:        0.001       0.003       0.001       0.001       0.001       0.001       0.007       0.015
  | Times   45:        0.001       0.000       0.000       0.001       0.001       0.005       0.007       0.015
  | Times   46:        0.001       0.003       0.001       0.001       0.001       0.000       0.008       0.015
  | Times   47:        0.001       0.000       0.000       0.001       0.001       0.005       0.007       0.015
  | Times   48:        0.001       0.003       0.001       0.001       0.001       0.002       0.006       0.015
  | Times   49:        0.001       0.000       0.000       0.001       0.001       0.006       0.006       0.015
  | Times   50:        0.001       0.003       0.001       0.001       0.001       0.000       0.007       0.015
  | Times   51:        0.001       0.000       0.000       0.001       0.001       0.006       0.006       0.015
  | Times   52:        0.001       0.003       0.001       0.001       0.001       0.001       0.006       0.015
  | Times   53:        0.001       0.000       0.000       0.001       0.001       0.006       0.007       0.015
  | Times   54:        0.001       0.003       0.001       0.001       0.001       0.000       0.007       0.015
  | Times   55:        0.001       0.000       0.000       0.001       0.001       0.006       0.007       0.015
  | Times   56:        0.000       0.003       0.002       0.002       0.001       0.001       0.007       0.015
  | Times   57:        0.000       0.000       0.000       0.001       0.001       0.005       0.007       0.015
  | Times   58:        0.000       0.003       0.001       0.002       0.001       0.001       0.007       0.015
  | Times   59:        0.000       0.000       0.000       0.001       0.001       0.005       0.007       0.015
  | Times   60:        0.001       0.003       0.001       0.001       0.001       0.001       0.008       0.015
  | Times   61:        0.000       0.000       0.000       0.001       0.001       0.005       0.008       0.015
  | Times   62:        0.001       0.002       0.001       0.001       0.001       0.000       0.008       0.015
  | Times   63:        0.000       0.000       0.000       0.001       0.001       0.005       0.008       0.015
  | Times  sum:        0.052       0.084       0.038       0.074       0.039       0.171       0.473       0.931

  Decomposition of Other based on code block (only on MPI task 0):
  Times             Block #1    Block #2    Block #3    Block #4    Block #5    Block #6    Block #7    Block #8
  | Times    0:        0.000       0.000       0.000       0.000       0.000       0.000       0.000       0.000

  Times             Block #9   Block #10   Block #11   Block #12   Block #13   Block #14   Block #15   Block #16
  | Times    0:        0.000       0.000       0.000       0.001       0.000       0.004       0.000       0.000

  Times            Block Sum    Expected
  | Times    0:        0.006       0.007
  Time for Fock matrix mixing     0.000

  Updating Kohn-Sham eigenvalues and eigenvectors using ELSI and the ELPA eigensolver.
  Starting ELPA eigensolver
  Finished transformation to standard eigenproblem
  | Time :     0.001 s
  Finished solving standard eigenproblem
  | Time :     0.001 s
  Finished back-transformation of eigenvectors
  | Time :     0.000 s

  Obtaining occupation numbers and electronic chemical potential using ELSI.
  | Note that, for insulating systems, the printed 'chemical potential' value is not uniquely defined.
  | It can be anywhere in the energy gap, as long as it correctly separates occupied and unoccupied states.
  | In systems with a gap, the physically relevant chemical potential is the VBM or HOMO.

  | Chemical potential (Fermi level):    -7.43988256 eV
  Highest occupied state (VBM) at    -10.53255767 eV
  | Occupation number:      2.00000000

  Lowest unoccupied state (CBM) at    -4.34720745 eV
  | Occupation number:      0.00000000

  Overall HOMO-LUMO gap:      6.18535022 eV.

  Total energy components:
  | Sum of eigenvalues            :         -47.67496573 Ha       -1297.30182355 eV
  | XC energy correction          :          -4.50769137 Ha        -122.66052312 eV
  | XC potential correction       :          10.33636193 Ha         281.26671884 eV
  | Free-atom electrostatic energy:         -36.94462506 Ha       -1005.31439784 eV
  | Hartree energy correction     :          -0.65477240 Ha         -17.81726356 eV
  | Entropy correction            :          -0.00000000 Ha          -0.00000000 eV
  | ---------------------------
  | Total energy                  :         -79.44569264 Ha       -2161.82728924 eV
  | Total energy, T -> 0          :         -79.44569264 Ha       -2161.82728924 eV  <-- do not rely on this value for anything but (periodic) metals
  | Electronic free energy        :         -79.44569264 Ha       -2161.82728924 eV

  Derived energy quantities:
  | Kinetic energy                :          78.81979296 Ha        2144.79569249 eV
  | Electrostatic energy          :        -147.61488265 Ha       -4016.80532959 eV
  | Energy correction for multipole
  | error in Hartree potential    :          -0.00071118 Ha          -0.01935219 eV
  | Sum of eigenvalues per atom                           :        -648.65091178 eV
  | Total energy (T->0) per atom                          :       -1080.91364462 eV  <-- do not rely on this value for anything but (periodic) metals
  | Electronic free energy per atom                       :       -1080.91364462 eV
  Evaluating new KS density.
  Integration grid: deviation in total charge (<rho> - N_e) =  -3.552714E-15

  Self-consistency convergence accuracy:
  | Change of charge density      :  0.6145E-04
  | Change of unmixed KS density  :  0.1964E-03
  | Change of sum of eigenvalues  :  0.5374E-02 eV
  | Change of total energy        :  0.8823E-03 eV


------------------------------------------------------------
  End self-consistency iteration #    18       :  max(cpu_time)    wall_clock(cpu1)
  | Time for this iteration                     :        0.273 s           0.268 s
  | Charge density update                       :        0.001 s           0.001 s
  | Density mixing                              :        0.252 s           0.245 s
  | Hartree multipole update                    :        0.001 s           0.001 s
  | Hartree multipole summation                 :        0.002 s           0.002 s
  | Integration                                 :        0.003 s           0.002 s
  | Fock matrix evaluation                      :        0.015 s           0.015 s
  | Solution of K.-S. eqns.                     :        0.001 s           0.002 s
  | Total energy evaluation                     :        0.000 s           0.000 s

  Partial memory accounting:
  | Current value for overall tracked memory usage:
  |   Minimum:        4.321 MB (on task 21)
  |   Maximum:        4.426 MB (on task 58)
  |   Average:        4.362 MB
  | Peak value for overall tracked memory usage:
  |   Minimum:        5.098 MB (on task 21 after allocating wave)
  |   Maximum:        8.621 MB (on task 32 after allocating ovlp3fn_nosplit%tmploc)
  |   Average:        5.356 MB
  | Largest tracked array allocation so far:
  |   Minimum:        3.876 MB (ovlp3fn2%dat on task  0)
  |   Maximum:        3.911 MB (ovlp3fn2%dat on task  2)
  |   Average:        3.894 MB
  Note:  These values currently only include a subset of arrays which are explicitly tracked.
  The "true" memory usage will be greater.
------------------------------------------------------------

------------------------------------------------------------
          Begin self-consistency iteration #   19

  Date     :  20260717, Time     :  150640.195
------------------------------------------------------------
  Pulay mixing of updated and previous charge densities.
  Available memory per node after mixing [GB]:    999.13
  Renormalizing the density to the exact electron count on the 3D integration grid.
  | Formal number of electrons (from input files) :      12.0000000000
  | Integrated number of electrons on 3D grid     :      12.0000000000
  | Charge integration error                      :      -0.0000000000
  | Normalization factor for density and gradient :       1.0000000000

  Evaluating partitioned Hartree potential by multipole expansion.
  | Original multipole sum: apparent total charge =   0.324690E-14
  | Sum of charges compensated after spline to logarithmic grids =  -0.207564E-07
  | Analytical far-field extrapolation by fixed multipoles:
  | Hartree multipole sum: apparent total charge =   0.388644E-14
  Summing up the Hartree potential.
  Time summed over all CPUs for potential: real work        0.001 s, elapsed        0.001 s
  | RMS charge density error from multipole expansion :   0.163123E-02

  Integrating Hamiltonian matrix: batch-based integration.
  Time summed over all CPUs for integration: real work        0.128 s, elapsed        0.154 s
  Calculating non-local Hartree-Fock exchange by two-center RI (RI-LVL).
  screening_threshold (crit_val) =  0.000000100000
  Exact exchange progress report - outermost block loop i_block: 1 ..       5
  |        1         2         3         4         5  
 Total ovlp3fn data transfer [GB]   2.0888399740215391E-003
  Average sparsity of tmp1/2 0.50000000
  Average sparsity of fock_matrix_row 0.01282051
  Full exact exchange energy: weighted long- and short-range EXX     83.578507402039 eV.
  Times            DM_x_o3fn   CM_prod_1   CM_prod_2   tmp2_prod        Sync   Imbalance       Other  Total calc
  | Times    0:        0.001       0.003       0.001       0.001       0.001       0.000       0.007       0.014
  | Times    1:        0.001       0.000       0.000       0.001       0.001       0.005       0.006       0.014
  | Times    2:        0.002       0.003       0.001       0.001       0.001       0.001       0.006       0.014
  | Times    3:        0.001       0.000       0.000       0.001       0.001       0.005       0.006       0.014
  | Times    4:        0.001       0.002       0.001       0.001       0.001       0.000       0.008       0.014
  | Times    5:        0.001       0.000       0.000       0.001       0.001       0.004       0.008       0.014
  | Times    6:        0.001       0.002       0.001       0.001       0.001       0.001       0.008       0.014
  | Times    7:        0.001       0.000       0.000       0.001       0.001       0.004       0.008       0.014
  | Times    8:        0.001       0.003       0.001       0.001       0.001       0.000       0.007       0.014
  | Times    9:        0.001       0.000       0.000       0.001       0.001       0.005       0.007       0.014
  | Times   10:        0.001       0.003       0.001       0.001       0.001       0.001       0.007       0.014
  | Times   11:        0.001       0.000       0.000       0.001       0.001       0.005       0.007       0.014
  | Times   12:        0.001       0.003       0.001       0.001       0.001       0.000       0.007       0.014
  | Times   13:        0.001       0.000       0.000       0.001       0.001       0.005       0.007       0.014
  | Times   14:        0.001       0.002       0.001       0.002       0.001       0.001       0.007       0.014
  | Times   15:        0.001       0.000       0.000       0.001       0.001       0.005       0.007       0.014
  | Times   16:        0.001       0.003       0.001       0.001       0.001       0.000       0.007       0.014
  | Times   17:        0.001       0.000       0.000       0.001       0.001       0.005       0.007       0.014
  | Times   18:        0.001       0.002       0.001       0.002       0.001       0.001       0.007       0.014
  | Times   19:        0.001       0.000       0.000       0.001       0.001       0.005       0.007       0.014
  | Times   20:        0.001       0.003       0.001       0.001       0.001       0.000       0.008       0.014
  | Times   21:        0.001       0.000       0.000       0.001       0.001       0.005       0.007       0.014
  | Times   22:        0.001       0.003       0.001       0.001       0.001       0.001       0.007       0.014
  | Times   23:        0.001       0.000       0.000       0.001       0.001       0.005       0.007       0.014
  | Times   24:        0.000       0.003       0.001       0.001       0.001       0.000       0.008       0.014
  | Times   25:        0.000       0.000       0.000       0.001       0.001       0.004       0.008       0.014
  | Times   26:        0.000       0.003       0.001       0.001       0.001       0.001       0.008       0.014
  | Times   27:        0.000       0.000       0.000       0.001       0.001       0.004       0.008       0.014
  | Times   28:        0.001       0.003       0.001       0.002       0.001       0.000       0.006       0.014
  | Times   29:        0.001       0.000       0.000       0.001       0.001       0.005       0.006       0.014
  | Times   30:        0.001       0.003       0.001       0.002       0.001       0.001       0.006       0.014
  | Times   31:        0.001       0.000       0.000       0.001       0.001       0.005       0.006       0.014
  | Times   32:        0.001       0.002       0.001       0.001       0.001       0.000       0.007       0.014
  | Times   33:        0.001       0.000       0.000       0.001       0.001       0.004       0.008       0.014
  | Times   34:        0.001       0.002       0.001       0.001       0.001       0.000       0.008       0.014
  | Times   35:        0.001       0.000       0.000       0.001       0.001       0.004       0.008       0.014
  | Times   36:        0.001       0.003       0.001       0.001       0.001       0.001       0.006       0.014
  | Times   37:        0.001       0.000       0.000       0.001       0.001       0.005       0.006       0.014
  | Times   38:        0.001       0.003       0.001       0.001       0.001       0.001       0.007       0.014
  | Times   39:        0.001       0.000       0.000       0.001       0.001       0.005       0.006       0.014
  | Times   40:        0.001       0.003       0.001       0.001       0.001       0.001       0.006       0.014
  | Times   41:        0.001       0.000       0.000       0.001       0.001       0.005       0.007       0.014
  | Times   42:        0.001       0.003       0.001       0.001       0.001       0.001       0.007       0.014
  | Times   43:        0.001       0.000       0.000       0.001       0.001       0.005       0.007       0.014
  | Times   44:        0.001       0.003       0.001       0.001       0.001       0.001       0.007       0.014
  | Times   45:        0.001       0.000       0.000       0.001       0.001       0.005       0.007       0.014
  | Times   46:        0.001       0.002       0.001       0.001       0.001       0.000       0.007       0.014
  | Times   47:        0.001       0.000       0.000       0.001       0.001       0.005       0.007       0.014
  | Times   48:        0.001       0.002       0.001       0.001       0.000       0.000       0.008       0.014
  | Times   49:        0.001       0.000       0.000       0.001       0.000       0.004       0.009       0.014
  | Times   50:        0.001       0.002       0.001       0.001       0.000       0.000       0.009       0.014
  | Times   51:        0.001       0.000       0.000       0.001       0.000       0.004       0.009       0.014
  | Times   52:        0.001       0.002       0.001       0.001       0.001       0.000       0.008       0.014
  | Times   53:        0.001       0.000       0.000       0.001       0.001       0.004       0.009       0.014
  | Times   54:        0.001       0.002       0.001       0.001       0.001       0.000       0.009       0.014
  | Times   55:        0.001       0.000       0.000       0.001       0.001       0.004       0.009       0.014
  | Times   56:        0.000       0.003       0.002       0.002       0.001       0.001       0.007       0.014
  | Times   57:        0.000       0.000       0.000       0.001       0.001       0.005       0.007       0.014
  | Times   58:        0.000       0.003       0.001       0.002       0.001       0.001       0.007       0.014
  | Times   59:        0.000       0.000       0.000       0.001       0.001       0.005       0.007       0.014
  | Times   60:        0.001       0.003       0.001       0.001       0.001       0.001       0.007       0.014
  | Times   61:        0.001       0.000       0.000       0.001       0.001       0.005       0.007       0.014
  | Times   62:        0.001       0.002       0.001       0.001       0.001       0.001       0.008       0.014
  | Times   63:        0.001       0.000       0.000       0.001       0.001       0.005       0.007       0.014
  | Times  sum:        0.057       0.082       0.037       0.076       0.040       0.164       0.464       0.921

  Decomposition of Other based on code block (only on MPI task 0):
  Times             Block #1    Block #2    Block #3    Block #4    Block #5    Block #6    Block #7    Block #8
  | Times    0:        0.000       0.000       0.000       0.000       0.000       0.000       0.000       0.000

  Times             Block #9   Block #10   Block #11   Block #12   Block #13   Block #14   Block #15   Block #16
  | Times    0:        0.000       0.000       0.000       0.001       0.000       0.004       0.000       0.000

  Times            Block Sum    Expected
  | Times    0:        0.006       0.007
  Time for Fock matrix mixing     0.000

  Updating Kohn-Sham eigenvalues and eigenvectors using ELSI and the ELPA eigensolver.
  Starting ELPA eigensolver
  Finished transformation to standard eigenproblem
  | Time :     0.001 s
  Finished solving standard eigenproblem
  | Time :     0.001 s
  Finished back-transformation of eigenvectors
  | Time :     0.000 s

  Obtaining occupation numbers and electronic chemical potential using ELSI.
  | Note that, for insulating systems, the printed 'chemical potential' value is not uniquely defined.
  | It can be anywhere in the energy gap, as long as it correctly separates occupied and unoccupied states.
  | In systems with a gap, the physically relevant chemical potential is the VBM or HOMO.

  | Chemical potential (Fermi level):    -7.43988398 eV
  Highest occupied state (VBM) at    -10.53258254 eV
  | Occupation number:      2.00000000

  Lowest unoccupied state (CBM) at    -4.34718543 eV
  | Occupation number:      0.00000000

  Overall HOMO-LUMO gap:      6.18539711 eV.

  Total energy components:
  | Sum of eigenvalues            :         -47.67497539 Ha       -1297.30208634 eV
  | XC energy correction          :          -4.50769193 Ha        -122.66053832 eV
  | XC potential correction       :          10.33636309 Ha         281.26675025 eV
  | Free-atom electrostatic energy:         -36.94462506 Ha       -1005.31439784 eV
  | Hartree energy correction     :          -0.65476320 Ha         -17.81701329 eV
  | Entropy correction            :          -0.00000000 Ha          -0.00000000 eV
  | ---------------------------
  | Total energy                  :         -79.44569250 Ha       -2161.82728554 eV
  | Total energy, T -> 0          :         -79.44569250 Ha       -2161.82728554 eV  <-- do not rely on this value for anything but (periodic) metals
  | Electronic free energy        :         -79.44569250 Ha       -2161.82728554 eV

  Derived energy quantities:
  | Kinetic energy                :          78.81980663 Ha        2144.79606438 eV
  | Electrostatic energy          :        -147.61489494 Ha       -4016.80566426 eV
  | Energy correction for multipole
  | error in Hartree potential    :          -0.00071121 Ha          -0.01935302 eV
  | Sum of eigenvalues per atom                           :        -648.65104317 eV
  | Total energy (T->0) per atom                          :       -1080.91364277 eV  <-- do not rely on this value for anything but (periodic) metals
  | Electronic free energy per atom                       :       -1080.91364277 eV
  Evaluating new KS density.
  Integration grid: deviation in total charge (<rho> - N_e) =  -3.552714E-15

  Self-consistency convergence accuracy:
  | Change of charge density      :  0.7641E-05
  | Change of unmixed KS density  :  0.4081E-04
  | Change of sum of eigenvalues  : -0.2628E-03 eV
  | Change of total energy        :  0.3696E-05 eV


------------------------------------------------------------
  End self-consistency iteration #    19       :  max(cpu_time)    wall_clock(cpu1)
  | Time for this iteration                     :        0.338 s           0.169 s
  | Charge density update                       :        0.001 s           0.001 s
  | Density mixing                              :        0.314 s           0.146 s
  | Hartree multipole update                    :        0.001 s           0.001 s
  | Hartree multipole summation                 :        0.002 s           0.002 s
  | Integration                                 :        0.003 s           0.002 s
  | Fock matrix evaluation                      :        0.015 s           0.015 s
  | Solution of K.-S. eqns.                     :        0.002 s           0.002 s
  | Total energy evaluation                     :        0.000 s           0.000 s

  Partial memory accounting:
  | Current value for overall tracked memory usage:
  |   Minimum:        4.321 MB (on task 21)
  |   Maximum:        4.426 MB (on task 58)
  |   Average:        4.362 MB
  | Peak value for overall tracked memory usage:
  |   Minimum:        5.098 MB (on task 21 after allocating wave)
  |   Maximum:        8.621 MB (on task 32 after allocating ovlp3fn_nosplit%tmploc)
  |   Average:        5.356 MB
  | Largest tracked array allocation so far:
  |   Minimum:        3.876 MB (ovlp3fn2%dat on task  0)
  |   Maximum:        3.911 MB (ovlp3fn2%dat on task  2)
  |   Average:        3.894 MB
  Note:  These values currently only include a subset of arrays which are explicitly tracked.
  The "true" memory usage will be greater.
------------------------------------------------------------

------------------------------------------------------------
          Begin self-consistency iteration #   20

  Date     :  20260717, Time     :  150640.462
------------------------------------------------------------
  Pulay mixing of updated and previous charge densities.
  Available memory per node after mixing [GB]:    999.13
  Renormalizing the density to the exact electron count on the 3D integration grid.
  | Formal number of electrons (from input files) :      12.0000000000
  | Integrated number of electrons on 3D grid     :      12.0000000000
  | Charge integration error                      :      -0.0000000000
  | Normalization factor for density and gradient :       1.0000000000

  Evaluating partitioned Hartree potential by multipole expansion.
  | Original multipole sum: apparent total charge =  -0.118069E-14
  | Sum of charges compensated after spline to logarithmic grids =  -0.208343E-07
  | Analytical far-field extrapolation by fixed multipoles:
  | Hartree multipole sum: apparent total charge =  -0.231219E-14
  Summing up the Hartree potential.
  Time summed over all CPUs for potential: real work        0.001 s, elapsed        0.001 s
  | RMS charge density error from multipole expansion :   0.163117E-02

  Integrating Hamiltonian matrix: batch-based integration.
  Time summed over all CPUs for integration: real work        0.126 s, elapsed        0.147 s
  Calculating non-local Hartree-Fock exchange by two-center RI (RI-LVL).
  screening_threshold (crit_val) =  0.000000100000
  Exact exchange progress report - outermost block loop i_block: 1 ..       5
  |        1         2         3         4         5  
 Total ovlp3fn data transfer [GB]   2.0888399740215391E-003
  Average sparsity of tmp1/2 0.50000000
  Average sparsity of fock_matrix_row 0.01282051
  Full exact exchange energy: weighted long- and short-range EXX     83.578520301747 eV.
  Times            DM_x_o3fn   CM_prod_1   CM_prod_2   tmp2_prod        Sync   Imbalance       Other  Total calc
  | Times    0:        0.001       0.004       0.002       0.001       0.001       0.000       0.006       0.015
  | Times    1:        0.001       0.000       0.000       0.001       0.001       0.006       0.006       0.015
  | Times    2:        0.002       0.003       0.002       0.001       0.001       0.001       0.006       0.015
  | Times    3:        0.001       0.000       0.000       0.001       0.001       0.006       0.006       0.015
  | Times    4:        0.001       0.002       0.001       0.001       0.001       0.000       0.009       0.015
  | Times    5:        0.001       0.000       0.000       0.001       0.001       0.004       0.009       0.015
  | Times    6:        0.001       0.002       0.001       0.001       0.001       0.001       0.008       0.015
  | Times    7:        0.001       0.000       0.000       0.001       0.001       0.004       0.009       0.015
  | Times    8:        0.001       0.003       0.001       0.001       0.001       0.000       0.008       0.015
  | Times    9:        0.001       0.000       0.000       0.001       0.001       0.005       0.008       0.015
  | Times   10:        0.001       0.003       0.001       0.001       0.001       0.001       0.007       0.015
  | Times   11:        0.001       0.000       0.000       0.001       0.001       0.005       0.007       0.015
  | Times   12:        0.001       0.003       0.001       0.001       0.001       0.000       0.008       0.015
  | Times   13:        0.001       0.000       0.000       0.001       0.001       0.005       0.008       0.015
  | Times   14:        0.001       0.002       0.001       0.001       0.001       0.001       0.008       0.015
  | Times   15:        0.001       0.000       0.000       0.001       0.001       0.005       0.008       0.015
  | Times   16:        0.001       0.003       0.001       0.001       0.001       0.000       0.008       0.015
  | Times   17:        0.001       0.000       0.000       0.001       0.001       0.005       0.008       0.015
  | Times   18:        0.001       0.003       0.001       0.001       0.001       0.001       0.008       0.015
  | Times   19:        0.001       0.000       0.000       0.001       0.001       0.005       0.008       0.015
  | Times   20:        0.001       0.004       0.002       0.001       0.001       0.001       0.007       0.015
  | Times   21:        0.001       0.000       0.000       0.001       0.001       0.006       0.007       0.015
  | Times   22:        0.001       0.003       0.001       0.001       0.001       0.002       0.006       0.015
  | Times   23:        0.001       0.000       0.000       0.001       0.001       0.006       0.007       0.015
  | Times   24:        0.000       0.003       0.001       0.001       0.001       0.000       0.009       0.015
  | Times   25:        0.000       0.000       0.000       0.001       0.001       0.004       0.009       0.015
  | Times   26:        0.000       0.002       0.001       0.001       0.001       0.001       0.009       0.015
  | Times   27:        0.000       0.000       0.000       0.001       0.001       0.004       0.009       0.015
  | Times   28:        0.001       0.003       0.001       0.002       0.001       0.000       0.007       0.015
  | Times   29:        0.001       0.000       0.000       0.001       0.001       0.005       0.007       0.015
  | Times   30:        0.001       0.003       0.001       0.002       0.001       0.001       0.007       0.015
  | Times   31:        0.001       0.000       0.000       0.001       0.001       0.005       0.007       0.015
  | Times   32:        0.001       0.002       0.001       0.001       0.001       0.000       0.009       0.015
  | Times   33:        0.001       0.000       0.000       0.001       0.001       0.004       0.009       0.015
  | Times   34:        0.001       0.002       0.001       0.001       0.001       0.000       0.009       0.015
  | Times   35:        0.001       0.000       0.000       0.001       0.001       0.004       0.009       0.015
  | Times   36:        0.001       0.002       0.001       0.001       0.001       0.000       0.009       0.015
  | Times   37:        0.001       0.000       0.000       0.001       0.001       0.004       0.009       0.015
  | Times   38:        0.001       0.002       0.001       0.001       0.001       0.000       0.009       0.015
  | Times   39:        0.001       0.000       0.000       0.001       0.001       0.004       0.009       0.015
  | Times   40:        0.001       0.003       0.001       0.001       0.001       0.001       0.007       0.015
  | Times   41:        0.001       0.000       0.000       0.001       0.001       0.006       0.007       0.015
  | Times   42:        0.001       0.003       0.001       0.001       0.001       0.001       0.007       0.015
  | Times   43:        0.001       0.000       0.000       0.001       0.001       0.006       0.007       0.015
  | Times   44:        0.001       0.003       0.001       0.001       0.001       0.002       0.007       0.015
  | Times   45:        0.001       0.000       0.000       0.001       0.001       0.006       0.007       0.015
  | Times   46:        0.001       0.003       0.001       0.001       0.001       0.000       0.007       0.015
  | Times   47:        0.001       0.000       0.000       0.001       0.001       0.006       0.007       0.015
  | Times   48:        0.001       0.002       0.001       0.001       0.001       0.001       0.008       0.015
  | Times   49:        0.001       0.000       0.000       0.001       0.001       0.005       0.008       0.015
  | Times   50:        0.001       0.003       0.001       0.001       0.001       0.000       0.008       0.015
  | Times   51:        0.001       0.000       0.000       0.001       0.001       0.005       0.008       0.015
  | Times   52:        0.001       0.003       0.002       0.001       0.001       0.001       0.007       0.015
  | Times   53:        0.000       0.000       0.000       0.001       0.001       0.005       0.008       0.015
  | Times   54:        0.001       0.003       0.001       0.001       0.001       0.001       0.008       0.015
  | Times   55:        0.000       0.000       0.000       0.001       0.001       0.005       0.008       0.015
  | Times   56:        0.000       0.003       0.001       0.001       0.000       0.001       0.009       0.015
  | Times   57:        0.000       0.000       0.000       0.001       0.001       0.005       0.009       0.015
  | Times   58:        0.000       0.002       0.001       0.001       0.000       0.001       0.009       0.015
  | Times   59:        0.000       0.000       0.000       0.001       0.000       0.005       0.009       0.015
  | Times   60:        0.001       0.003       0.001       0.001       0.001       0.002       0.007       0.015
  | Times   61:        0.001       0.000       0.000       0.001       0.001       0.006       0.007       0.015
  | Times   62:        0.001       0.003       0.001       0.001       0.001       0.000       0.008       0.015
  | Times   63:        0.001       0.000       0.000       0.001       0.001       0.005       0.007       0.015
  | Times  sum:        0.056       0.087       0.040       0.075       0.040       0.180       0.496       0.973

  Decomposition of Other based on code block (only on MPI task 0):
  Times             Block #1    Block #2    Block #3    Block #4    Block #5    Block #6    Block #7    Block #8
  | Times    0:        0.000       0.000       0.000       0.000       0.000       0.000       0.000       0.000

  Times             Block #9   Block #10   Block #11   Block #12   Block #13   Block #14   Block #15   Block #16
  | Times    0:        0.000       0.000       0.000       0.001       0.000       0.004       0.000       0.000

  Times            Block Sum    Expected
  | Times    0:        0.006       0.006
  Time for Fock matrix mixing     0.000

  Updating Kohn-Sham eigenvalues and eigenvectors using ELSI and the ELPA eigensolver.
  Starting ELPA eigensolver
  Finished transformation to standard eigenproblem
  | Time :     0.000 s
  Finished solving standard eigenproblem
  | Time :     0.002 s
  Finished back-transformation of eigenvectors
  | Time :     0.000 s

  Obtaining occupation numbers and electronic chemical potential using ELSI.
  | Note that, for insulating systems, the printed 'chemical potential' value is not uniquely defined.
  | It can be anywhere in the energy gap, as long as it correctly separates occupied and unoccupied states.
  | In systems with a gap, the physically relevant chemical potential is the VBM or HOMO.

  | Chemical potential (Fermi level):    -7.43986313 eV
  Highest occupied state (VBM) at    -10.53260010 eV
  | Occupation number:      2.00000000

  Lowest unoccupied state (CBM) at    -4.34712615 eV
  | Occupation number:      0.00000000

  Overall HOMO-LUMO gap:      6.18547395 eV.

  Total energy components:
  | Sum of eigenvalues            :         -47.67499574 Ha       -1297.30264009 eV
  | XC energy correction          :          -4.50769443 Ha        -122.66060641 eV
  | XC potential correction       :          10.33636288 Ha         281.26674458 eV
  | Free-atom electrostatic energy:         -36.94462506 Ha       -1005.31439784 eV
  | Hartree energy correction     :          -0.65473805 Ha         -17.81632882 eV
  | Entropy correction            :          -0.00000000 Ha          -0.00000000 eV
  | ---------------------------
  | Total energy                  :         -79.44569041 Ha       -2161.82722858 eV
  | Total energy, T -> 0          :         -79.44569041 Ha       -2161.82722858 eV  <-- do not rely on this value for anything but (periodic) metals
  | Electronic free energy        :         -79.44569041 Ha       -2161.82722858 eV

  Derived energy quantities:
  | Kinetic energy                :          78.81984481 Ha        2144.79710337 eV
  | Electrostatic energy          :        -147.61493352 Ha       -4016.80671408 eV
  | Energy correction for multipole
  | error in Hartree potential    :          -0.00071117 Ha          -0.01935197 eV
  | Sum of eigenvalues per atom                           :        -648.65132004 eV
  | Total energy (T->0) per atom                          :       -1080.91361429 eV  <-- do not rely on this value for anything but (periodic) metals
  | Electronic free energy per atom                       :       -1080.91361429 eV
  Evaluating new KS density.
  Integration grid: deviation in total charge (<rho> - N_e) =  -1.776357E-15

  Self-consistency convergence accuracy:
  | Change of charge density      :  0.6245E-05
  | Change of unmixed KS density  :  0.8301E-05
  | Change of sum of eigenvalues  : -0.5537E-03 eV
  | Change of total energy        :  0.5696E-04 eV


------------------------------------------------------------
  End self-consistency iteration #    20       :  max(cpu_time)    wall_clock(cpu1)
  | Time for this iteration                     :        0.278 s           0.199 s
  | Charge density update                       :        0.001 s           0.001 s
  | Density mixing                              :        0.258 s           0.175 s
  | Hartree multipole update                    :        0.001 s           0.001 s
  | Hartree multipole summation                 :        0.002 s           0.002 s
  | Integration                                 :        0.003 s           0.002 s
  | Fock matrix evaluation                      :        0.016 s           0.016 s
  | Solution of K.-S. eqns.                     :        0.002 s           0.002 s
  | Total energy evaluation                     :        0.000 s           0.000 s

  Partial memory accounting:
  | Current value for overall tracked memory usage:
  |   Minimum:        4.321 MB (on task 21)
  |   Maximum:        4.426 MB (on task 58)
  |   Average:        4.362 MB
  | Peak value for overall tracked memory usage:
  |   Minimum:        5.098 MB (on task 21 after allocating wave)
  |   Maximum:        8.621 MB (on task 32 after allocating ovlp3fn_nosplit%tmploc)
  |   Average:        5.356 MB
  | Largest tracked array allocation so far:
  |   Minimum:        3.876 MB (ovlp3fn2%dat on task  0)
  |   Maximum:        3.911 MB (ovlp3fn2%dat on task  2)
  |   Average:        3.894 MB
  Note:  These values currently only include a subset of arrays which are explicitly tracked.
  The "true" memory usage will be greater.
------------------------------------------------------------

------------------------------------------------------------
          Begin self-consistency iteration #   21

  Date     :  20260717, Time     :  150640.720
------------------------------------------------------------
  Pulay mixing of updated and previous charge densities.
  Available memory per node after mixing [GB]:    999.13
  Renormalizing the density to the exact electron count on the 3D integration grid.
  | Formal number of electrons (from input files) :      12.0000000000
  | Integrated number of electrons on 3D grid     :      12.0000000000
  | Charge integration error                      :       0.0000000000
  | Normalization factor for density and gradient :       1.0000000000

  Evaluating partitioned Hartree potential by multipole expansion.
  | Original multipole sum: apparent total charge =   0.373886E-14
  | Sum of charges compensated after spline to logarithmic grids =  -0.208354E-07
  | Analytical far-field extrapolation by fixed multipoles:
  | Hartree multipole sum: apparent total charge =   0.152506E-14
  Summing up the Hartree potential.
  Time summed over all CPUs for potential: real work        0.001 s, elapsed        0.001 s
  | RMS charge density error from multipole expansion :   0.163117E-02

  Integrating Hamiltonian matrix: batch-based integration.
  Time summed over all CPUs for integration: real work        0.127 s, elapsed        0.145 s
  Calculating non-local Hartree-Fock exchange by two-center RI (RI-LVL).
  screening_threshold (crit_val) =  0.000000100000
  Exact exchange progress report - outermost block loop i_block: 1 ..       5
  |        1         2         3         4         5  
 Total ovlp3fn data transfer [GB]   2.0888399740215391E-003
  Average sparsity of tmp1/2 0.50000000
  Average sparsity of fock_matrix_row 0.01282051
  Full exact exchange energy: weighted long- and short-range EXX     83.578509294170 eV.
  Times            DM_x_o3fn   CM_prod_1   CM_prod_2   tmp2_prod        Sync   Imbalance       Other  Total calc
  | Times    0:        0.001       0.004       0.002       0.001       0.001       0.001       0.006       0.015
  | Times    1:        0.001       0.000       0.000       0.001       0.001       0.007       0.005       0.015
  | Times    2:        0.001       0.004       0.001       0.001       0.001       0.002       0.005       0.015
  | Times    3:        0.001       0.000       0.000       0.001       0.001       0.007       0.005       0.015
  | Times    4:        0.001       0.002       0.001       0.001       0.001       0.000       0.009       0.015
  | Times    5:        0.001       0.000       0.000       0.001       0.001       0.004       0.009       0.015
  | Times    6:        0.001       0.002       0.001       0.001       0.001       0.000       0.009       0.015
  | Times    7:        0.001       0.000       0.000       0.001       0.001       0.004       0.009       0.015
  | Times    8:        0.001       0.003       0.001       0.001       0.001       0.000       0.008       0.015
  | Times    9:        0.001       0.000       0.000       0.001       0.001       0.004       0.008       0.015
  | Times   10:        0.001       0.002       0.001       0.001       0.001       0.001       0.008       0.015
  | Times   11:        0.001       0.000       0.000       0.001       0.001       0.004       0.008       0.015
  | Times   12:        0.001       0.003       0.002       0.001       0.001       0.000       0.007       0.015
  | Times   13:        0.001       0.000       0.000       0.001       0.001       0.006       0.007       0.015
  | Times   14:        0.001       0.003       0.001       0.001       0.001       0.001       0.007       0.015
  | Times   15:        0.001       0.000       0.000       0.001       0.001       0.006       0.007       0.015
  | Times   16:        0.001       0.002       0.001       0.001       0.001       0.000       0.008       0.015
  | Times   17:        0.001       0.000       0.000       0.001       0.001       0.005       0.008       0.015
  | Times   18:        0.001       0.002       0.001       0.001       0.001       0.001       0.008       0.015
  | Times   19:        0.001       0.000       0.000       0.001       0.001       0.005       0.008       0.015
  | Times   20:        0.001       0.003       0.002       0.001       0.001       0.000       0.007       0.015
  | Times   21:        0.001       0.000       0.000       0.001       0.001       0.006       0.007       0.015
  | Times   22:        0.001       0.003       0.001       0.001       0.001       0.002       0.007       0.015
  | Times   23:        0.001       0.000       0.000       0.001       0.001       0.006       0.007       0.015
  | Times   24:        0.000       0.003       0.001       0.001       0.001       0.000       0.009       0.015
  | Times   25:        0.000       0.000       0.000       0.001       0.001       0.004       0.009       0.015
  | Times   26:        0.000       0.002       0.001       0.001       0.001       0.001       0.009       0.015
  | Times   27:        0.000       0.000       0.000       0.001       0.001       0.004       0.009       0.015
  | Times   28:        0.001       0.003       0.001       0.001       0.001       0.000       0.009       0.015
  | Times   29:        0.001       0.000       0.000       0.001       0.001       0.004       0.009       0.015
  | Times   30:        0.001       0.002       0.001       0.001       0.001       0.001       0.008       0.015
  | Times   31:        0.001       0.000       0.000       0.001       0.001       0.004       0.009       0.015
  | Times   32:        0.001       0.003       0.001       0.001       0.001       0.001       0.007       0.015
  | Times   33:        0.001       0.000       0.000       0.001       0.001       0.005       0.007       0.015
  | Times   34:        0.001       0.003       0.001       0.001       0.001       0.000       0.008       0.015
  | Times   35:        0.001       0.000       0.000       0.001       0.001       0.005       0.007       0.015
  | Times   36:        0.001       0.003       0.001       0.001       0.001       0.001       0.007       0.015
  | Times   37:        0.001       0.000       0.000       0.001       0.001       0.005       0.008       0.015
  | Times   38:        0.001       0.003       0.001       0.001       0.001       0.000       0.008       0.015
  | Times   39:        0.001       0.000       0.000       0.001       0.001       0.005       0.008       0.015
  | Times   40:        0.001       0.002       0.001       0.001       0.001       0.000       0.009       0.015
  | Times   41:        0.001       0.000       0.000       0.001       0.001       0.004       0.009       0.015
  | Times   42:        0.001       0.002       0.001       0.001       0.001       0.000       0.010       0.015
  | Times   43:        0.001       0.000       0.000       0.001       0.001       0.004       0.009       0.015
  | Times   44:        0.001       0.003       0.001       0.001       0.001       0.001       0.008       0.015
  | Times   45:        0.001       0.000       0.000       0.001       0.001       0.005       0.008       0.015
  | Times   46:        0.001       0.003       0.001       0.001       0.001       0.001       0.008       0.015
  | Times   47:        0.001       0.000       0.000       0.001       0.001       0.005       0.008       0.015
  | Times   48:        0.001       0.002       0.001       0.001       0.001       0.000       0.009       0.015
  | Times   49:        0.001       0.000       0.000       0.001       0.001       0.004       0.009       0.015
  | Times   50:        0.001       0.002       0.001       0.001       0.001       0.001       0.009       0.015
  | Times   51:        0.001       0.000       0.000       0.001       0.001       0.004       0.009       0.015
  | Times   52:        0.001       0.003       0.002       0.001       0.001       0.001       0.007       0.015
  | Times   53:        0.001       0.000       0.000       0.001       0.001       0.005       0.008       0.015
  | Times   54:        0.001       0.003       0.001       0.001       0.001       0.001       0.008       0.015
  | Times   55:        0.001       0.000       0.000       0.001       0.001       0.005       0.008       0.015
  | Times   56:        0.001       0.003       0.002       0.002       0.001       0.001       0.007       0.015
  | Times   57:        0.000       0.000       0.000       0.001       0.001       0.005       0.008       0.015
  | Times   58:        0.001       0.003       0.001       0.001       0.001       0.001       0.008       0.015
  | Times   59:        0.000       0.000       0.000       0.001       0.001       0.005       0.008       0.015
  | Times   60:        0.000       0.002       0.001       0.001       0.000       0.000       0.010       0.015
  | Times   61:        0.000       0.000       0.000       0.001       0.000       0.004       0.010       0.015
  | Times   62:        0.000       0.002       0.001       0.001       0.000       0.000       0.010       0.015
  | Times   63:        0.000       0.000       0.000       0.001       0.000       0.004       0.010       0.015
  | Times  sum:        0.055       0.085       0.038       0.073       0.039       0.173       0.521       0.984

  Decomposition of Other based on code block (only on MPI task 0):
  Times             Block #1    Block #2    Block #3    Block #4    Block #5    Block #6    Block #7    Block #8
  | Times    0:        0.000       0.000       0.000       0.000       0.000       0.000       0.000       0.000

  Times             Block #9   Block #10   Block #11   Block #12   Block #13   Block #14   Block #15   Block #16
  | Times    0:        0.000       0.000       0.000       0.001       0.000       0.003       0.000       0.000

  Times            Block Sum    Expected
  | Times    0:        0.005       0.006
  Time for Fock matrix mixing     0.000

  Updating Kohn-Sham eigenvalues and eigenvectors using ELSI and the ELPA eigensolver.
  Starting ELPA eigensolver
  Finished transformation to standard eigenproblem
  | Time :     0.000 s
  Finished solving standard eigenproblem
  | Time :     0.001 s
  Finished back-transformation of eigenvectors
  | Time :     0.000 s

  Obtaining occupation numbers and electronic chemical potential using ELSI.
  | Note that, for insulating systems, the printed 'chemical potential' value is not uniquely defined.
  | It can be anywhere in the energy gap, as long as it correctly separates occupied and unoccupied states.
  | In systems with a gap, the physically relevant chemical potential is the VBM or HOMO.

  | Chemical potential (Fermi level):    -7.43986240 eV
  Highest occupied state (VBM) at    -10.53259917 eV
  | Occupation number:      2.00000000

  Lowest unoccupied state (CBM) at    -4.34712563 eV
  | Occupation number:      0.00000000

  Overall HOMO-LUMO gap:      6.18547354 eV.

  Total energy components:
  | Sum of eigenvalues            :         -47.67499697 Ha       -1297.30267372 eV
  | XC energy correction          :          -4.50769437 Ha        -122.66060462 eV
  | XC potential correction       :          10.33636272 Ha         281.26674024 eV
  | Free-atom electrostatic energy:         -36.94462506 Ha       -1005.31439784 eV
  | Hartree energy correction     :          -0.65473672 Ha         -17.81629275 eV
  | Entropy correction            :          -0.00000000 Ha          -0.00000000 eV
  | ---------------------------
  | Total energy                  :         -79.44569041 Ha       -2161.82722870 eV
  | Total energy, T -> 0          :         -79.44569041 Ha       -2161.82722870 eV  <-- do not rely on this value for anything but (periodic) metals
  | Electronic free energy        :         -79.44569041 Ha       -2161.82722870 eV

  Derived energy quantities:
  | Kinetic energy                :          78.81984366 Ha        2144.79707207 eV
  | Electrostatic energy          :        -147.61493254 Ha       -4016.80668720 eV
  | Energy correction for multipole
  | error in Hartree potential    :          -0.00071117 Ha          -0.01935195 eV
  | Sum of eigenvalues per atom                           :        -648.65133686 eV
  | Total energy (T->0) per atom                          :       -1080.91361435 eV  <-- do not rely on this value for anything but (periodic) metals
  | Electronic free energy per atom                       :       -1080.91361435 eV
  Evaluating new KS density.
  Integration grid: deviation in total charge (<rho> - N_e) =   8.881784E-15

  Self-consistency convergence accuracy:
  | Change of charge density      :  0.2354E-05
  | Change of unmixed KS density  :  0.7063E-05
  | Change of sum of eigenvalues  : -0.3364E-04 eV
  | Change of total energy        : -0.1208E-06 eV


------------------------------------------------------------
  End self-consistency iteration #    21       :  max(cpu_time)    wall_clock(cpu1)
  | Time for this iteration                     :        0.294 s           0.251 s
  | Charge density update                       :        0.001 s           0.001 s
  | Density mixing                              :        0.270 s           0.226 s
  | Hartree multipole update                    :        0.001 s           0.002 s
  | Hartree multipole summation                 :        0.002 s           0.001 s
  | Integration                                 :        0.003 s           0.003 s
  | Fock matrix evaluation                      :        0.016 s           0.016 s
  | Solution of K.-S. eqns.                     :        0.002 s           0.001 s
  | Total energy evaluation                     :        0.000 s           0.001 s

  Partial memory accounting:
  | Current value for overall tracked memory usage:
  |   Minimum:        4.321 MB (on task 21)
  |   Maximum:        4.426 MB (on task 58)
  |   Average:        4.362 MB
  | Peak value for overall tracked memory usage:
  |   Minimum:        5.098 MB (on task 21 after allocating wave)
  |   Maximum:        8.621 MB (on task 32 after allocating ovlp3fn_nosplit%tmploc)
  |   Average:        5.356 MB
  | Largest tracked array allocation so far:
  |   Minimum:        3.876 MB (ovlp3fn2%dat on task  0)
  |   Maximum:        3.911 MB (ovlp3fn2%dat on task  2)
  |   Average:        3.894 MB
  Note:  These values currently only include a subset of arrays which are explicitly tracked.
  The "true" memory usage will be greater.
------------------------------------------------------------

------------------------------------------------------------
          Begin self-consistency iteration #   22

  Date     :  20260717, Time     :  150641.055
------------------------------------------------------------
  Pulay mixing of updated and previous charge densities.
  Available memory per node after mixing [GB]:    999.12
  Renormalizing the density to the exact electron count on the 3D integration grid.
  | Formal number of electrons (from input files) :      12.0000000000
  | Integrated number of electrons on 3D grid     :      12.0000000000
  | Charge integration error                      :       0.0000000000
  | Normalization factor for density and gradient :       1.0000000000

  Evaluating partitioned Hartree potential by multipole expansion.
  | Original multipole sum: apparent total charge =   0.137747E-14
  | Sum of charges compensated after spline to logarithmic grids =  -0.208338E-07
  | Analytical far-field extrapolation by fixed multipoles:
  | Hartree multipole sum: apparent total charge =   0.122989E-14
  Summing up the Hartree potential.
  Time summed over all CPUs for potential: real work        0.001 s, elapsed        0.001 s
  | RMS charge density error from multipole expansion :   0.163116E-02

  Integrating Hamiltonian matrix: batch-based integration.
  Time summed over all CPUs for integration: real work        0.127 s, elapsed        0.146 s
  Calculating non-local Hartree-Fock exchange by two-center RI (RI-LVL).
  screening_threshold (crit_val) =  0.000000100000
  Exact exchange progress report - outermost block loop i_block: 1 ..       4
  |        1         2         3         4  
 Total ovlp3fn data transfer [GB]   1.6710719792172313E-003
  Average sparsity of tmp1/2 0.50000000
  Average sparsity of fock_matrix_row 0.01282051
  Full exact exchange energy: weighted long- and short-range EXX     83.578507919885 eV.
  Times            DM_x_o3fn   CM_prod_1   CM_prod_2   tmp2_prod        Sync   Imbalance       Other  Total calc
  | Times    0:        0.001       0.002       0.001       0.001       0.001       0.000       0.008       0.014
  | Times    1:        0.001       0.000       0.000       0.001       0.001       0.004       0.007       0.014
  | Times    2:        0.001       0.002       0.001       0.001       0.001       0.001       0.007       0.014
  | Times    3:        0.001       0.000       0.000       0.001       0.001       0.004       0.007       0.014
  | Times    4:        0.001       0.002       0.001       0.001       0.001       0.000       0.007       0.014
  | Times    5:        0.001       0.000       0.000       0.001       0.001       0.004       0.007       0.014
  | Times    6:        0.001       0.002       0.001       0.001       0.001       0.000       0.007       0.014
  | Times    7:        0.001       0.000       0.000       0.001       0.001       0.004       0.007       0.014
  | Times    8:        0.001       0.003       0.001       0.001       0.001       0.000       0.006       0.014
  | Times    9:        0.001       0.000       0.000       0.001       0.001       0.005       0.006       0.014
  | Times   10:        0.001       0.003       0.001       0.001       0.001       0.001       0.005       0.014
  | Times   11:        0.001       0.000       0.000       0.001       0.001       0.005       0.006       0.014
  | Times   12:        0.001       0.002       0.001       0.001       0.001       0.000       0.008       0.014
  | Times   13:        0.001       0.000       0.000       0.001       0.001       0.004       0.008       0.014
  | Times   14:        0.001       0.002       0.001       0.001       0.001       0.001       0.007       0.014
  | Times   15:        0.001       0.000       0.000       0.001       0.001       0.004       0.008       0.014
  | Times   16:        0.001       0.003       0.001       0.001       0.001       0.000       0.006       0.014
  | Times   17:        0.001       0.000       0.000       0.001       0.001       0.005       0.006       0.014
  | Times   18:        0.001       0.003       0.001       0.001       0.001       0.001       0.006       0.014
  | Times   19:        0.001       0.000       0.000       0.001       0.001       0.005       0.006       0.014
  | Times   20:        0.001       0.003       0.001       0.001       0.001       0.000       0.007       0.014
  | Times   21:        0.000       0.000       0.000       0.001       0.001       0.005       0.007       0.014
  | Times   22:        0.001       0.003       0.001       0.001       0.001       0.001       0.007       0.014
  | Times   23:        0.000       0.000       0.000       0.001       0.001       0.005       0.007       0.014
  | Times   24:        0.000       0.003       0.001       0.002       0.001       0.000       0.007       0.014
  | Times   25:        0.000       0.000       0.000       0.001       0.001       0.005       0.006       0.014
  | Times   26:        0.000       0.003       0.001       0.002       0.001       0.001       0.006       0.014
  | Times   27:        0.000       0.000       0.000       0.001       0.001       0.005       0.006       0.014
  | Times   28:        0.001       0.003       0.001       0.001       0.001       0.000       0.007       0.014
  | Times   29:        0.001       0.000       0.000       0.001       0.001       0.005       0.006       0.014
  | Times   30:        0.001       0.003       0.001       0.001       0.001       0.001       0.006       0.014
  | Times   31:        0.001       0.000       0.000       0.001       0.001       0.005       0.006       0.014
  | Times   32:        0.001       0.003       0.001       0.001       0.001       0.000       0.006       0.014
  | Times   33:        0.001       0.000       0.000       0.001       0.001       0.005       0.006       0.014
  | Times   34:        0.001       0.003       0.001       0.001       0.001       0.001       0.006       0.014
  | Times   35:        0.001       0.000       0.000       0.001       0.001       0.005       0.006       0.014
  | Times   36:        0.001       0.002       0.001       0.001       0.001       0.000       0.007       0.014
  | Times   37:        0.001       0.000       0.000       0.001       0.001       0.004       0.007       0.014
  | Times   38:        0.001       0.002       0.001       0.001       0.001       0.000       0.008       0.014
  | Times   39:        0.001       0.000       0.000       0.001       0.001       0.004       0.007       0.014
  | Times   40:        0.001       0.003       0.001       0.001       0.001       0.001       0.005       0.014
  | Times   41:        0.001       0.000       0.000       0.001       0.001       0.005       0.006       0.014
  | Times   42:        0.001       0.003       0.001       0.001       0.001       0.001       0.006       0.014
  | Times   43:        0.001       0.000       0.000       0.001       0.001       0.005       0.006       0.014
  | Times   44:        0.001       0.003       0.001       0.001       0.001       0.001       0.006       0.014
  | Times   45:        0.001       0.000       0.000       0.001       0.001       0.005       0.006       0.014
  | Times   46:        0.001       0.003       0.001       0.001       0.001       0.001       0.007       0.014
  | Times   47:        0.001       0.000       0.000       0.001       0.001       0.005       0.006       0.014
  | Times   48:        0.001       0.003       0.001       0.001       0.001       0.001       0.006       0.014
  | Times   49:        0.001       0.000       0.000       0.001       0.001       0.005       0.006       0.014
  | Times   50:        0.001       0.003       0.001       0.001       0.001       0.001       0.007       0.014
  | Times   51:        0.001       0.000       0.000       0.001       0.001       0.005       0.006       0.014
  | Times   52:        0.001       0.003       0.001       0.001       0.001       0.001       0.006       0.014
  | Times   53:        0.001       0.000       0.000       0.001       0.001       0.005       0.007       0.014
  | Times   54:        0.001       0.003       0.001       0.001       0.001       0.000       0.007       0.014
  | Times   55:        0.001       0.000       0.000       0.001       0.001       0.005       0.007       0.014
  | Times   56:        0.000       0.003       0.002       0.002       0.001       0.001       0.006       0.014
  | Times   57:        0.000       0.000       0.000       0.001       0.001       0.005       0.006       0.014
  | Times   58:        0.000       0.003       0.001       0.002       0.001       0.001       0.006       0.014
  | Times   59:        0.000       0.000       0.000       0.001       0.001       0.005       0.006       0.014
  | Times   60:        0.001       0.003       0.001       0.001       0.001       0.001       0.007       0.014
  | Times   61:        0.000       0.000       0.000       0.001       0.001       0.005       0.007       0.014
  | Times   62:        0.001       0.002       0.001       0.001       0.001       0.000       0.007       0.014
  | Times   63:        0.000       0.000       0.000       0.001       0.001       0.005       0.007       0.014
  | Times  sum:        0.050       0.084       0.038       0.074       0.039       0.167       0.420       0.872

  Decomposition of Other based on code block (only on MPI task 0):
  Times             Block #1    Block #2    Block #3    Block #4    Block #5    Block #6    Block #7    Block #8
  | Times    0:        0.000       0.000       0.000       0.000       0.000       0.000       0.000       0.000

  Times             Block #9   Block #10   Block #11   Block #12   Block #13   Block #14   Block #15   Block #16
  | Times    0:        0.000       0.000       0.000       0.001       0.000       0.004       0.000       0.000

  Times            Block Sum    Expected
  | Times    0:        0.005       0.008
  Time for Fock matrix mixing     0.000

  Updating Kohn-Sham eigenvalues and eigenvectors using ELSI and the ELPA eigensolver.
  Starting ELPA eigensolver
  Finished transformation to standard eigenproblem
  | Time :     0.000 s
  Finished solving standard eigenproblem
  | Time :     0.001 s
  Finished back-transformation of eigenvectors
  | Time :     0.000 s

  Obtaining occupation numbers and electronic chemical potential using ELSI.
  | Note that, for insulating systems, the printed 'chemical potential' value is not uniquely defined.
  | It can be anywhere in the energy gap, as long as it correctly separates occupied and unoccupied states.
  | In systems with a gap, the physically relevant chemical potential is the VBM or HOMO.

  | Chemical potential (Fermi level):    -7.43985351 eV
  Highest occupied state (VBM) at    -10.53259969 eV
  | Occupation number:      2.00000000

  Lowest unoccupied state (CBM) at    -4.34710733 eV
  | Occupation number:      0.00000000

  Overall HOMO-LUMO gap:      6.18549236 eV.

  Total energy components:
  | Sum of eigenvalues            :         -47.67500707 Ha       -1297.30294845 eV
  | XC energy correction          :          -4.50769362 Ha        -122.66058422 eV
  | XC potential correction       :          10.33636153 Ha         281.26670790 eV
  | Free-atom electrostatic energy:         -36.94462506 Ha       -1005.31439784 eV
  | Hartree energy correction     :          -0.65472610 Ha         -17.81600364 eV
  | Entropy correction            :          -0.00000000 Ha          -0.00000000 eV
  | ---------------------------
  | Total energy                  :         -79.44569032 Ha       -2161.82722627 eV
  | Total energy, T -> 0          :         -79.44569032 Ha       -2161.82722627 eV  <-- do not rely on this value for anything but (periodic) metals
  | Electronic free energy        :         -79.44569032 Ha       -2161.82722627 eV

  Derived energy quantities:
  | Kinetic energy                :          78.81983185 Ha        2144.79675077 eV
  | Electrostatic energy          :        -147.61492155 Ha       -4016.80638827 eV
  | Energy correction for multipole
  | error in Hartree potential    :          -0.00071118 Ha          -0.01935207 eV
  | Sum of eigenvalues per atom                           :        -648.65147423 eV
  | Total energy (T->0) per atom                          :       -1080.91361313 eV  <-- do not rely on this value for anything but (periodic) metals
  | Electronic free energy per atom                       :       -1080.91361313 eV
  Evaluating new KS density.
  Integration grid: deviation in total charge (<rho> - N_e) =   1.776357E-15

  Self-consistency convergence accuracy:
  | Change of charge density      :  0.2131E-05
  | Change of unmixed KS density  :  0.3894E-06
  | Change of sum of eigenvalues  : -0.2747E-03 eV
  | Change of total energy        :  0.2433E-05 eV


------------------------------------------------------------
  End self-consistency iteration #    22       :  max(cpu_time)    wall_clock(cpu1)
  | Time for this iteration                     :        0.291 s           0.224 s
  | Charge density update                       :        0.001 s           0.001 s
  | Density mixing                              :        0.268 s           0.202 s
  | Hartree multipole update                    :        0.001 s           0.000 s
  | Hartree multipole summation                 :        0.002 s           0.002 s
  | Integration                                 :        0.003 s           0.003 s
  | Fock matrix evaluation                      :        0.014 s           0.014 s
  | Solution of K.-S. eqns.                     :        0.002 s           0.002 s
  | Total energy evaluation                     :        0.000 s           0.000 s

  Partial memory accounting:
  | Current value for overall tracked memory usage:
  |   Minimum:        4.321 MB (on task 21)
  |   Maximum:        4.426 MB (on task 58)
  |   Average:        4.362 MB
  | Peak value for overall tracked memory usage:
  |   Minimum:        5.098 MB (on task 21 after allocating wave)
  |   Maximum:        8.621 MB (on task 32 after allocating ovlp3fn_nosplit%tmploc)
  |   Average:        5.356 MB
  | Largest tracked array allocation so far:
  |   Minimum:        3.876 MB (ovlp3fn2%dat on task  0)
  |   Maximum:        3.911 MB (ovlp3fn2%dat on task  2)
  |   Average:        3.894 MB
  Note:  These values currently only include a subset of arrays which are explicitly tracked.
  The "true" memory usage will be greater.
------------------------------------------------------------

------------------------------------------------------------
          Begin self-consistency iteration #   23

  Date     :  20260717, Time     :  150641.301
------------------------------------------------------------
  Pulay mixing of updated and previous charge densities.
  Available memory per node after mixing [GB]:    999.12
  Renormalizing the density to the exact electron count on the 3D integration grid.
  | Formal number of electrons (from input files) :      12.0000000000
  | Integrated number of electrons on 3D grid     :      12.0000000000
  | Charge integration error                      :       0.0000000000
  | Normalization factor for density and gradient :       1.0000000000

  Evaluating partitioned Hartree potential by multipole expansion.
  | Original multipole sum: apparent total charge =   0.142667E-14
  | Sum of charges compensated after spline to logarithmic grids =  -0.208336E-07
  | Analytical far-field extrapolation by fixed multipoles:
  | Hartree multipole sum: apparent total charge =   0.255816E-14
  Summing up the Hartree potential.
  Time summed over all CPUs for potential: real work        0.001 s, elapsed        0.001 s
  | RMS charge density error from multipole expansion :   0.163116E-02

  Integrating Hamiltonian matrix: batch-based integration.
  Time summed over all CPUs for integration: real work        0.127 s, elapsed        0.146 s
  Calculating non-local Hartree-Fock exchange by two-center RI (RI-LVL).
  screening_threshold (crit_val) =  0.000000100000
  Exact exchange progress report - outermost block loop i_block: 1 ..       5
  |        1         2         3         4         5  
 Total ovlp3fn data transfer [GB]   2.0888399740215391E-003
  Average sparsity of tmp1/2 0.50000000
  Average sparsity of fock_matrix_row 0.01282051
  Full exact exchange energy: weighted long- and short-range EXX     83.578508158785 eV.
  Times            DM_x_o3fn   CM_prod_1   CM_prod_2   tmp2_prod        Sync   Imbalance       Other  Total calc
  | Times    0:        0.001       0.003       0.001       0.001       0.001       0.000       0.007       0.014
  | Times    1:        0.001       0.000       0.000       0.001       0.001       0.005       0.006       0.014
  | Times    2:        0.002       0.003       0.001       0.001       0.001       0.001       0.006       0.014
  | Times    3:        0.001       0.000       0.000       0.001       0.001       0.005       0.006       0.014
  | Times    4:        0.001       0.002       0.001       0.001       0.001       0.000       0.008       0.014
  | Times    5:        0.001       0.000       0.000       0.001       0.001       0.004       0.007       0.014
  | Times    6:        0.001       0.002       0.001       0.001       0.001       0.000       0.007       0.014
  | Times    7:        0.001       0.000       0.000       0.001       0.001       0.004       0.007       0.014
  | Times    8:        0.001       0.003       0.001       0.001       0.001       0.000       0.007       0.014
  | Times    9:        0.001       0.000       0.000       0.001       0.001       0.005       0.007       0.014
  | Times   10:        0.001       0.003       0.001       0.001       0.001       0.001       0.006       0.014
  | Times   11:        0.001       0.000       0.000       0.001       0.001       0.005       0.007       0.014
  | Times   12:        0.001       0.003       0.001       0.001       0.001       0.000       0.007       0.014
  | Times   13:        0.001       0.000       0.000       0.001       0.001       0.005       0.007       0.014
  | Times   14:        0.001       0.003       0.001       0.001       0.001       0.001       0.007       0.014
  | Times   15:        0.001       0.000       0.000       0.001       0.001       0.005       0.007       0.014
  | Times   16:        0.001       0.002       0.001       0.001       0.001       0.000       0.008       0.014
  | Times   17:        0.001       0.000       0.000       0.001       0.001       0.004       0.008       0.014
  | Times   18:        0.001       0.002       0.001       0.001       0.001       0.001       0.007       0.014
  | Times   19:        0.001       0.000       0.000       0.001       0.001       0.004       0.008       0.014
  | Times   20:        0.001       0.003       0.001       0.001       0.001       0.000       0.007       0.014
  | Times   21:        0.001       0.000       0.000       0.001       0.001       0.005       0.007       0.014
  | Times   22:        0.001       0.003       0.001       0.001       0.001       0.001       0.007       0.014
  | Times   23:        0.001       0.000       0.000       0.001       0.001       0.005       0.007       0.014
  | Times   24:        0.000       0.003       0.001       0.002       0.001       0.000       0.007       0.014
  | Times   25:        0.000       0.000       0.000       0.001       0.001       0.005       0.007       0.014
  | Times   26:        0.000       0.003       0.001       0.002       0.001       0.001       0.007       0.014
  | Times   27:        0.000       0.000       0.000       0.001       0.001       0.005       0.007       0.014
  | Times   28:        0.001       0.003       0.001       0.001       0.001       0.000       0.007       0.014
  | Times   29:        0.001       0.000       0.000       0.001       0.001       0.005       0.007       0.014
  | Times   30:        0.001       0.003       0.001       0.001       0.001       0.001       0.007       0.014
  | Times   31:        0.001       0.000       0.000       0.001       0.001       0.005       0.007       0.014
  | Times   32:        0.002       0.003       0.001       0.001       0.001       0.001       0.006       0.014
  | Times   33:        0.001       0.000       0.000       0.001       0.001       0.005       0.006       0.014
  | Times   34:        0.001       0.003       0.001       0.001       0.001       0.000       0.006       0.014
  | Times   35:        0.001       0.000       0.000       0.001       0.001       0.005       0.006       0.014
  | Times   36:        0.001       0.002       0.001       0.001       0.001       0.001       0.007       0.014
  | Times   37:        0.001       0.000       0.000       0.001       0.001       0.004       0.007       0.014
  | Times   38:        0.001       0.002       0.001       0.001       0.001       0.000       0.008       0.014
  | Times   39:        0.001       0.000       0.000       0.001       0.001       0.004       0.007       0.014
  | Times   40:        0.001       0.003       0.001       0.001       0.001       0.001       0.006       0.014
  | Times   41:        0.001       0.000       0.000       0.001       0.001       0.005       0.007       0.014
  | Times   42:        0.001       0.003       0.001       0.001       0.001       0.001       0.007       0.014
  | Times   43:        0.001       0.000       0.000       0.001       0.001       0.005       0.007       0.014
  | Times   44:        0.001       0.003       0.001       0.001       0.001       0.001       0.006       0.014
  | Times   45:        0.001       0.000       0.000       0.001       0.001       0.005       0.007       0.014
  | Times   46:        0.001       0.003       0.001       0.001       0.001       0.001       0.007       0.014
  | Times   47:        0.001       0.000       0.000       0.001       0.001       0.005       0.007       0.014
  | Times   48:        0.001       0.003       0.001       0.001       0.001       0.001       0.006       0.014
  | Times   49:        0.001       0.000       0.000       0.001       0.001       0.005       0.007       0.014
  | Times   50:        0.001       0.003       0.001       0.001       0.001       0.001       0.007       0.014
  | Times   51:        0.001       0.000       0.000       0.001       0.001       0.005       0.007       0.014
  | Times   52:        0.001       0.003       0.001       0.001       0.001       0.001       0.007       0.014
  | Times   53:        0.001       0.000       0.000       0.001       0.001       0.005       0.007       0.014
  | Times   54:        0.001       0.003       0.001       0.001       0.001       0.000       0.007       0.014
  | Times   55:        0.001       0.000       0.000       0.001       0.001       0.005       0.007       0.014
  | Times   56:        0.000       0.003       0.001       0.001       0.001       0.001       0.007       0.014
  | Times   57:        0.000       0.000       0.000       0.001       0.001       0.005       0.008       0.014
  | Times   58:        0.000       0.002       0.001       0.001       0.000       0.001       0.008       0.014
  | Times   59:        0.000       0.000       0.000       0.001       0.000       0.005       0.008       0.014
  | Times   60:        0.001       0.003       0.001       0.001       0.001       0.001       0.007       0.014
  | Times   61:        0.001       0.000       0.000       0.001       0.001       0.005       0.007       0.014
  | Times   62:        0.001       0.002       0.001       0.001       0.001       0.001       0.007       0.014
  | Times   63:        0.001       0.000       0.000       0.001       0.001       0.005       0.007       0.014
  | Times  sum:        0.055       0.083       0.037       0.075       0.040       0.165       0.445       0.900

  Decomposition of Other based on code block (only on MPI task 0):
  Times             Block #1    Block #2    Block #3    Block #4    Block #5    Block #6    Block #7    Block #8
  | Times    0:        0.000       0.000       0.000       0.000       0.000       0.000       0.000       0.000

  Times             Block #9   Block #10   Block #11   Block #12   Block #13   Block #14   Block #15   Block #16
  | Times    0:        0.000       0.000       0.000       0.001       0.000       0.004       0.000       0.000

  Times            Block Sum    Expected
  | Times    0:        0.006       0.007
  Time for Fock matrix mixing     0.000

  Updating Kohn-Sham eigenvalues and eigenvectors using ELSI and the ELPA eigensolver.
  Starting ELPA eigensolver
  Finished transformation to standard eigenproblem
  | Time :     0.001 s
  Finished solving standard eigenproblem
  | Time :     0.001 s
  Finished back-transformation of eigenvectors
  | Time :     0.000 s

  Obtaining occupation numbers and electronic chemical potential using ELSI.
  | Note that, for insulating systems, the printed 'chemical potential' value is not uniquely defined.
  | It can be anywhere in the energy gap, as long as it correctly separates occupied and unoccupied states.
  | In systems with a gap, the physically relevant chemical potential is the VBM or HOMO.

  | Chemical potential (Fermi level):    -7.43985321 eV
  Highest occupied state (VBM) at    -10.53259955 eV
  | Occupation number:      2.00000000

  Lowest unoccupied state (CBM) at    -4.34710688 eV
  | Occupation number:      0.00000000

  Overall HOMO-LUMO gap:      6.18549267 eV.

  Total energy components:
  | Sum of eigenvalues            :         -47.67500701 Ha       -1297.30294682 eV
  | XC energy correction          :          -4.50769363 Ha        -122.66058444 eV
  | XC potential correction       :          10.33636156 Ha         281.26670882 eV
  | Free-atom electrostatic energy:         -36.94462506 Ha       -1005.31439784 eV
  | Hartree energy correction     :          -0.65472621 Ha         -17.81600662 eV
  | Entropy correction            :          -0.00000000 Ha          -0.00000000 eV
  | ---------------------------
  | Total energy                  :         -79.44569035 Ha       -2161.82722691 eV
  | Total energy, T -> 0          :         -79.44569035 Ha       -2161.82722691 eV  <-- do not rely on this value for anything but (periodic) metals
  | Electronic free energy        :         -79.44569035 Ha       -2161.82722691 eV

  Derived energy quantities:
  | Kinetic energy                :          78.81983195 Ha        2144.79675351 eV
  | Electrostatic energy          :        -147.61492163 Ha       -4016.80639051 eV
  | Energy correction for multipole
  | error in Hartree potential    :          -0.00071118 Ha          -0.01935208 eV
  | Sum of eigenvalues per atom                           :        -648.65147341 eV
  | Total energy (T->0) per atom                          :       -1080.91361345 eV  <-- do not rely on this value for anything but (periodic) metals
  | Electronic free energy per atom                       :       -1080.91361345 eV

  Self-consistency convergence accuracy:
  | Change of charge density      :  0.2542E-06
  | Change of unmixed KS density  :  0.1639E-05
  | Change of sum of eigenvalues  :  0.1632E-05 eV
  | Change of total energy        : -0.6402E-06 eV

  Writing Kohn-Sham eigenvalues.

  State    Occupation    Eigenvalue [Ha]    Eigenvalue [eV]
      1       2.00000         -14.598794         -397.25340
      2       2.00000          -7.077400         -192.58586
      3       2.00000          -0.893399          -24.31064
      4       2.00000          -0.493778          -13.43638
      5       2.00000          -0.387066          -10.53260
      6       2.00000          -0.387066          -10.53260
      7       0.00000          -0.159753           -4.34711
      8       0.00000           0.023678            0.64431
      9       0.00000           0.023678            0.64431
     10       0.00000           0.122419            3.33118
     11       0.00000           0.164749            4.48305
     12       0.00000           0.177618            4.83323

  Highest occupied state (VBM) at    -10.53259955 eV
  | Occupation number:      2.00000000

  Lowest unoccupied state (CBM) at    -4.34710688 eV
  | Occupation number:      0.00000000

  Overall HOMO-LUMO gap:      6.18549267 eV.

  | Chemical Potential                          :    -7.43985321 eV
  | Note that, for insulating systems, the printed 'chemical potential' value is not uniquely defined.
  | It can be anywhere in the energy gap, as long as it correctly separates occupied and unoccupied states.
  | In systems with a gap, the physically relevant chemical potential is the VBM or HOMO.

  Self-consistency cycle converged.


------------------------------------------------------------
  End self-consistency iteration #    23       :  max(cpu_time)    wall_clock(cpu1)
  | Time for this iteration                     :        0.273 s           0.267 s
  | Charge density update                       :        0.000 s           0.000 s
  | Density mixing                              :        0.254 s           0.246 s
  | Hartree multipole update                    :        0.001 s           0.000 s
  | Hartree multipole summation                 :        0.002 s           0.002 s
  | Integration                                 :        0.003 s           0.003 s
  | Fock matrix evaluation                      :        0.015 s           0.014 s
  | Solution of K.-S. eqns.                     :        0.001 s           0.002 s
  | Total energy evaluation                     :        0.000 s           0.000 s

  Partial memory accounting:
  | Current value for overall tracked memory usage:
  |   Minimum:        4.321 MB (on task 21)
  |   Maximum:        4.426 MB (on task 58)
  |   Average:        4.362 MB
  | Peak value for overall tracked memory usage:
  |   Minimum:        5.098 MB (on task 21 after allocating wave)
  |   Maximum:        8.621 MB (on task 32 after allocating ovlp3fn_nosplit%tmploc)
  |   Average:        5.356 MB
  | Largest tracked array allocation so far:
  |   Minimum:        3.876 MB (ovlp3fn2%dat on task  0)
  |   Maximum:        3.911 MB (ovlp3fn2%dat on task  2)
  |   Average:        3.894 MB
  Note:  These values currently only include a subset of arrays which are explicitly tracked.
  The "true" memory usage will be greater.
------------------------------------------------------------

  Energy and forces in a compact form:
  | Total energy uncorrected      :         -0.216182722690606E+04 eV
  | Total energy corrected        :         -0.216182722690606E+04 eV  <-- do not rely on this value for anything but (periodic) metals
  | Electronic free energy        :         -0.216182722690606E+04 eV

  ------------------------------------ 
  Start decomposition of the XC Energy 
  ------------------------------------ 
  Since you specified a libxc flag with exchange and correlation combined, only the total XC energy is shown below.
  Hartree-Fock Energy :         -3.071453720 Ha            -83.578508159 eV
  XC Energy w/o HF    :         -7.579147146 Ha           -206.239087172 eV
  Total XC Energy     :        -10.650600866 Ha           -289.817595330 eV
  ------------------------------------ 
  LDA X and C from self-consistent density 
  X Energy LDA        :         -9.138987207 Ha           -248.684494820 eV
  C Energy LDA        :         -0.765799874 Ha            -20.838474833 eV
  ------------------------------------ 
  End decomposition of the XC Energy 
  ------------------------------------ 

------------------------------------------------------------

------------------------------------------------------------------------------
  Final output of selected total energy values:

  The following output summarizes some interesting total energy values
  at the end of a run (AFTER all relaxation, molecular dynamics, etc.).

  | Total energy of the DFT / Hartree-Fock s.c.f. calculation      :          -2161.827226906 eV
  | Final zero-broadening corrected energy (caution - metals only) :          -2161.827226906 eV
  | For reference only, the value of 1 Hartree used in FHI-aims is :             27.211384500 eV

  Before relying on these values, please be sure to understand exactly which
  total energy value is referred to by a given number. Different objects may
  all carry the same name 'total energy'. Definitions:

  Total energy of the DFT / Hartree-Fock s.c.f. calculation:
  | Note that this energy does not include ANY quantities calculated after the
  | s.c.f. cycle, in particular not ANY RPA, MP2, etc. many-body perturbation terms.

  Final zero-broadening corrected energy:
  | For metallic systems only, a broadening of the occupation numbers at the Fermi
  | level can be extrapolated back to zero broadening by an electron-gas inspired
  | formula. For all systems that are not real metals, this value can be
  | meaningless and should be avoided.

------------------------------------------------------------------------------
  Methods described in the following list of references were used in this FHI-aims run.
  If you publish the results, please make sure to cite these reference if they apply.
  FHI-aims is an academic code, and for our developers (often, Ph.D. students
  and postdocs), scientific credit in the community is essential.
  Thank you for helping us!

  For any use of FHI-aims, please cite:

    Volker Blum, Ralf Gehrke, Felix Hanke, Paula Havu, Ville Havu,
    Xinguo Ren, Karsten Reuter, and Matthias Scheffler
    'Ab initio molecular simulations with numeric atom-centered orbitals'
    Computer Physics Communications 180, 2175-2196 (2009)
    http://doi.org/10.1016/j.cpc.2009.06.022


  For Hartree-Fock, hybrid functionals, or many-body perturbation theory used in your run, please cite:

    Xinguo Ren, Patrick Rinke, Volker Blum, Juergen Wieferink, Alex Tkatchenko,
    Andrea Sanfilippo, Karsten Reuter, and Matthias Scheffler,
    'Resolution-of-identity approach to Hartree-Fock, hybrid density functionals,
    RPA, MP2, and GW with numeric atom-centered orbital basis functions'
    New Journal of Physics 14, 053020 (2012).
    http://doi.org/10.1088/1367-2630/14/5/053020


  For using hybrid functionals or Hartree-Fock in FHI-aims, please cite

    Sergey V. Levchenko, Xinguo Ren, Juergen Wieferink, Rainer Joahanni,
    Patrick Rinke, Volker Blum, and Matthias Scheffler
    Hybrid functionals for large periodic systems in an all-electron,
    numeric atom-centered basis framework

    Comput. Phys. Commun. 192, 60-69 (2015)
    https://doi.org/10.1016/j.cpc.2015.02.021


  For using hybrid functionals or Hartree-Fock in FHI-aims, please also cite

    Sebastian Kokott, Florian Merz, Yi Yao, Christian Carbogno, Mariana Rossi,
    Ville Havu, Markus Rampp, Matthias Scheffler, and Volker Blum
    Efficient all-electron hybrid density functionals for atomistic simulations
    beyond 10,000 atoms

    J. Chem. Phys. 161, 024112 (2024)
    https://doi.org/10.1063/5.0208103


  The ELSI infrastructure was used in your run to solve the Kohn-Sham electronic structure.
  Please check out https://wordpress.elsi-interchange.org to learn more.
  If scalability is important for your project, please acknowledge ELSI by citing:

    V. W-z. Yu, F. Corsetti, A. Garcia, W. P. Huhn, M. Jacquelin, W. Jia,
    B. Lange, L. Lin, J. Lu, W. Mi, A. Seifitokaldani, A. Vazquez-Mayagoitia,
    C. Yang, H. Yang, and V. Blum
    'ELSI: A unified software interface for Kohn-Sham electronic structure solvers'
    Computer Physics Communications 222, 267-285 (2018).
    http://doi.org/10.1016/j.cpc.2017.09.007


  For the real-space grid partitioning and parallelization used in this calculation, please cite:

    Ville Havu, Volker Blum, Paula Havu, and Matthias Scheffler,
    'Efficient O(N) integration for all-electron electronic structure calculation'
    'using numerically tabulated basis functions'
    Journal of Computational Physics 228, 8367-8379 (2009).
    http://doi.org/10.1016/j.jcp.2009.08.008


  The high-level electronic structure method used in your calculation
  employed our efficient localized resolution of identity for the Coulomb operator.
  Some calculations, especially large-scale hybrid density functional theory,
  are only possible thanks to this development. For this feature, please cite:

    Arvid Ihrig, Juergen Wieferink, Igor Ying Zhang, Matti Ropo, Xinguo Ren,
    Patrick Rinke, Matthias Scheffler, and Volker Blum,
    'Accurate localized resolution of identity approach for linear-scaling
    hybrid density functionals and for many-body perturbation theory'
    New Journal of Physics 117, 093020 (2015).
    http://doi.org/10.1088/1367-2630/17/9/093020

  Of course, there are many other important community references, e.g., those cited in the
  above references. Our list is limited to references that describe implementations in the
  FHI-aims code. The reason is purely practical (length of this list) - please credit others as well.
------------------------------------------------------------
Warnings summary:

At least    2 warnings were raised during execution.

------------------------------------------------------------
          Leaving FHI-aims.
          Date     :  20260717, Time     :  150641.844

          Computational steps:
          | Number of self-consistency cycles          :           23
          | Number of SCF (re)initializations          :            1

          Detailed time accounting                     :  max(cpu_time)    wall_clock(cpu1)
          | Total time                                  :        8.642 s          10.357 s
          | Preparation time                            :        0.106 s           0.516 s
          | Boundary condition initalization            :        0.002 s           0.002 s
          | Grid partitioning                           :        0.015 s           0.015 s
          | Preloading free-atom quantities on grid     :        0.005 s           0.005 s
          | Free-atom superposition energy              :        0.001 s           0.000 s
          | Total time for integrations                 :        0.071 s           0.072 s
          | Product basis setup: Total time             :        1.869 s           1.966 s
          | Total time evaluating exchange matrix       :        0.432 s           0.432 s
          | Total time for solution of K.-S. equations  :        0.239 s           0.267 s
          | Total time for density update               :        0.028 s           0.027 s
          | Total time for mixing                       :        6.081 s           4.030 s
          | Total time for Hartree multipole update     :        0.023 s           0.022 s
          | Total time for Hartree multipole sum        :        0.042 s           0.042 s
          | Total time for total energy evaluation      :        0.002 s           0.003 s
          | Total time for scaled ZORA corrections      :        0.000 s           0.000 s

          Partial memory accounting:
          | Residual value for overall tracked memory usage across tasks:     0.000000 MB (should be 0.000000 MB)
          | Peak values for overall tracked memory usage:
          |   Minimum:        5.098 MB (on task 21 after allocating wave)
          |   Maximum:        8.621 MB (on task 32 after allocating ovlp3fn_nosplit%tmploc)
          |   Average:        5.356 MB
          | Largest tracked array allocation:
          |   Minimum:        3.876 MB (ovlp3fn2%dat on task  0)
          |   Maximum:        3.911 MB (ovlp3fn2%dat on task  2)
          |   Average:        3.894 MB
          Note:  These values currently only include a subset of arrays which are explicitly tracked.
          The "true" memory usage will be greater.

          Have a nice day.
------------------------------------------------------------
