8
Properties=species:S:1:pos:R:3:forces:R:3 calculation_type=dimer_refinement calculation_label=AlH3PH3/refinement_41/point_029_distance_2.640000 d4_functional=r2SCAN d4_method=r2scan d4_energy_eV=-0.0304024462790982 source_geometry=/mnt/ceph/users/cwoodson/dft_calc/diatomics/dimer_jobs/AlH3PH3/refinement_41/point_029_distance_2.640000/geometry.in energy=-0.0304024462790982 free_energy=-0.0304024462790982 pbc="F F F"
Al      -0.00000103       0.00000361       1.32000000       0.00000000      -0.00000000      -0.00160717
P        0.00000103      -0.00000361      -1.32000000       0.00000000      -0.00000007       0.00216212
H        0.00000297       1.57524861       1.49799000      -0.00000000      -0.00043317      -0.00080082
H       -1.36418903      -0.78760239       1.49817600       0.00037516       0.00021660      -0.00080091
H        1.36418197      -0.78761039       1.49818100      -0.00037515       0.00021660      -0.00080091
H        0.00000503      -1.22538061      -2.00230200      -0.00000000       0.00008516       0.00061592
H       -1.06124397       0.61274839      -2.00218100       0.00007373      -0.00004256       0.00061589
H        1.06123503       0.61276039      -2.00218700      -0.00007373      -0.00004256       0.00061589
