8
Properties=species:S:1:pos:R:3:forces:R:3 calculation_type=dimer_refinement calculation_label=AlH3PH3/refinement_41/point_001_distance_2.360000 d4_functional=r2SCAN d4_method=r2scan d4_energy_eV=-0.03138813612537588 source_geometry=/mnt/ceph/users/cwoodson/dft_calc/diatomics/dimer_jobs/AlH3PH3/refinement_41/point_001_distance_2.360000/geometry.in energy=-0.03138813612537588 free_energy=-0.03138813612537588 pbc="F F F"
Al      -0.00000092       0.00000323       1.18000000       0.00000000      -0.00000000      -0.00105224
P        0.00000092      -0.00000323      -1.18000000       0.00000000      -0.00000007       0.00147949
H        0.00000308       1.57524823       1.35799000      -0.00000000      -0.00040070      -0.00067538
H       -1.36418892      -0.78760277       1.35817600       0.00034705       0.00020037      -0.00067549
H        1.36418208      -0.78761077       1.35818100      -0.00034705       0.00020037      -0.00067549
H        0.00000492      -1.22538023      -1.86230200      -0.00000000       0.00008583       0.00053307
H       -1.06124408       0.61274877      -1.86218100       0.00007431      -0.00004290       0.00053302
H        1.06123492       0.61276077      -1.86218700      -0.00007431      -0.00004290       0.00053302
