8
Properties=species:S:1:pos:R:3:forces:R:3 calculation_type=dimer_refinement calculation_label=AlH3PH3/refinement_41/point_026_distance_2.610000 d4_functional=r2SCAN d4_method=r2scan d4_energy_eV=-0.030521058347091526 source_geometry=/mnt/ceph/users/cwoodson/dft_calc/diatomics/dimer_jobs/AlH3PH3/refinement_41/point_026_distance_2.610000/geometry.in energy=-0.030521058347091526 free_energy=-0.030521058347091526 pbc="F F F"
Al      -0.00000102       0.00000357       1.30500000       0.00000000      -0.00000000      -0.00153209
P        0.00000102      -0.00000357      -1.30500000       0.00000000      -0.00000007       0.00206948
H        0.00000298       1.57524857       1.48299000      -0.00000000      -0.00042978      -0.00078854
H       -1.36418902      -0.78760243       1.48317600       0.00037222       0.00021491      -0.00078863
H        1.36418198      -0.78761043       1.48318100      -0.00037222       0.00021491      -0.00078863
H        0.00000502      -1.22538057      -1.98730200      -0.00000000       0.00008655       0.00060949
H       -1.06124398       0.61274843      -1.98718100       0.00007494      -0.00004326       0.00060946
H        1.06123502       0.61276043      -1.98718700      -0.00007494      -0.00004326       0.00060946
