8
Properties=species:S:1:pos:R:3:forces:R:3 calculation_type=dimer_refinement calculation_label=AlH3PH3/refinement_41/point_038_distance_2.730000 d4_functional=r2SCAN d4_method=r2scan d4_energy_eV=-0.030026351230089402 source_geometry=/mnt/ceph/users/cwoodson/dft_calc/diatomics/dimer_jobs/AlH3PH3/refinement_41/point_038_distance_2.730000/geometry.in energy=-0.030026351230089402 free_energy=-0.030026351230089402 pbc="F F F"
Al      -0.00000107       0.00000374       1.36500000       0.00000000      -0.00000000      -0.00183970
P        0.00000107      -0.00000374      -1.36500000       0.00000000      -0.00000007       0.00245423
H        0.00000293       1.57524874       1.54299000      -0.00000000      -0.00044320      -0.00083564
H       -1.36418907      -0.78760226       1.54317600       0.00038384       0.00022162      -0.00083572
H        1.36418193      -0.78761026       1.54318100      -0.00038384       0.00022162      -0.00083572
H        0.00000507      -1.22538074      -2.04730200      -0.00000000       0.00007867       0.00063087
H       -1.06124393       0.61274826      -2.04718100       0.00006811      -0.00003931       0.00063085
H        1.06123507       0.61276026      -2.04718700      -0.00006811      -0.00003931       0.00063085
