8
Properties=species:S:1:pos:R:3:forces:R:3 calculation_type=dimer_refinement calculation_label=AlH3PH3/refinement_41/point_012_distance_2.470000 d4_functional=r2SCAN d4_method=r2scan d4_energy_eV=-0.03103175562245715 source_geometry=/mnt/ceph/users/cwoodson/dft_calc/diatomics/dimer_jobs/AlH3PH3/refinement_41/point_012_distance_2.470000/geometry.in energy=-0.03103175562245715 free_energy=-0.03103175562245715 pbc="F F F"
Al      -0.00000097       0.00000338       1.23500000       0.00000000      -0.00000000      -0.00122713
P        0.00000097      -0.00000338      -1.23500000       0.00000000      -0.00000007       0.00169599
H        0.00000303       1.57524838       1.41299000      -0.00000000      -0.00041370      -0.00072726
H       -1.36418897      -0.78760262       1.41317600       0.00035830       0.00020687      -0.00072736
H        1.36418203      -0.78761062       1.41318100      -0.00035830       0.00020687      -0.00072736
H        0.00000497      -1.22538038      -1.91730200      -0.00000000       0.00008847       0.00057107
H       -1.06124403       0.61274862      -1.91718100       0.00007660      -0.00004422       0.00057103
H        1.06123497       0.61276062      -1.91718700      -0.00007660      -0.00004422       0.00057103
