8
Properties=species:S:1:pos:R:3:forces:R:3 calculation_type=dimer_refinement calculation_label=AlH3PH3/refinement_41/point_028_distance_2.630000 d4_functional=r2SCAN d4_method=r2scan d4_energy_eV=-0.030442357020295543 source_geometry=/mnt/ceph/users/cwoodson/dft_calc/diatomics/dimer_jobs/AlH3PH3/refinement_41/point_028_distance_2.630000/geometry.in energy=-0.030442357020295543 free_energy=-0.030442357020295543 pbc="F F F"
Al      -0.00000103       0.00000360       1.31500000       0.00000000      -0.00000000      -0.00158188
P        0.00000103      -0.00000360      -1.31500000       0.00000000      -0.00000007       0.00213086
H        0.00000297       1.57524860       1.49299000      -0.00000000      -0.00043204      -0.00079677
H       -1.36418903      -0.78760240       1.49317600       0.00037418       0.00021604      -0.00079685
H        1.36418197      -0.78761040       1.49318100      -0.00037418       0.00021604      -0.00079685
H        0.00000503      -1.22538060      -1.99730200      -0.00000000       0.00008567       0.00061385
H       -1.06124397       0.61274840      -1.99718100       0.00007417      -0.00004281       0.00061382
H        1.06123503       0.61276040      -1.99718700      -0.00007417      -0.00004282       0.00061382
