2
Properties=species:S:1:pos:R:3:forces:R:3 calculation_type=dimer_refinement calculation_label=AlP/refinement_100/point_044_distance_1.97 d4_functional=r2SCAN d4_method=r2scan d4_energy_eV=-0.009715801330803424 source_geometry=/mnt/ceph/users/cwoodson/dft_calc/diatomics/dimer_jobs/AlP/refinement_100/point_044_distance_1.97/geometry.in energy=-0.009715801330803424 free_energy=-0.009715801330803424 pbc="F F F"
Al       0.00000000       0.00000000      -0.98500000      -0.00000000      -0.00000000       0.00007384
P        0.00000000       0.00000000       0.98500000      -0.00000000      -0.00000000      -0.00007384
