2
Properties=species:S:1:pos:R:3:forces:R:3 calculation_type=dimer_refinement calculation_label=AlP/refinement_100/point_025_distance_1.78 d4_functional=r2SCAN d4_method=r2scan d4_energy_eV=-0.00972833695522208 source_geometry=/mnt/ceph/users/cwoodson/dft_calc/diatomics/dimer_jobs/AlP/refinement_100/point_025_distance_1.78/geometry.in energy=-0.00972833695522208 free_energy=-0.00972833695522208 pbc="F F F"
Al       0.00000000       0.00000000      -0.89000000      -0.00000000      -0.00000000       0.00005962
P        0.00000000       0.00000000       0.89000000      -0.00000000      -0.00000000      -0.00005962
