2
Properties=species:S:1:pos:R:3:forces:R:3 calculation_type=dimer_refinement calculation_label=AlP/refinement_100/point_047_distance_2.00 d4_functional=r2SCAN d4_method=r2scan d4_energy_eV=-0.009713541605770723 source_geometry=/mnt/ceph/users/cwoodson/dft_calc/diatomics/dimer_jobs/AlP/refinement_100/point_047_distance_2.00/geometry.in energy=-0.009713541605770723 free_energy=-0.009713541605770723 pbc="F F F"
Al       0.00000000       0.00000000      -1.00000000      -0.00000000      -0.00000000       0.00007684
P        0.00000000       0.00000000       1.00000000      -0.00000000      -0.00000000      -0.00007684
