2
Properties=species:S:1:pos:R:3:forces:R:3 calculation_type=dimer_refinement calculation_label=AlP/refinement_100/point_097_distance_2.50 d4_functional=r2SCAN d4_method=r2scan d4_energy_eV=-0.009668023890006325 source_geometry=/mnt/ceph/users/cwoodson/dft_calc/diatomics/dimer_jobs/AlP/refinement_100/point_097_distance_2.50/geometry.in energy=-0.009668023890006325 free_energy=-0.009668023890006325 pbc="F F F"
Al       0.00000000       0.00000000      -1.25000000      -0.00000000      -0.00000000       0.00007105
P        0.00000000       0.00000000       1.25000000      -0.00000000      -0.00000000      -0.00007105
