2
Properties=species:S:1:pos:R:3:forces:R:3 calculation_type=dimer_refinement calculation_label=AlP/refinement_41/point_019_distance_2.020000 d4_functional=r2SCAN d4_method=r2scan d4_energy_eV=-0.009711984180721155 source_geometry=/mnt/ceph/users/cwoodson/dft_calc/diatomics/dimer_jobs/AlP/refinement_41/point_019_distance_2.020000/geometry.in energy=-0.009711984180721155 free_energy=-0.009711984180721155 pbc="F F F"
Al       0.00000000       0.00000000      -1.01000000      -0.00000000      -0.00000000       0.00007891
P        0.00000000       0.00000000       1.01000000      -0.00000000      -0.00000000      -0.00007891
