2
Properties=species:S:1:pos:R:3:forces:R:3 calculation_type=dimer_refinement calculation_label=AlP/refinement_100/point_079_distance_2.32 d4_functional=r2SCAN d4_method=r2scan d4_energy_eV=-0.00968412508178714 source_geometry=/mnt/ceph/users/cwoodson/dft_calc/diatomics/dimer_jobs/AlP/refinement_100/point_079_distance_2.32/geometry.in energy=-0.00968412508178714 free_energy=-0.00968412508178714 pbc="F F F"
Al       0.00000000       0.00000000      -1.16000000      -0.00000000      -0.00000000       0.00010003
P        0.00000000       0.00000000       1.16000000      -0.00000000      -0.00000000      -0.00010003
