2
Properties=species:S:1:pos:R:3:forces:R:3 calculation_type=dimer_refinement calculation_label=AlP/refinement_41/point_009_distance_1.920000 d4_functional=r2SCAN d4_method=r2scan d4_energy_eV=-0.009719375937218753 source_geometry=/mnt/ceph/users/cwoodson/dft_calc/diatomics/dimer_jobs/AlP/refinement_41/point_009_distance_1.920000/geometry.in energy=-0.009719375937218753 free_energy=-0.009719375937218753 pbc="F F F"
Al       0.00000000       0.00000000      -0.96000000      -0.00000000      -0.00000000       0.00006924
P        0.00000000       0.00000000       0.96000000      -0.00000000      -0.00000000      -0.00006924
