2
Properties=species:S:1:pos:R:3:forces:R:3 calculation_type=dimer_refinement calculation_label=AlP/refinement_41/point_023_distance_2.060000 d4_functional=r2SCAN d4_method=r2scan d4_energy_eV=-0.009708742406419814 source_geometry=/mnt/ceph/users/cwoodson/dft_calc/diatomics/dimer_jobs/AlP/refinement_41/point_023_distance_2.060000/geometry.in energy=-0.009708742406419814 free_energy=-0.009708742406419814 pbc="F F F"
Al       0.00000000       0.00000000      -1.03000000      -0.00000000      -0.00000000       0.00008319
P        0.00000000       0.00000000       1.03000000      -0.00000000      -0.00000000      -0.00008319
