2
Properties=species:S:1:pos:R:3:forces:R:3 calculation_type=dimer_refinement calculation_label=AlP/refinement_100/point_054_distance_2.07 d4_functional=r2SCAN d4_method=r2scan d4_energy_eV=-0.009707905058213 source_geometry=/mnt/ceph/users/cwoodson/dft_calc/diatomics/dimer_jobs/AlP/refinement_100/point_054_distance_2.07/geometry.in energy=-0.009707905058213 free_energy=-0.009707905058213 pbc="F F F"
Al       0.00000000       0.00000000      -1.03500000      -0.00000000      -0.00000000       0.00008428
P        0.00000000       0.00000000       1.03500000      -0.00000000      -0.00000000      -0.00008428
