2
Properties=species:S:1:pos:R:3:forces:R:3 calculation_type=dimer_refinement calculation_label=AlP/refinement_41/point_037_distance_2.200000 d4_functional=r2SCAN d4_method=r2scan d4_energy_eV=-0.009696078035195376 source_geometry=/mnt/ceph/users/cwoodson/dft_calc/diatomics/dimer_jobs/AlP/refinement_41/point_037_distance_2.200000/geometry.in energy=-0.009696078035195376 free_energy=-0.009696078035195376 pbc="F F F"
Al       0.00000000       0.00000000      -1.10000000      -0.00000000      -0.00000000       0.00009696
P        0.00000000       0.00000000       1.10000000      -0.00000000      -0.00000000      -0.00009696
