8
Properties=species:S:1:pos:R:3:forces:R:3 calculation_type=dimer_refinement calculation_label=BH3NH3/refinement_41/point_001_distance_1.450000 d4_functional=r2SCAN d4_method=r2scan d4_energy_eV=-0.017118804985335693 source_geometry=/mnt/ceph/users/cwoodson/dft_calc/diatomics/dimer_jobs/BH3NH3/refinement_41/point_001_distance_1.450000/geometry.in energy=-0.017118804985335693 free_energy=-0.017118804985335693 pbc="F F F"
B        0.00000000      -0.00000132       0.72500000      -0.00000000       0.00000002      -0.00106438
N        0.00000000       0.00000132      -0.72500000       0.00000000       0.00000001       0.00042465
H        0.00000100       1.16489168       1.03681100       0.00000000       0.00105395       0.00032051
H       -1.00882800      -0.58244832       1.03681100      -0.00091276      -0.00052699       0.00032051
H        1.00882700      -0.58245032       1.03681100       0.00091277      -0.00052699       0.00032051
H        0.00000100      -0.94642468      -1.08488200       0.00000000      -0.00037085      -0.00010726
H       -0.81962900       0.47320832      -1.08488400      -0.00032117       0.00018542      -0.00010727
H        0.81962800       0.47321032      -1.08488400       0.00032117       0.00018542      -0.00010727
