8
Properties=species:S:1:pos:R:3:forces:R:3 calculation_type=dimer_refinement calculation_label=BH3NH3/refinement_41/point_006_distance_1.500000 d4_functional=r2SCAN d4_method=r2scan d4_energy_eV=-0.01711351439665461 source_geometry=/mnt/ceph/users/cwoodson/dft_calc/diatomics/dimer_jobs/BH3NH3/refinement_41/point_006_distance_1.500000/geometry.in energy=-0.01711351439665461 free_energy=-0.01711351439665461 pbc="F F F"
B        0.00000000      -0.00000136       0.75000000      -0.00000000       0.00000002      -0.00102156
N        0.00000000       0.00000136      -0.75000000       0.00000000       0.00000001       0.00040139
H        0.00000100       1.16489164       1.06181100       0.00000000       0.00104457       0.00030632
H       -1.00882800      -0.58244836       1.06181100      -0.00090464      -0.00052229       0.00030632
H        1.00882700      -0.58245036       1.06181100       0.00090464      -0.00052230       0.00030632
H        0.00000100      -0.94642464      -1.10988200       0.00000000      -0.00036060      -0.00009960
H       -0.81962900       0.47320836      -1.10988400      -0.00031229       0.00018030      -0.00009960
H        0.81962800       0.47321036      -1.10988400       0.00031229       0.00018030      -0.00009960
