8
Properties=species:S:1:pos:R:3:forces:R:3 calculation_type=dimer_refinement calculation_label=BH3NH3/refinement_41/point_012_distance_1.560000 d4_functional=r2SCAN d4_method=r2scan d4_energy_eV=-0.017108829670984777 source_geometry=/mnt/ceph/users/cwoodson/dft_calc/diatomics/dimer_jobs/BH3NH3/refinement_41/point_012_distance_1.560000/geometry.in energy=-0.017108829670984777 free_energy=-0.017108829670984777 pbc="F F F"
B        0.00000000      -0.00000142       0.78000000      -0.00000000       0.00000002      -0.00090441
N        0.00000000       0.00000142      -0.78000000       0.00000000       0.00000001       0.00030655
H        0.00000100       1.16489158       1.09181100       0.00000000       0.00103213       0.00028820
H       -1.00882800      -0.58244842       1.09181100      -0.00089386      -0.00051607       0.00028820
H        1.00882700      -0.58245042       1.09181100       0.00089386      -0.00051608       0.00028820
H        0.00000100      -0.94642458      -1.13988200       0.00000000      -0.00034744      -0.00008891
H       -0.81962900       0.47320842      -1.13988400      -0.00030090       0.00017372      -0.00008891
H        0.81962800       0.47321042      -1.13988400       0.00030090       0.00017372      -0.00008891
