8
Properties=species:S:1:pos:R:3:forces:R:3 calculation_type=dimer_refinement calculation_label=BH3NH3/refinement_41/point_025_distance_1.690000 d4_functional=r2SCAN d4_method=r2scan d4_energy_eV=-0.01712644299721895 source_geometry=/mnt/ceph/users/cwoodson/dft_calc/diatomics/dimer_jobs/BH3NH3/refinement_41/point_025_distance_1.690000/geometry.in energy=-0.01712644299721895 free_energy=-0.01712644299721895 pbc="F F F"
B       -0.00000000      -0.00000153       0.84500000      -0.00000000       0.00000002      -0.00029766
N        0.00000000       0.00000153      -0.84500000       0.00000000       0.00000001      -0.00015016
H        0.00000100       1.16489147       1.15681100       0.00000000       0.00085452       0.00020599
H       -1.00882800      -0.58244853       1.15681100      -0.00074005      -0.00042727       0.00020600
H        1.00882700      -0.58245053       1.15681100       0.00074005      -0.00042727       0.00020600
H        0.00000100      -0.94642447      -1.20488200       0.00000000      -0.00031135      -0.00005672
H       -0.81962900       0.47320853      -1.20488400      -0.00026963       0.00015567      -0.00005672
H        0.81962800       0.47321053      -1.20488400       0.00026963       0.00015567      -0.00005672
