8
Properties=species:S:1:pos:R:3:forces:R:3 calculation_type=dimer_refinement calculation_label=BH3NH3/refinement_41/point_017_distance_1.610000 d4_functional=r2SCAN d4_method=r2scan d4_energy_eV=-0.01710961650236501 source_geometry=/mnt/ceph/users/cwoodson/dft_calc/diatomics/dimer_jobs/BH3NH3/refinement_41/point_017_distance_1.610000/geometry.in energy=-0.01710961650236501 free_energy=-0.01710961650236501 pbc="F F F"
B        0.00000000      -0.00000146       0.80500000      -0.00000000       0.00000002      -0.00072478
N        0.00000000       0.00000146      -0.80500000       0.00000000       0.00000001       0.00015258
H        0.00000100       1.16489154       1.11681100       0.00000000       0.00100862       0.00026898
H       -1.00882800      -0.58244846       1.11681100      -0.00087351      -0.00050432       0.00026898
H        1.00882700      -0.58245046       1.11681100       0.00087351      -0.00050432       0.00026898
H        0.00000100      -0.94642454      -1.16488200       0.00000000      -0.00033517      -0.00007824
H       -0.81962900       0.47320846      -1.16488400      -0.00029026       0.00016758      -0.00007824
H        0.81962800       0.47321046      -1.16488400       0.00029026       0.00016758      -0.00007824
