8
Properties=species:S:1:pos:R:3:forces:R:3 calculation_type=dimer_refinement calculation_label=BH3NH3/refinement_41/point_007_distance_1.510000 d4_functional=r2SCAN d4_method=r2scan d4_energy_eV=-0.017112511722955175 source_geometry=/mnt/ceph/users/cwoodson/dft_calc/diatomics/dimer_jobs/BH3NH3/refinement_41/point_007_distance_1.510000/geometry.in energy=-0.017112511722955175 free_energy=-0.017112511722955175 pbc="F F F"
B        0.00000000      -0.00000137       0.75500000      -0.00000000       0.00000002      -0.00100791
N        0.00000000       0.00000137      -0.75500000       0.00000000       0.00000001       0.00039146
H        0.00000100       1.16489163       1.06681100       0.00000000       0.00104276       0.00030343
H       -1.00882800      -0.58244837       1.06681100      -0.00090307      -0.00052139       0.00030343
H        1.00882700      -0.58245037       1.06681100       0.00090307      -0.00052139       0.00030343
H        0.00000100      -0.94642463      -1.11488200       0.00000000      -0.00035849      -0.00009795
H       -0.81962900       0.47320837      -1.11488400      -0.00031046       0.00017924      -0.00009795
H        0.81962800       0.47321037      -1.11488400       0.00031046       0.00017924      -0.00009795
