8
Properties=species:S:1:pos:R:3:forces:R:3 calculation_type=dimer_refinement calculation_label=BH3PH3/refinement_41/point_015_distance_1.870000 d4_functional=r2SCAN d4_method=r2scan d4_energy_eV=-0.025783455027975907 source_geometry=/mnt/ceph/users/cwoodson/dft_calc/diatomics/dimer_jobs/BH3PH3/refinement_41/point_015_distance_1.870000/geometry.in energy=-0.025783455027975907 free_energy=-0.025783455027975907 pbc="F F F"
B        0.00000000      -0.00000049       0.93500000      -0.00000000       0.00000002      -0.00102783
P        0.00000000       0.00000049      -0.93500000       0.00000000      -0.00000000       0.00087786
H        0.00000000       1.16874651       1.21709100      -0.00000000       0.00041780      -0.00015268
H       -1.01216600      -0.58437649       1.21708700      -0.00036184      -0.00020891      -0.00015268
H        1.01216600      -0.58437749       1.21708800       0.00036184      -0.00020891      -0.00015267
H        0.00000000      -1.23673751      -1.59210300      -0.00000000       0.00005667       0.00020267
H       -1.07104200       0.61836649      -1.59210700       0.00004908      -0.00002833       0.00020267
H        1.07104100       0.61836749      -1.59210800      -0.00004908      -0.00002833       0.00020267
