8
Properties=species:S:1:pos:R:3:forces:R:3 calculation_type=dimer_refinement calculation_label=BH3PH3/refinement_41/point_038_distance_2.100000 d4_functional=r2SCAN d4_method=r2scan d4_energy_eV=-0.02540477633423267 source_geometry=/mnt/ceph/users/cwoodson/dft_calc/diatomics/dimer_jobs/BH3PH3/refinement_41/point_038_distance_2.100000/geometry.in energy=-0.02540477633423267 free_energy=-0.02540477633423267 pbc="F F F"
B        0.00000000      -0.00000054       1.05000000      -0.00000001       0.00000002      -0.00115700
P        0.00000000       0.00000054      -1.05000000       0.00000000      -0.00000000       0.00078284
H        0.00000000       1.16874646       1.33209100      -0.00000000       0.00066375      -0.00017538
H       -1.01216600      -0.58437654       1.33208700      -0.00057484      -0.00033188      -0.00017538
H        1.01216600      -0.58437754       1.33208800       0.00057484      -0.00033189      -0.00017538
H        0.00000000      -1.23673746      -1.70710300      -0.00000000       0.00007992       0.00030010
H       -1.07104200       0.61836654      -1.70710700       0.00006922      -0.00003996       0.00030010
H        1.07104100       0.61836754      -1.70710800      -0.00006922      -0.00003996       0.00030010
