8
Properties=species:S:1:pos:R:3:forces:R:3 calculation_type=dimer_refinement calculation_label=BH3PH3/refinement_41/point_010_distance_1.820000 d4_functional=r2SCAN d4_method=r2scan d4_energy_eV=-0.025855817108740665 source_geometry=/mnt/ceph/users/cwoodson/dft_calc/diatomics/dimer_jobs/BH3PH3/refinement_41/point_010_distance_1.820000/geometry.in energy=-0.025855817108740665 free_energy=-0.025855817108740665 pbc="F F F"
B        0.00000000      -0.00000047       0.91000000      -0.00000000       0.00000002      -0.00098737
P        0.00000000       0.00000047      -0.91000000       0.00000000      -0.00000000       0.00086644
H        0.00000000       1.16874653       1.19209100      -0.00000000       0.00041284      -0.00014113
H       -1.01216600      -0.58437647       1.19208700      -0.00035754      -0.00020642      -0.00014113
H        1.01216600      -0.58437747       1.19208800       0.00035754      -0.00020643      -0.00014113
H        0.00000000      -1.23673753      -1.56710300      -0.00000000       0.00005021       0.00018144
H       -1.07104200       0.61836647      -1.56710700       0.00004348      -0.00002511       0.00018144
H        1.07104100       0.61836747      -1.56710800      -0.00004348      -0.00002511       0.00018144
