8
Properties=species:S:1:pos:R:3:forces:R:3 calculation_type=dimer_refinement calculation_label=BH3PH3/refinement_41/point_031_distance_2.030000 d4_functional=r2SCAN d4_method=r2scan d4_energy_eV=-0.025525158769050378 source_geometry=/mnt/ceph/users/cwoodson/dft_calc/diatomics/dimer_jobs/BH3PH3/refinement_41/point_031_distance_2.030000/geometry.in energy=-0.025525158769050378 free_energy=-0.025525158769050378 pbc="F F F"
B        0.00000000      -0.00000053       1.01500000      -0.00000000       0.00000002      -0.00116463
P        0.00000000       0.00000053      -1.01500000       0.00000000      -0.00000000       0.00090806
H        0.00000000       1.16874647       1.29709100      -0.00000000       0.00051161      -0.00018566
H       -1.01216600      -0.58437653       1.29708700      -0.00044308      -0.00025581      -0.00018566
H        1.01216600      -0.58437753       1.29708800       0.00044308      -0.00025582      -0.00018566
H        0.00000000      -1.23673747      -1.67210300      -0.00000000       0.00007463       0.00027118
H       -1.07104200       0.61836653      -1.67210700       0.00006463      -0.00003731       0.00027118
H        1.07104100       0.61836753      -1.67210800      -0.00006463      -0.00003731       0.00027118
