8
Properties=species:S:1:pos:R:3:forces:R:3 calculation_type=dimer_refinement calculation_label=BH3PH3/refinement_41/point_023_distance_1.950000 d4_functional=r2SCAN d4_method=r2scan d4_energy_eV=-0.025659265227329395 source_geometry=/mnt/ceph/users/cwoodson/dft_calc/diatomics/dimer_jobs/BH3PH3/refinement_41/point_023_distance_1.950000/geometry.in energy=-0.025659265227329395 free_energy=-0.025659265227329395 pbc="F F F"
B        0.00000000      -0.00000051       0.97500000      -0.00000000       0.00000002      -0.00109875
P        0.00000000       0.00000051      -0.97500000       0.00000000      -0.00000000       0.00090785
H        0.00000000       1.16874649       1.25709100      -0.00000000       0.00044054      -0.00017344
H       -1.01216600      -0.58437651       1.25708700      -0.00038153      -0.00022028      -0.00017344
H        1.01216600      -0.58437751       1.25708800       0.00038153      -0.00022028      -0.00017343
H        0.00000000      -1.23673749      -1.63210300      -0.00000000       0.00006640       0.00023707
H       -1.07104200       0.61836651      -1.63210700       0.00005751      -0.00003320       0.00023707
H        1.07104100       0.61836751      -1.63210800      -0.00005751      -0.00003320       0.00023707
