8
Properties=species:S:1:pos:R:3:forces:R:3 calculation_type=dimer_refinement calculation_label=BH3PH3/refinement_41/point_018_distance_1.900000 d4_functional=r2SCAN d4_method=r2scan d4_energy_eV=-0.025738140094674074 source_geometry=/mnt/ceph/users/cwoodson/dft_calc/diatomics/dimer_jobs/BH3PH3/refinement_41/point_018_distance_1.900000/geometry.in energy=-0.025738140094674074 free_energy=-0.025738140094674074 pbc="F F F"
B        0.00000000      -0.00000049       0.95000000      -0.00000000       0.00000002      -0.00105362
P        0.00000000       0.00000049      -0.95000000       0.00000000      -0.00000000       0.00088883
H        0.00000000       1.16874651       1.23209100      -0.00000000       0.00042318      -0.00016062
H       -1.01216600      -0.58437649       1.23208700      -0.00036649      -0.00021160      -0.00016062
H        1.01216600      -0.58437749       1.23208800       0.00036650      -0.00021160      -0.00016062
H        0.00000000      -1.23673751      -1.60710300      -0.00000000       0.00006044       0.00021554
H       -1.07104200       0.61836649      -1.60710700       0.00005234      -0.00003022       0.00021554
H        1.07104100       0.61836749      -1.60710800      -0.00005234      -0.00003022       0.00021554
