8
Properties=species:S:1:pos:R:3:forces:R:3 calculation_type=dimer_refinement calculation_label=BH3PH3/refinement_41/point_036_distance_2.080000 d4_functional=r2SCAN d4_method=r2scan d4_energy_eV=-0.025438818721766825 source_geometry=/mnt/ceph/users/cwoodson/dft_calc/diatomics/dimer_jobs/BH3PH3/refinement_41/point_036_distance_2.080000/geometry.in energy=-0.025438818721766825 free_energy=-0.025438818721766825 pbc="F F F"
B        0.00000000      -0.00000054       1.04000000      -0.00000001       0.00000002      -0.00117304
P        0.00000000       0.00000054      -1.04000000       0.00000000      -0.00000000       0.00084117
H        0.00000000       1.16874646       1.32209100      -0.00000000       0.00060771      -0.00018134
H       -1.01216600      -0.58437654       1.32208700      -0.00052631      -0.00030386      -0.00018134
H        1.01216600      -0.58437754       1.32208800       0.00052631      -0.00030387      -0.00018133
H        0.00000000      -1.23673746      -1.69710300      -0.00000000       0.00007863       0.00029196
H       -1.07104200       0.61836654      -1.69710700       0.00006809      -0.00003931       0.00029196
H        1.07104100       0.61836754      -1.69710800      -0.00006809      -0.00003931       0.00029196
