8
Properties=species:S:1:pos:R:3:forces:R:3 calculation_type=dimer_refinement calculation_label=BH3PH3/refinement_41/point_032_distance_2.040000 d4_functional=r2SCAN d4_method=r2scan d4_energy_eV=-0.02550791215798994 source_geometry=/mnt/ceph/users/cwoodson/dft_calc/diatomics/dimer_jobs/BH3PH3/refinement_41/point_032_distance_2.040000/geometry.in energy=-0.02550791215798994 free_energy=-0.02550791215798994 pbc="F F F"
B        0.00000000      -0.00000053       1.02000000      -0.00000000       0.00000002      -0.00116992
P        0.00000000       0.00000053      -1.02000000       0.00000000      -0.00000000       0.00090116
H        0.00000000       1.16874647       1.30209100      -0.00000000       0.00052664      -0.00018579
H       -1.01216600      -0.58437653       1.30208700      -0.00045609      -0.00026333      -0.00018579
H        1.01216600      -0.58437753       1.30208800       0.00045610      -0.00026333      -0.00018579
H        0.00000000      -1.23673747      -1.67710300      -0.00000000       0.00007551       0.00027538
H       -1.07104200       0.61836653      -1.67710700       0.00006539      -0.00003775       0.00027538
H        1.07104100       0.61836753      -1.67710800      -0.00006539      -0.00003775       0.00027538
