8
Properties=species:S:1:pos:R:3:forces:R:3 calculation_type=dimer_refinement calculation_label=BH3PH3/refinement_41/point_029_distance_2.010000 d4_functional=r2SCAN d4_method=r2scan d4_energy_eV=-0.025559424278467333 source_geometry=/mnt/ceph/users/cwoodson/dft_calc/diatomics/dimer_jobs/BH3PH3/refinement_41/point_029_distance_2.010000/geometry.in energy=-0.025559424278467333 free_energy=-0.025559424278467333 pbc="F F F"
B        0.00000000      -0.00000052       1.00500000      -0.00000000       0.00000002      -0.00115097
P        0.00000000       0.00000052      -1.00500000       0.00000000      -0.00000000       0.00091547
H        0.00000000       1.16874648       1.28709100      -0.00000000       0.00048652      -0.00018423
H       -1.01216600      -0.58437652       1.28708700      -0.00042135      -0.00024327      -0.00018423
H        1.01216600      -0.58437752       1.28708800       0.00042136      -0.00024327      -0.00018423
H        0.00000000      -1.23673748      -1.66210300      -0.00000000       0.00007276       0.00026273
H       -1.07104200       0.61836652      -1.66210700       0.00006301      -0.00003638       0.00026273
H        1.07104100       0.61836752      -1.66210800      -0.00006301      -0.00003638       0.00026273
