8
Properties=species:S:1:pos:R:3:forces:R:3 calculation_type=dimer_refinement calculation_label=BH3PH3/refinement_41/point_037_distance_2.090000 d4_functional=r2SCAN d4_method=r2scan d4_energy_eV=-0.025421713126840367 source_geometry=/mnt/ceph/users/cwoodson/dft_calc/diatomics/dimer_jobs/BH3PH3/refinement_41/point_037_distance_2.090000/geometry.in energy=-0.025421713126840367 free_energy=-0.025421713126840367 pbc="F F F"
B        0.00000000      -0.00000054       1.04500000      -0.00000001       0.00000002      -0.00116699
P        0.00000000       0.00000054      -1.04500000       0.00000000      -0.00000000       0.00081499
H        0.00000000       1.16874646       1.32709100      -0.00000000       0.00063426      -0.00017872
H       -1.01216600      -0.58437654       1.32708700      -0.00054930      -0.00031714      -0.00017871
H        1.01216600      -0.58437754       1.32708800       0.00054931      -0.00031714      -0.00017871
H        0.00000000      -1.23673746      -1.70210300      -0.00000000       0.00007930       0.00029605
H       -1.07104200       0.61836654      -1.70210700       0.00006867      -0.00003965       0.00029605
H        1.07104100       0.61836754      -1.70210800      -0.00006867      -0.00003965       0.00029605
