8
Properties=species:S:1:pos:R:3:forces:R:3 calculation_type=dimer_refinement calculation_label=BH3PH3/refinement_41/point_003_distance_1.750000 d4_functional=r2SCAN d4_method=r2scan d4_energy_eV=-0.025951728291339834 source_geometry=/mnt/ceph/users/cwoodson/dft_calc/diatomics/dimer_jobs/BH3PH3/refinement_41/point_003_distance_1.750000/geometry.in energy=-0.025951728291339834 free_energy=-0.025951728291339834 pbc="F F F"
B        0.00000000      -0.00000045       0.87500000      -0.00000000       0.00000002      -0.00093453
P        0.00000000       0.00000045      -0.87500000       0.00000000      -0.00000000       0.00087990
H        0.00000000       1.16874655       1.15709100      -0.00000000       0.00040563      -0.00013444
H       -1.01216600      -0.58437645       1.15708700      -0.00035129      -0.00020282      -0.00013444
H        1.01216600      -0.58437745       1.15708800       0.00035129      -0.00020282      -0.00013444
H        0.00000000      -1.23673755      -1.53210300      -0.00000000       0.00004134       0.00015265
H       -1.07104200       0.61836645      -1.53210700       0.00003580      -0.00002067       0.00015265
H        1.07104100       0.61836745      -1.53210800      -0.00003580      -0.00002067       0.00015265
