2
Properties=species:S:1:pos:R:3:forces:R:3 calculation_type=dimer_refinement calculation_label=BN/refinement_41/point_025_distance_1.340000 d4_functional=r2SCAN d4_method=r2scan d4_energy_eV=-0.003305429874863231 source_geometry=/mnt/ceph/users/cwoodson/dft_calc/diatomics/dimer_jobs/BN/refinement_41/point_025_distance_1.340000/geometry.in energy=-0.003305429874863231 free_energy=-0.003305429874863231 pbc="F F F"
B        0.00000000       0.00000000      -0.67000000      -0.00000000      -0.00000000       0.00002313
N        0.00000000       0.00000000       0.67000000      -0.00000000      -0.00000000      -0.00002313
