2
Properties=species:S:1:pos:R:3:forces:R:3 calculation_type=dimer_refinement calculation_label=BN/refinement_41/point_021_distance_1.300000 d4_functional=r2SCAN d4_method=r2scan d4_energy_eV=-0.0033063706645249193 source_geometry=/mnt/ceph/users/cwoodson/dft_calc/diatomics/dimer_jobs/BN/refinement_41/point_021_distance_1.300000/geometry.in energy=-0.0033063706645249193 free_energy=-0.0033063706645249193 pbc="F F F"
B        0.00000000       0.00000000      -0.65000000      -0.00000000      -0.00000000       0.00002376
N        0.00000000       0.00000000       0.65000000      -0.00000000      -0.00000000      -0.00002376
