2
Properties=species:S:1:pos:R:3:forces:R:3 calculation_type=dimer_refinement calculation_label=BN/refinement_100/point_013_distance_0.92 d4_functional=r2SCAN d4_method=r2scan d4_energy_eV=-0.003314900609433324 source_geometry=/mnt/ceph/users/cwoodson/dft_calc/diatomics/dimer_jobs/BN/refinement_100/point_013_distance_0.92/geometry.in energy=-0.003314900609433324 free_energy=-0.003314900609433324 pbc="F F F"
B        0.00000000       0.00000000      -0.46000000      -0.00000000      -0.00000000       0.00002086
N        0.00000000       0.00000000       0.46000000      -0.00000000      -0.00000000      -0.00002086
