2
Properties=species:S:1:pos:R:3:forces:R:3 calculation_type=dimer_refinement calculation_label=BN/refinement_41/point_039_distance_1.480000 d4_functional=r2SCAN d4_method=r2scan d4_energy_eV=-0.0033030871966485287 source_geometry=/mnt/ceph/users/cwoodson/dft_calc/diatomics/dimer_jobs/BN/refinement_41/point_039_distance_1.480000/geometry.in energy=-0.0033030871966485287 free_energy=-0.0033030871966485287 pbc="F F F"
B        0.00000000       0.00000000      -0.74000000      -0.00000000      -0.00000000       0.00000320
N        0.00000000       0.00000000       0.74000000      -0.00000000      -0.00000000      -0.00000320
