2
Properties=species:S:1:pos:R:3:forces:R:3 calculation_type=dimer_refinement calculation_label=BP/refinement_100/point_100_distance_2.11 d4_functional=r2SCAN d4_method=r2scan d4_energy_eV=-0.006450150258569214 source_geometry=/mnt/ceph/users/cwoodson/dft_calc/diatomics/dimer_jobs/BP/refinement_100/point_100_distance_2.11/geometry.in energy=-0.006450150258569214 free_energy=-0.006450150258569214 pbc="F F F"
B        0.00000000       0.00000000      -1.05500000      -0.00000000      -0.00000000       0.00007342
P        0.00000000       0.00000000       1.05500000      -0.00000000      -0.00000000      -0.00007342
