2
Properties=species:S:1:pos:R:3:forces:R:3 calculation_type=dimer_refinement calculation_label=BP/refinement_41/point_021_distance_1.620000 d4_functional=r2SCAN d4_method=r2scan d4_energy_eV=-0.006458698710947494 source_geometry=/mnt/ceph/users/cwoodson/dft_calc/diatomics/dimer_jobs/BP/refinement_41/point_021_distance_1.620000/geometry.in energy=-0.006458698710947494 free_energy=-0.006458698710947494 pbc="F F F"
B        0.00000000       0.00000000      -0.81000000      -0.00000000      -0.00000000      -0.00001982
P        0.00000000       0.00000000       0.81000000      -0.00000000      -0.00000000       0.00001982
