2
Properties=species:S:1:pos:R:3:forces:R:3 calculation_type=dimer_refinement calculation_label=BP/refinement_100/point_068_distance_1.79 d4_functional=r2SCAN d4_method=r2scan d4_energy_eV=-0.006460490889310815 source_geometry=/mnt/ceph/users/cwoodson/dft_calc/diatomics/dimer_jobs/BP/refinement_100/point_068_distance_1.79/geometry.in energy=-0.006460490889310815 free_energy=-0.006460490889310815 pbc="F F F"
B        0.00000000       0.00000000      -0.89500000      -0.00000000      -0.00000000       0.00000015
P        0.00000000       0.00000000       0.89500000      -0.00000000      -0.00000000      -0.00000015
