2
Properties=species:S:1:pos:R:3:forces:R:3 calculation_type=dimer_refinement calculation_label=BP/refinement_100/point_082_distance_1.93 d4_functional=r2SCAN d4_method=r2scan d4_energy_eV=-0.006458844120114246 source_geometry=/mnt/ceph/users/cwoodson/dft_calc/diatomics/dimer_jobs/BP/refinement_100/point_082_distance_1.93/geometry.in energy=-0.006458844120114246 free_energy=-0.006458844120114246 pbc="F F F"
B        0.00000000       0.00000000      -0.96500000      -0.00000000      -0.00000000       0.00002508
P        0.00000000       0.00000000       0.96500000      -0.00000000      -0.00000000      -0.00002508
