8
Properties=species:S:1:pos:R:3:forces:R:3 calculation_type=dimer_refinement calculation_label=C2H6/refinement_100/point_063_distance_1.66 d4_functional=r2SCAN d4_method=r2scan d4_energy_eV=-0.01757607889046476 source_geometry=/mnt/ceph/users/cwoodson/dft_calc/diatomics/dimer_jobs/C2H6/refinement_100/point_063_distance_1.66/geometry.in energy=-0.01757607889046476 free_energy=-0.01757607889046476 pbc="F F F"
C        0.00000000       0.00000000       0.83000000      -0.00000000       0.00000000      -0.00078294
C        0.00000000       0.00000000      -0.83000000      -0.00000000      -0.00000000       0.00078294
H        0.00000000       1.01895700       1.22502000       0.00000000       0.00020165       0.00004756
H       -0.88244300      -0.50947900       1.22502000      -0.00017463      -0.00010082       0.00004756
H        0.88244300      -0.50947900       1.22502000       0.00017463      -0.00010082       0.00004756
H        0.00000000      -1.01895700      -1.22502000       0.00000000      -0.00020165      -0.00004756
H       -0.88244300       0.50947900      -1.22502000      -0.00017463       0.00010082      -0.00004756
H        0.88244300       0.50947900      -1.22502000       0.00017463       0.00010082      -0.00004756
