8
Properties=species:S:1:pos:R:3:forces:R:3 calculation_type=dimer_refinement calculation_label=C2H6/refinement_100/point_005_distance_1.08 d4_functional=r2SCAN d4_method=r2scan d4_energy_eV=-0.01774933380017109 source_geometry=/mnt/ceph/users/cwoodson/dft_calc/diatomics/dimer_jobs/C2H6/refinement_100/point_005_distance_1.08/geometry.in energy=-0.01774933380017109 free_energy=-0.01774933380017109 pbc="F F F"
C        0.00000000       0.00000000       0.54000000       0.00000000       0.00000000      -0.00052227
C        0.00000000       0.00000000      -0.54000000       0.00000000      -0.00000000       0.00052227
H        0.00000000       1.01895700       0.93502000      -0.00000000       0.00032856       0.00022498
H       -0.88244300      -0.50947900       0.93502000      -0.00028454      -0.00016428       0.00022498
H        0.88244300      -0.50947900       0.93502000       0.00028454      -0.00016428       0.00022498
H        0.00000000      -1.01895700      -0.93502000      -0.00000000      -0.00032856      -0.00022498
H       -0.88244300       0.50947900      -0.93502000      -0.00028454       0.00016428      -0.00022498
H        0.88244300       0.50947900      -0.93502000       0.00028454       0.00016428      -0.00022498
