8
Properties=species:S:1:pos:R:3:forces:R:3 calculation_type=dimer_refinement calculation_label=C2H6/refinement_100/point_039_distance_1.42 d4_functional=r2SCAN d4_method=r2scan d4_energy_eV=-0.017704647961911395 source_geometry=/mnt/ceph/users/cwoodson/dft_calc/diatomics/dimer_jobs/C2H6/refinement_100/point_039_distance_1.42/geometry.in energy=-0.017704647961911395 free_energy=-0.017704647961911395 pbc="F F F"
C        0.00000000       0.00000000       0.71000000      -0.00000000       0.00000000      -0.00075198
C        0.00000000       0.00000000      -0.71000000       0.00000000      -0.00000000       0.00075198
H        0.00000000       1.01895700       1.10502000       0.00000000       0.00023858       0.00012499
H       -0.88244300      -0.50947900       1.10502000      -0.00020662      -0.00011929       0.00012499
H        0.88244300      -0.50947900       1.10502000       0.00020662      -0.00011929       0.00012499
H        0.00000000      -1.01895700      -1.10502000      -0.00000000      -0.00023858      -0.00012499
H       -0.88244300       0.50947900      -1.10502000      -0.00020662       0.00011929      -0.00012499
H        0.88244300       0.50947900      -1.10502000       0.00020662       0.00011929      -0.00012499
