8
Properties=species:S:1:pos:R:3:forces:R:3 calculation_type=dimer_refinement calculation_label=C2H6/refinement_100/point_076_distance_1.79 d4_functional=r2SCAN d4_method=r2scan d4_energy_eV=-0.01752999075294742 source_geometry=/mnt/ceph/users/cwoodson/dft_calc/diatomics/dimer_jobs/C2H6/refinement_100/point_076_distance_1.79/geometry.in energy=-0.01752999075294742 free_energy=-0.01752999075294742 pbc="F F F"
C        0.00000000       0.00000000       0.89500000      -0.00000000       0.00000000       0.00035809
C        0.00000000       0.00000000      -0.89500000      -0.00000000      -0.00000000      -0.00035809
H        0.00000000       1.01895700       1.29002000       0.00000000       0.00023837       0.00002233
H       -0.88244300      -0.50947900       1.29002000      -0.00020644      -0.00011919       0.00002233
H        0.88244300      -0.50947900       1.29002000       0.00020644      -0.00011919       0.00002233
H        0.00000000      -1.01895700      -1.29002000       0.00000000      -0.00023837      -0.00002233
H       -0.88244300       0.50947900      -1.29002000      -0.00020644       0.00011919      -0.00002233
H        0.88244300       0.50947900      -1.29002000       0.00020644       0.00011919      -0.00002233
