8
Properties=species:S:1:pos:R:3:forces:R:3 calculation_type=dimer_refinement calculation_label=C2H6/refinement_100/point_006_distance_1.09 d4_functional=r2SCAN d4_method=r2scan d4_energy_eV=-0.017750746809644894 source_geometry=/mnt/ceph/users/cwoodson/dft_calc/diatomics/dimer_jobs/C2H6/refinement_100/point_006_distance_1.09/geometry.in energy=-0.017750746809644894 free_energy=-0.017750746809644894 pbc="F F F"
C        0.00000000       0.00000000       0.54500000       0.00000000       0.00000000      -0.00053420
C        0.00000000       0.00000000      -0.54500000       0.00000000      -0.00000000       0.00053420
H        0.00000000       1.01895700       0.94002000      -0.00000000       0.00032503       0.00022143
H       -0.88244300      -0.50947900       0.94002000      -0.00028148      -0.00016251       0.00022143
H        0.88244300      -0.50947900       0.94002000       0.00028148      -0.00016251       0.00022143
H        0.00000000      -1.01895700      -0.94002000      -0.00000000      -0.00032503      -0.00022143
H       -0.88244300       0.50947900      -0.94002000      -0.00028148       0.00016251      -0.00022143
H        0.88244300       0.50947900      -0.94002000       0.00028148       0.00016251      -0.00022143
