8
Properties=species:S:1:pos:R:3:forces:R:3 calculation_type=dimer_refinement calculation_label=C2H6/refinement_100/point_086_distance_1.89 d4_functional=r2SCAN d4_method=r2scan d4_energy_eV=-0.01782474557904345 source_geometry=/mnt/ceph/users/cwoodson/dft_calc/diatomics/dimer_jobs/C2H6/refinement_100/point_086_distance_1.89/geometry.in energy=-0.01782474557904345 free_energy=-0.01782474557904345 pbc="F F F"
C        0.00000000       0.00000000       0.94500000      -0.00000000       0.00000000       0.00677045
C        0.00000000       0.00000000      -0.94500000       0.00000000      -0.00000000      -0.00677045
H        0.00000000       1.01895700       1.34002000       0.00000000       0.00042370       0.00006136
H       -0.88244300      -0.50947900       1.34002000      -0.00036694      -0.00021185       0.00006136
H        0.88244300      -0.50947900       1.34002000       0.00036694      -0.00021185       0.00006136
H        0.00000000      -1.01895700      -1.34002000      -0.00000000      -0.00042370      -0.00006136
H       -0.88244300       0.50947900      -1.34002000      -0.00036694       0.00021185      -0.00006136
H        0.88244300       0.50947900      -1.34002000       0.00036694       0.00021185      -0.00006136
