8
Properties=species:S:1:pos:R:3:forces:R:3 calculation_type=dimer_refinement calculation_label=C2H6/refinement_100/point_056_distance_1.59 d4_functional=r2SCAN d4_method=r2scan d4_energy_eV=-0.017620325762415796 source_geometry=/mnt/ceph/users/cwoodson/dft_calc/diatomics/dimer_jobs/C2H6/refinement_100/point_056_distance_1.59/geometry.in energy=-0.017620325762415796 free_energy=-0.017620325762415796 pbc="F F F"
C        0.00000000       0.00000000       0.79500000       0.00000000       0.00000000      -0.00081627
C        0.00000000       0.00000000      -0.79500000      -0.00000000      -0.00000000       0.00081627
H        0.00000000       1.01895700       1.19002000      -0.00000000       0.00020755       0.00006981
H       -0.88244300      -0.50947900       1.19002000      -0.00017974      -0.00010377       0.00006981
H        0.88244300      -0.50947900       1.19002000       0.00017974      -0.00010377       0.00006981
H        0.00000000      -1.01895700      -1.19002000       0.00000000      -0.00020755      -0.00006981
H       -0.88244300       0.50947900      -1.19002000      -0.00017974       0.00010377      -0.00006981
H        0.88244300       0.50947900      -1.19002000       0.00017974       0.00010377      -0.00006981
