8
Properties=species:S:1:pos:R:3:forces:R:3 calculation_type=dimer_refinement calculation_label=C2H6/refinement_100/point_015_distance_1.18 d4_functional=r2SCAN d4_method=r2scan d4_energy_eV=-0.01775455781130423 source_geometry=/mnt/ceph/users/cwoodson/dft_calc/diatomics/dimer_jobs/C2H6/refinement_100/point_015_distance_1.18/geometry.in energy=-0.01775455781130423 free_energy=-0.01775455781130423 pbc="F F F"
C        0.00000000       0.00000000       0.59000000      -0.00000000       0.00000000      -0.00061652
C        0.00000000       0.00000000      -0.59000000      -0.00000000      -0.00000000       0.00061652
H        0.00000000       1.01895700       0.98502000       0.00000000       0.00029687       0.00019363
H       -0.88244300      -0.50947900       0.98502000      -0.00025709      -0.00014843       0.00019363
H        0.88244300      -0.50947900       0.98502000       0.00025709      -0.00014843       0.00019363
H        0.00000000      -1.01895700      -0.98502000       0.00000000      -0.00029687      -0.00019363
H       -0.88244300       0.50947900      -0.98502000      -0.00025709       0.00014843      -0.00019363
H        0.88244300       0.50947900      -0.98502000       0.00025709       0.00014843      -0.00019363
