8
Properties=species:S:1:pos:R:3:forces:R:3 calculation_type=dimer_refinement calculation_label=C2H6/refinement_100/point_022_distance_1.25 d4_functional=r2SCAN d4_method=r2scan d4_energy_eV=-0.01774840428557535 source_geometry=/mnt/ceph/users/cwoodson/dft_calc/diatomics/dimer_jobs/C2H6/refinement_100/point_022_distance_1.25/geometry.in energy=-0.01774840428557535 free_energy=-0.01774840428557535 pbc="F F F"
C        0.00000000       0.00000000       0.62500000      -0.00000000       0.00000000      -0.00066182
C        0.00000000       0.00000000      -0.62500000      -0.00000000      -0.00000000       0.00066182
H        0.00000000       1.01895700       1.02002000       0.00000000       0.00027825       0.00017446
H       -0.88244300      -0.50947900       1.02002000      -0.00024097      -0.00013912       0.00017446
H        0.88244300      -0.50947900       1.02002000       0.00024097      -0.00013912       0.00017446
H        0.00000000      -1.01895700      -1.02002000       0.00000000      -0.00027825      -0.00017446
H       -0.88244300       0.50947900      -1.02002000      -0.00024097       0.00013912      -0.00017446
H        0.88244300       0.50947900      -1.02002000       0.00024097       0.00013912      -0.00017446
