8
Properties=species:S:1:pos:R:3:forces:R:3 calculation_type=dimer_refinement calculation_label=C2H6/refinement_41/point_039_distance_1.700000 d4_functional=r2SCAN d4_method=r2scan d4_energy_eV=-0.01754615238240471 source_geometry=/mnt/ceph/users/cwoodson/dft_calc/diatomics/dimer_jobs/C2H6/refinement_41/point_039_distance_1.700000/geometry.in energy=-0.01754615238240471 free_energy=-0.01754615238240471 pbc="F F F"
C        0.00000000      -0.00000000       0.85000000       0.00000000      -0.00000000      -0.00069296
C        0.00000000       0.00000000      -0.85000000       0.00000000       0.00000000       0.00069296
H       -0.00000000       1.01450700       1.24562800      -0.00000000       0.00019858       0.00003721
H       -0.87858900      -0.50725200       1.24562300      -0.00017198      -0.00009929       0.00003721
H        0.87858900      -0.50725200       1.24562300       0.00017198      -0.00009929       0.00003721
H        0.00000000      -1.01450700      -1.24562800      -0.00000000      -0.00019858      -0.00003721
H       -0.87858900       0.50725200      -1.24562300      -0.00017198       0.00009929      -0.00003721
H        0.87858900       0.50725200      -1.24562400       0.00017198       0.00009929      -0.00003721
