8
Properties=species:S:1:pos:R:3:forces:R:3 calculation_type=dimer_refinement calculation_label=C2H6/refinement_100/point_097_distance_2.00 d4_functional=r2SCAN d4_method=r2scan d4_energy_eV=-0.018811243354092202 source_geometry=/mnt/ceph/users/cwoodson/dft_calc/diatomics/dimer_jobs/C2H6/refinement_100/point_097_distance_2.00/geometry.in energy=-0.018811243354092202 free_energy=-0.018811243354092202 pbc="F F F"
C        0.00000000       0.00000000       1.00000000      -0.00000000       0.00000000       0.00546711
C        0.00000000       0.00000000      -1.00000000      -0.00000000      -0.00000000      -0.00546711
H        0.00000000       1.01895700       1.39502000       0.00000000       0.00032665      -0.00001719
H       -0.88244300      -0.50947900       1.39502000      -0.00028289      -0.00016333      -0.00001719
H        0.88244300      -0.50947900       1.39502000       0.00028289      -0.00016333      -0.00001719
H        0.00000000      -1.01895700      -1.39502000       0.00000000      -0.00032665       0.00001719
H       -0.88244300       0.50947900      -1.39502000      -0.00028289       0.00016333       0.00001719
H        0.88244300       0.50947900      -1.39502000       0.00028289       0.00016333       0.00001719
