8
Properties=species:S:1:pos:R:3:forces:R:3 calculation_type=dimer_refinement calculation_label=C2H6/refinement_100/point_065_distance_1.68 d4_functional=r2SCAN d4_method=r2scan d4_energy_eV=-0.0175634265165465 source_geometry=/mnt/ceph/users/cwoodson/dft_calc/diatomics/dimer_jobs/C2H6/refinement_100/point_065_distance_1.68/geometry.in energy=-0.0175634265165465 free_energy=-0.0175634265165465 pbc="F F F"
C        0.00000000       0.00000000       0.84000000      -0.00000000       0.00000000      -0.00074667
C        0.00000000       0.00000000      -0.84000000      -0.00000000      -0.00000000       0.00074667
H        0.00000000       1.01895700       1.23502000       0.00000000       0.00020169       0.00004169
H       -0.88244300      -0.50947900       1.23502000      -0.00017467      -0.00010085       0.00004169
H        0.88244300      -0.50947900       1.23502000       0.00017467      -0.00010085       0.00004169
H        0.00000000      -1.01895700      -1.23502000       0.00000000      -0.00020169      -0.00004169
H       -0.88244300       0.50947900      -1.23502000      -0.00017467       0.00010085      -0.00004169
H        0.88244300       0.50947900      -1.23502000       0.00017467       0.00010085      -0.00004169
