8
Properties=species:S:1:pos:R:3:forces:R:3 calculation_type=dimer_refinement calculation_label=C2H6/refinement_41/point_017_distance_1.480000 d4_functional=r2SCAN d4_method=r2scan d4_energy_eV=-0.017673849513185555 source_geometry=/mnt/ceph/users/cwoodson/dft_calc/diatomics/dimer_jobs/C2H6/refinement_41/point_017_distance_1.480000/geometry.in energy=-0.017673849513185555 free_energy=-0.017673849513185555 pbc="F F F"
C        0.00000000       0.00000000       0.74000000       0.00000000      -0.00000000      -0.00078143
C        0.00000000       0.00000000      -0.74000000       0.00000000       0.00000000       0.00078143
H        0.00000000       1.01450700       1.13562800      -0.00000000       0.00022344       0.00010771
H       -0.87858900      -0.50725200       1.13562300      -0.00019351      -0.00011172       0.00010771
H        0.87858900      -0.50725200       1.13562300       0.00019351      -0.00011172       0.00010771
H       -0.00000000      -1.01450700      -1.13562800      -0.00000000      -0.00022344      -0.00010771
H       -0.87858900       0.50725200      -1.13562300      -0.00019351       0.00011172      -0.00010771
H        0.87858900       0.50725200      -1.13562400       0.00019350       0.00011172      -0.00010771
