8
Properties=species:S:1:pos:R:3:forces:R:3 calculation_type=dimer_refinement calculation_label=C2H6/refinement_41/point_027_distance_1.580000 d4_functional=r2SCAN d4_method=r2scan d4_energy_eV=-0.01762106992619218 source_geometry=/mnt/ceph/users/cwoodson/dft_calc/diatomics/dimer_jobs/C2H6/refinement_41/point_027_distance_1.580000/geometry.in energy=-0.01762106992619218 free_energy=-0.01762106992619218 pbc="F F F"
C        0.00000000      -0.00000000       0.79000000       0.00000000      -0.00000000      -0.00081730
C        0.00000000       0.00000000      -0.79000000       0.00000000       0.00000000       0.00081730
H       -0.00000000       1.01450700       1.18562800      -0.00000000       0.00020588       0.00007469
H       -0.87858900      -0.50725200       1.18562300      -0.00017830      -0.00010294       0.00007469
H        0.87858900      -0.50725200       1.18562300       0.00017830      -0.00010294       0.00007469
H        0.00000000      -1.01450700      -1.18562800      -0.00000000      -0.00020588      -0.00007469
H       -0.87858900       0.50725200      -1.18562300      -0.00017830       0.00010294      -0.00007469
H        0.87858900       0.50725200      -1.18562400       0.00017830       0.00010294      -0.00007469
