8
Properties=species:S:1:pos:R:3:forces:R:3 calculation_type=dimer_refinement calculation_label=C2H6/refinement_100/point_069_distance_1.72 d4_functional=r2SCAN d4_method=r2scan d4_energy_eV=-0.017540552776510496 source_geometry=/mnt/ceph/users/cwoodson/dft_calc/diatomics/dimer_jobs/C2H6/refinement_100/point_069_distance_1.72/geometry.in energy=-0.017540552776510496 free_energy=-0.017540552776510496 pbc="F F F"
C        0.00000000       0.00000000       0.86000000       0.00000000       0.00000000      -0.00059108
C        0.00000000       0.00000000      -0.86000000      -0.00000000      -0.00000000       0.00059108
H        0.00000000       1.01895700       1.25502000       0.00000000       0.00020581       0.00003129
H       -0.88244300      -0.50947900       1.25502000      -0.00017824      -0.00010291       0.00003129
H        0.88244300      -0.50947900       1.25502000       0.00017824      -0.00010291       0.00003129
H        0.00000000      -1.01895700      -1.25502000      -0.00000000      -0.00020581      -0.00003129
H       -0.88244300       0.50947900      -1.25502000      -0.00017824       0.00010291      -0.00003129
H        0.88244300       0.50947900      -1.25502000       0.00017824       0.00010291      -0.00003129
