8
Properties=species:S:1:pos:R:3:forces:R:3 calculation_type=dimer_refinement calculation_label=C2H6/refinement_100/point_050_distance_1.53 d4_functional=r2SCAN d4_method=r2scan d4_energy_eV=-0.017654586948428534 source_geometry=/mnt/ceph/users/cwoodson/dft_calc/diatomics/dimer_jobs/C2H6/refinement_100/point_050_distance_1.53/geometry.in energy=-0.017654586948428534 free_energy=-0.017654586948428534 pbc="F F F"
C        0.00000000       0.00000000       0.76500000      -0.00000000       0.00000000      -0.00080104
C        0.00000000       0.00000000      -0.76500000      -0.00000000      -0.00000000       0.00080104
H        0.00000000       1.01895700       1.16002000       0.00000000       0.00021686       0.00008960
H       -0.88244300      -0.50947900       1.16002000      -0.00018781      -0.00010843       0.00008960
H        0.88244300      -0.50947900       1.16002000       0.00018781      -0.00010843       0.00008960
H        0.00000000      -1.01895700      -1.16002000       0.00000000      -0.00021686      -0.00008960
H       -0.88244300       0.50947900      -1.16002000      -0.00018781       0.00010843      -0.00008960
H        0.88244300       0.50947900      -1.16002000       0.00018781       0.00010843      -0.00008960
