8
Properties=species:S:1:pos:R:3:forces:R:3 calculation_type=dimer_refinement calculation_label=C2H6/refinement_100/point_019_distance_1.22 d4_functional=r2SCAN d4_method=r2scan d4_energy_eV=-0.017751918042271532 source_geometry=/mnt/ceph/users/cwoodson/dft_calc/diatomics/dimer_jobs/C2H6/refinement_100/point_019_distance_1.22/geometry.in energy=-0.017751918042271532 free_energy=-0.017751918042271532 pbc="F F F"
C        0.00000000       0.00000000       0.61000000       0.00000000       0.00000000      -0.00064351
C        0.00000000       0.00000000      -0.61000000       0.00000000      -0.00000000       0.00064351
H        0.00000000       1.01895700       1.00502000       0.00000000       0.00028599       0.00018263
H       -0.88244300      -0.50947900       1.00502000      -0.00024768      -0.00014300       0.00018263
H        0.88244300      -0.50947900       1.00502000       0.00024768      -0.00014300       0.00018263
H        0.00000000      -1.01895700      -1.00502000      -0.00000000      -0.00028599      -0.00018263
H       -0.88244300       0.50947900      -1.00502000      -0.00024768       0.00014300      -0.00018263
H        0.88244300       0.50947900      -1.00502000       0.00024768       0.00014300      -0.00018263
