8
Properties=species:S:1:pos:R:3:forces:R:3 calculation_type=dimer_refinement calculation_label=C2H6/refinement_100/point_034_distance_1.37 d4_functional=r2SCAN d4_method=r2scan d4_energy_eV=-0.01772172622338686 source_geometry=/mnt/ceph/users/cwoodson/dft_calc/diatomics/dimer_jobs/C2H6/refinement_100/point_034_distance_1.37/geometry.in energy=-0.01772172622338686 free_energy=-0.01772172622338686 pbc="F F F"
C        0.00000000       0.00000000       0.68500000       0.00000000       0.00000000      -0.00072703
C        0.00000000       0.00000000      -0.68500000      -0.00000000      -0.00000000       0.00072703
H        0.00000000       1.01895700       1.08002000      -0.00000000       0.00024960       0.00014026
H       -0.88244300      -0.50947900       1.08002000      -0.00021616      -0.00012480       0.00014026
H        0.88244300      -0.50947900       1.08002000       0.00021616      -0.00012480       0.00014026
H        0.00000000      -1.01895700      -1.08002000       0.00000000      -0.00024960      -0.00014026
H       -0.88244300       0.50947900      -1.08002000      -0.00021616       0.00012480      -0.00014026
H        0.88244300       0.50947900      -1.08002000       0.00021616       0.00012480      -0.00014026
