8
Properties=species:S:1:pos:R:3:forces:R:3 calculation_type=dimer_refinement calculation_label=C2H6/refinement_41/point_023_distance_1.540000 d4_functional=r2SCAN d4_method=r2scan d4_energy_eV=-0.017643806618396235 source_geometry=/mnt/ceph/users/cwoodson/dft_calc/diatomics/dimer_jobs/C2H6/refinement_41/point_023_distance_1.540000/geometry.in energy=-0.017643806618396235 free_energy=-0.017643806618396235 pbc="F F F"
C        0.00000000      -0.00000000       0.77000000       0.00000000      -0.00000000      -0.00080631
C        0.00000000       0.00000000      -0.77000000       0.00000000       0.00000000       0.00080631
H       -0.00000000       1.01450700       1.16562800      -0.00000000       0.00021226       0.00008798
H       -0.87858900      -0.50725200       1.16562300      -0.00018382      -0.00010613       0.00008798
H        0.87858900      -0.50725200       1.16562300       0.00018382      -0.00010613       0.00008798
H        0.00000000      -1.01450700      -1.16562800      -0.00000000      -0.00021226      -0.00008798
H       -0.87858900       0.50725200      -1.16562300      -0.00018382       0.00010613      -0.00008798
H        0.87858900       0.50725200      -1.16562400       0.00018382       0.00010613      -0.00008798
