8
Properties=species:S:1:pos:R:3:forces:R:3 calculation_type=dimer_refinement calculation_label=C2H6/refinement_100/point_092_distance_1.95 d4_functional=r2SCAN d4_method=r2scan d4_energy_eV=-0.01839152643331568 source_geometry=/mnt/ceph/users/cwoodson/dft_calc/diatomics/dimer_jobs/C2H6/refinement_100/point_092_distance_1.95/geometry.in energy=-0.01839152643331568 free_energy=-0.01839152643331568 pbc="F F F"
C        0.00000000       0.00000000       0.97500000      -0.00000000       0.00000000       0.01032794
C        0.00000000       0.00000000      -0.97500000      -0.00000000      -0.00000000      -0.01032794
H        0.00000000       1.01895700       1.37002000       0.00000000       0.00048895       0.00006462
H       -0.88244300      -0.50947900       1.37002000      -0.00042344      -0.00024447       0.00006462
H        0.88244300      -0.50947900       1.37002000       0.00042344      -0.00024447       0.00006462
H        0.00000000      -1.01895700      -1.37002000       0.00000000      -0.00048895      -0.00006462
H       -0.88244300       0.50947900      -1.37002000      -0.00042344       0.00024447      -0.00006462
H        0.88244300       0.50947900      -1.37002000       0.00042344       0.00024447      -0.00006462
