8
Properties=species:S:1:pos:R:3:forces:R:3 calculation_type=dimer_refinement calculation_label=C2H6/refinement_100/point_020_distance_1.23 d4_functional=r2SCAN d4_method=r2scan d4_energy_eV=-0.01775088972746662 source_geometry=/mnt/ceph/users/cwoodson/dft_calc/diatomics/dimer_jobs/C2H6/refinement_100/point_020_distance_1.23/geometry.in energy=-0.01775088972746662 free_energy=-0.01775088972746662 pbc="F F F"
C        0.00000000       0.00000000       0.61500000      -0.00000000       0.00000000      -0.00064976
C        0.00000000       0.00000000      -0.61500000      -0.00000000      -0.00000000       0.00064976
H        0.00000000       1.01895700       1.01002000       0.00000000       0.00028338       0.00017991
H       -0.88244300      -0.50947900       1.01002000      -0.00024541      -0.00014169       0.00017991
H        0.88244300      -0.50947900       1.01002000       0.00024541      -0.00014169       0.00017991
H        0.00000000      -1.01895700      -1.01002000       0.00000000      -0.00028338      -0.00017991
H       -0.88244300       0.50947900      -1.01002000      -0.00024541       0.00014169      -0.00017991
H        0.88244300       0.50947900      -1.01002000       0.00024541       0.00014169      -0.00017991
