8
Properties=species:S:1:pos:R:3:forces:R:3 calculation_type=dimer_refinement calculation_label=C2H6/refinement_100/point_053_distance_1.56 d4_functional=r2SCAN d4_method=r2scan d4_energy_eV=-0.017638019532264525 source_geometry=/mnt/ceph/users/cwoodson/dft_calc/diatomics/dimer_jobs/C2H6/refinement_100/point_053_distance_1.56/geometry.in energy=-0.017638019532264525 free_energy=-0.017638019532264525 pbc="F F F"
C        0.00000000       0.00000000       0.78000000      -0.00000000       0.00000000      -0.00081083
C        0.00000000       0.00000000      -0.78000000      -0.00000000      -0.00000000       0.00081083
H        0.00000000       1.01895700       1.17502000       0.00000000       0.00021188       0.00007970
H       -0.88244300      -0.50947900       1.17502000      -0.00018349      -0.00010594       0.00007970
H        0.88244300      -0.50947900       1.17502000       0.00018349      -0.00010594       0.00007970
H        0.00000000      -1.01895700      -1.17502000       0.00000000      -0.00021188      -0.00007970
H       -0.88244300       0.50947900      -1.17502000      -0.00018349       0.00010594      -0.00007970
H        0.88244300       0.50947900      -1.17502000       0.00018349       0.00010594      -0.00007970
