8
Properties=species:S:1:pos:R:3:forces:R:3 calculation_type=dimer_refinement calculation_label=C2H6/refinement_41/point_012_distance_1.430000 d4_functional=r2SCAN d4_method=r2scan d4_energy_eV=-0.017694974739876992 source_geometry=/mnt/ceph/users/cwoodson/dft_calc/diatomics/dimer_jobs/C2H6/refinement_41/point_012_distance_1.430000/geometry.in energy=-0.017694974739876992 free_energy=-0.017694974739876992 pbc="F F F"
C        0.00000000       0.00000000       0.71500000       0.00000000      -0.00000000      -0.00075781
C        0.00000000       0.00000000      -0.71500000       0.00000000       0.00000000       0.00075781
H        0.00000000       1.01450700       1.11062800      -0.00000000       0.00023373       0.00012371
H       -0.87858900      -0.50725200       1.11062300      -0.00020242      -0.00011687       0.00012371
H        0.87858900      -0.50725200       1.11062300       0.00020242      -0.00011687       0.00012371
H       -0.00000000      -1.01450700      -1.11062800      -0.00000000      -0.00023373      -0.00012371
H       -0.87858900       0.50725200      -1.11062300      -0.00020242       0.00011687      -0.00012371
H        0.87858900       0.50725200      -1.11062400       0.00020242       0.00011687      -0.00012371
