8
Properties=species:S:1:pos:R:3:forces:R:3 calculation_type=dimer_refinement calculation_label=C2H6/refinement_41/point_040_distance_1.710000 d4_functional=r2SCAN d4_method=r2scan d4_energy_eV=-0.01754049953089829 source_geometry=/mnt/ceph/users/cwoodson/dft_calc/diatomics/dimer_jobs/C2H6/refinement_41/point_040_distance_1.710000/geometry.in energy=-0.01754049953089829 free_energy=-0.01754049953089829 pbc="F F F"
C        0.00000000      -0.00000000       0.85500000       0.00000000      -0.00000000      -0.00065131
C        0.00000000       0.00000000      -0.85500000       0.00000000       0.00000000       0.00065131
H       -0.00000000       1.01450700       1.25062800      -0.00000000       0.00019954       0.00003458
H       -0.87858900      -0.50725200       1.25062300      -0.00017281      -0.00009977       0.00003458
H        0.87858900      -0.50725200       1.25062300       0.00017281      -0.00009977       0.00003458
H        0.00000000      -1.01450700      -1.25062800      -0.00000000      -0.00019954      -0.00003458
H       -0.87858900       0.50725200      -1.25062300      -0.00017281       0.00009977      -0.00003458
H        0.87858900       0.50725200      -1.25062400       0.00017281       0.00009977      -0.00003458
