8
Properties=species:S:1:pos:R:3:forces:R:3 calculation_type=dimer_refinement calculation_label=C2H6/refinement_41/point_021_distance_1.520000 d4_functional=r2SCAN d4_method=r2scan d4_energy_eV=-0.017654380777270492 source_geometry=/mnt/ceph/users/cwoodson/dft_calc/diatomics/dimer_jobs/C2H6/refinement_41/point_021_distance_1.520000/geometry.in energy=-0.017654380777270492 free_energy=-0.017654380777270492 pbc="F F F"
C        0.00000000       0.00000000       0.76000000       0.00000000      -0.00000000      -0.00079871
C        0.00000000       0.00000000      -0.76000000       0.00000000       0.00000000       0.00079871
H        0.00000000       1.01450700       1.15562800      -0.00000000       0.00021581       0.00009460
H       -0.87858900      -0.50725200       1.15562300      -0.00018690      -0.00010790       0.00009460
H        0.87858900      -0.50725200       1.15562300       0.00018690      -0.00010790       0.00009460
H       -0.00000000      -1.01450700      -1.15562800      -0.00000000      -0.00021581      -0.00009460
H       -0.87858900       0.50725200      -1.15562300      -0.00018690       0.00010790      -0.00009460
H        0.87858900       0.50725200      -1.15562400       0.00018690       0.00010790      -0.00009460
