8
Properties=species:S:1:pos:R:3:forces:R:3 calculation_type=dimer_refinement calculation_label=C2H6/refinement_41/point_019_distance_1.500000 d4_functional=r2SCAN d4_method=r2scan d4_energy_eV=-0.017664398339212947 source_geometry=/mnt/ceph/users/cwoodson/dft_calc/diatomics/dimer_jobs/C2H6/refinement_41/point_019_distance_1.500000/geometry.in energy=-0.017664398339212947 free_energy=-0.017664398339212947 pbc="F F F"
C        0.00000000       0.00000000       0.75000000       0.00000000      -0.00000000      -0.00079033
C        0.00000000       0.00000000      -0.75000000       0.00000000       0.00000000       0.00079033
H        0.00000000       1.01450700       1.14562800      -0.00000000       0.00021954       0.00010118
H       -0.87858900      -0.50725200       1.14562300      -0.00019013      -0.00010977       0.00010118
H        0.87858900      -0.50725200       1.14562300       0.00019013      -0.00010977       0.00010118
H       -0.00000000      -1.01450700      -1.14562800      -0.00000000      -0.00021954      -0.00010118
H       -0.87858900       0.50725200      -1.14562300      -0.00019013       0.00010977      -0.00010118
H        0.87858900       0.50725200      -1.14562400       0.00019013       0.00010977      -0.00010118
