8
Properties=species:S:1:pos:R:3:forces:R:3 calculation_type=dimer_refinement calculation_label=C2H6/refinement_41/point_022_distance_1.530000 d4_functional=r2SCAN d4_method=r2scan d4_energy_eV=-0.01764916240303724 source_geometry=/mnt/ceph/users/cwoodson/dft_calc/diatomics/dimer_jobs/C2H6/refinement_41/point_022_distance_1.530000/geometry.in energy=-0.01764916240303724 free_energy=-0.01764916240303724 pbc="F F F"
C        0.00000000      -0.00000000       0.76500000       0.00000000      -0.00000000      -0.00080263
C        0.00000000       0.00000000      -0.76500000       0.00000000       0.00000000       0.00080263
H       -0.00000000       1.01450700       1.16062800      -0.00000000       0.00021401       0.00009129
H       -0.87858900      -0.50725200       1.16062300      -0.00018534      -0.00010700       0.00009130
H        0.87858900      -0.50725200       1.16062300       0.00018534      -0.00010700       0.00009130
H        0.00000000      -1.01450700      -1.16062800      -0.00000000      -0.00021401      -0.00009129
H       -0.87858900       0.50725200      -1.16062300      -0.00018534       0.00010700      -0.00009130
H        0.87858900       0.50725200      -1.16062400       0.00018534       0.00010700      -0.00009130
