8
Properties=species:S:1:pos:R:3:forces:R:3 calculation_type=dimer_refinement calculation_label=C2H6/refinement_41/point_031_distance_1.620000 d4_functional=r2SCAN d4_method=r2scan d4_energy_eV=-0.017596509191365697 source_geometry=/mnt/ceph/users/cwoodson/dft_calc/diatomics/dimer_jobs/C2H6/refinement_41/point_031_distance_1.620000/geometry.in energy=-0.017596509191365697 free_energy=-0.017596509191365697 pbc="F F F"
C        0.00000000      -0.00000000       0.81000000       0.00000000      -0.00000000      -0.00081632
C        0.00000000       0.00000000      -0.81000000       0.00000000       0.00000000       0.00081633
H       -0.00000000       1.01450700       1.20562800      -0.00000000       0.00020087       0.00006153
H       -0.87858900      -0.50725200       1.20562300      -0.00017396      -0.00010043       0.00006153
H        0.87858900      -0.50725200       1.20562300       0.00017396      -0.00010043       0.00006153
H        0.00000000      -1.01450700      -1.20562800      -0.00000000      -0.00020087      -0.00006153
H       -0.87858900       0.50725200      -1.20562300      -0.00017396       0.00010043      -0.00006153
H        0.87858900       0.50725200      -1.20562400       0.00017396       0.00010043      -0.00006153
