8
Properties=species:S:1:pos:R:3:forces:R:3 calculation_type=dimer_refinement calculation_label=C2H6/refinement_100/point_047_distance_1.50 d4_functional=r2SCAN d4_method=r2scan d4_energy_eV=-0.01766993414395255 source_geometry=/mnt/ceph/users/cwoodson/dft_calc/diatomics/dimer_jobs/C2H6/refinement_100/point_047_distance_1.50/geometry.in energy=-0.01766993414395255 free_energy=-0.01766993414395255 pbc="F F F"
C        0.00000000       0.00000000       0.75000000      -0.00000000       0.00000000      -0.00078898
C        0.00000000       0.00000000      -0.75000000      -0.00000000      -0.00000000       0.00078898
H        0.00000000       1.01895700       1.14502000       0.00000000       0.00022234       0.00009944
H       -0.88244300      -0.50947900       1.14502000      -0.00019255      -0.00011117       0.00009944
H        0.88244300      -0.50947900       1.14502000       0.00019255      -0.00011117       0.00009944
H        0.00000000      -1.01895700      -1.14502000       0.00000000      -0.00022234      -0.00009944
H       -0.88244300       0.50947900      -1.14502000      -0.00019255       0.00011117      -0.00009944
H        0.88244300       0.50947900      -1.14502000       0.00019255       0.00011117      -0.00009944
