8
Properties=species:S:1:pos:R:3:forces:R:3 calculation_type=dimer_refinement calculation_label=CH3SiH3/refinement_100/point_007_distance_1.45 d4_functional=r2SCAN d4_method=r2scan d4_energy_eV=-0.024407919380210887 source_geometry=/mnt/ceph/users/cwoodson/dft_calc/diatomics/dimer_jobs/CH3SiH3/refinement_100/point_007_distance_1.45/geometry.in energy=-0.024407919380210887 free_energy=-0.024407919380210887 pbc="F F F"
C        0.00000000       0.00000000      -0.72500000      -0.00000000      -0.00000000       0.00128137
Si       0.00000000       0.00000000       0.72500000      -0.00000000       0.00000000      -0.00007819
H        0.00000000      -1.01976200      -1.11689700       0.00000000      -0.00047281      -0.00036596
H       -0.88314000       0.50988100      -1.11689700      -0.00040947       0.00023641      -0.00036596
H        0.88314000       0.50988100      -1.11689700       0.00040947       0.00023641      -0.00036596
H        0.00000000       1.39123400       1.24797900       0.00000000       0.00015775      -0.00003510
H       -1.20484400      -0.69561700       1.24797900      -0.00013661      -0.00007887      -0.00003510
H        1.20484400      -0.69561700       1.24797900       0.00013661      -0.00007887      -0.00003510
