8
Properties=species:S:1:pos:R:3:forces:R:3 calculation_type=dimer_refinement calculation_label=CH3SiH3/refinement_41/point_024_distance_1.900000 d4_functional=r2SCAN d4_method=r2scan d4_energy_eV=-0.023896948147225587 source_geometry=/mnt/ceph/users/cwoodson/dft_calc/diatomics/dimer_jobs/CH3SiH3/refinement_41/point_024_distance_1.900000/geometry.in energy=-0.023896948147225587 free_energy=-0.023896948147225587 pbc="F F F"
C        0.00000000       0.00000305      -0.95000000       0.00000000      -0.00000000       0.00125181
Si      -0.00000000      -0.00000305       0.95000000       0.00000000      -0.00000000      -0.00095412
H       -0.00000100      -1.01749195      -1.33773400      -0.00000000      -0.00025786       0.00009164
H       -0.88117700       0.50875205      -1.33772400      -0.00022331       0.00012893       0.00009164
H        0.88117800       0.50875005      -1.33772400       0.00022331       0.00012893       0.00009164
H       -0.00000100       1.38371095       1.47140200      -0.00000000       0.00015801      -0.00019087
H       -1.19833100      -0.69185305       1.47141500      -0.00013684      -0.00007900      -0.00019087
H        1.19833200      -0.69185105       1.47141500       0.00013684      -0.00007900      -0.00019087
