8
Properties=species:S:1:pos:R:3:forces:R:3 calculation_type=dimer_refinement calculation_label=CH3SiH3/refinement_100/point_009_distance_1.47 d4_functional=r2SCAN d4_method=r2scan d4_energy_eV=-0.024403058710221692 source_geometry=/mnt/ceph/users/cwoodson/dft_calc/diatomics/dimer_jobs/CH3SiH3/refinement_100/point_009_distance_1.47/geometry.in energy=-0.024403058710221692 free_energy=-0.024403058710221692 pbc="F F F"
C        0.00000000       0.00000000      -0.73500000       0.00000000      -0.00000000       0.00128825
Si       0.00000000       0.00000000       0.73500000       0.00000000       0.00000000      -0.00018611
H        0.00000000      -1.01976200      -1.12689700      -0.00000000      -0.00045203      -0.00032850
H       -0.88314000       0.50988100      -1.12689700      -0.00039147       0.00022601      -0.00032850
H        0.88314000       0.50988100      -1.12689700       0.00039147       0.00022601      -0.00032850
H        0.00000000       1.39123400       1.25797900      -0.00000000       0.00016395      -0.00003887
H       -1.20484400      -0.69561700       1.25797900      -0.00014199      -0.00008198      -0.00003887
H        1.20484400      -0.69561700       1.25797900       0.00014199      -0.00008198      -0.00003887
