8
Properties=species:S:1:pos:R:3:forces:R:3 calculation_type=dimer_refinement calculation_label=CH3SiH3/refinement_41/point_033_distance_1.990000 d4_functional=r2SCAN d4_method=r2scan d4_energy_eV=-0.023765173903777748 source_geometry=/mnt/ceph/users/cwoodson/dft_calc/diatomics/dimer_jobs/CH3SiH3/refinement_41/point_033_distance_1.990000/geometry.in energy=-0.023765173903777748 free_energy=-0.023765173903777748 pbc="F F F"
C        0.00000000       0.00000320      -0.99500000       0.00000000      -0.00000000       0.00098279
Si      -0.00000000      -0.00000320       0.99500000       0.00000000      -0.00000000      -0.00069012
H       -0.00000100      -1.01749180      -1.38273400      -0.00000000      -0.00026668       0.00012201
H       -0.88117700       0.50875220      -1.38272400      -0.00023095       0.00013334       0.00012201
H        0.88117800       0.50875020      -1.38272400       0.00023095       0.00013334       0.00012201
H       -0.00000100       1.38371080       1.51640200      -0.00000000       0.00017534      -0.00021956
H       -1.19833100      -0.69185320       1.51641500      -0.00015185      -0.00008767      -0.00021956
H        1.19833200      -0.69185120       1.51641500       0.00015185      -0.00008767      -0.00021956
