8
Properties=species:S:1:pos:R:3:forces:R:3 calculation_type=dimer_refinement calculation_label=CH3SiH3/refinement_100/point_080_distance_2.18 d4_functional=r2SCAN d4_method=r2scan d4_energy_eV=-0.02375117928979531 source_geometry=/mnt/ceph/users/cwoodson/dft_calc/diatomics/dimer_jobs/CH3SiH3/refinement_100/point_080_distance_2.18/geometry.in energy=-0.02375117928979531 free_energy=-0.02375117928979531 pbc="F F F"
C        0.00000000       0.00000000      -1.09000000       0.00000000      -0.00000000      -0.00303840
Si       0.00000000       0.00000000       1.09000000       0.00000000       0.00000000       0.00308027
H        0.00000000      -1.01976200      -1.48189700      -0.00000000      -0.00046501       0.00011865
H       -0.88314000       0.50988100      -1.48189700      -0.00040271       0.00023250       0.00011865
H        0.88314000       0.50988100      -1.48189700       0.00040271       0.00023250       0.00011865
H        0.00000000       1.39123400       1.61297900      -0.00000000       0.00061692      -0.00013261
H       -1.20484400      -0.69561700       1.61297900      -0.00053427      -0.00030846      -0.00013261
H        1.20484400      -0.69561700       1.61297900       0.00053427      -0.00030846      -0.00013261
