8
Properties=species:S:1:pos:R:3:forces:R:3 calculation_type=dimer_refinement calculation_label=CH3SiH3/refinement_100/point_092_distance_2.30 d4_functional=r2SCAN d4_method=r2scan d4_energy_eV=-0.024578773438940018 source_geometry=/mnt/ceph/users/cwoodson/dft_calc/diatomics/dimer_jobs/CH3SiH3/refinement_100/point_092_distance_2.30/geometry.in energy=-0.024578773438940018 free_energy=-0.024578773438940018 pbc="F F F"
C        0.00000000       0.00000000      -1.15000000       0.00000000      -0.00000000      -0.01142636
Si       0.00000000       0.00000000       1.15000000      -0.00000000       0.00000000       0.01035408
H        0.00000000      -1.01976200      -1.54189700      -0.00000000      -0.00057498       0.00012398
H       -0.88314000       0.50988100      -1.54189700      -0.00049794       0.00028749       0.00012398
H        0.88314000       0.50988100      -1.54189700       0.00049794       0.00028749       0.00012398
H        0.00000000       1.39123400       1.67297900       0.00000000       0.00173366       0.00023345
H       -1.20484400      -0.69561700       1.67297900      -0.00150140      -0.00086683       0.00023345
H        1.20484400      -0.69561700       1.67297900       0.00150140      -0.00086683       0.00023345
