8
Properties=species:S:1:pos:R:3:forces:R:3 calculation_type=dimer_refinement calculation_label=CH3SiH3/refinement_100/point_066_distance_2.04 d4_functional=r2SCAN d4_method=r2scan d4_energy_eV=-0.023708801206807916 source_geometry=/mnt/ceph/users/cwoodson/dft_calc/diatomics/dimer_jobs/CH3SiH3/refinement_100/point_066_distance_2.04/geometry.in energy=-0.023708801206807916 free_energy=-0.023708801206807916 pbc="F F F"
C        0.00000000       0.00000000      -1.02000000      -0.00000000      -0.00000000       0.00062545
Si       0.00000000       0.00000000       1.02000000      -0.00000000       0.00000000      -0.00038143
H        0.00000000      -1.01976200      -1.41189700       0.00000000      -0.00029269       0.00013236
H       -0.88314000       0.50988100      -1.41189700      -0.00025348       0.00014635       0.00013236
H        0.88314000       0.50988100      -1.41189700       0.00025348       0.00014635       0.00013236
H        0.00000000       1.39123400       1.54297900       0.00000000       0.00025065      -0.00021370
H       -1.20484400      -0.69561700       1.54297900      -0.00021707      -0.00012533      -0.00021370
H        1.20484400      -0.69561700       1.54297900       0.00021707      -0.00012533      -0.00021370
