8
Properties=species:S:1:pos:R:3:forces:R:3 calculation_type=dimer_refinement calculation_label=CH3SiH3/refinement_100/point_065_distance_2.03 d4_functional=r2SCAN d4_method=r2scan d4_energy_eV=-0.02371945571447975 source_geometry=/mnt/ceph/users/cwoodson/dft_calc/diatomics/dimer_jobs/CH3SiH3/refinement_100/point_065_distance_2.03/geometry.in energy=-0.02371945571447975 free_energy=-0.02371945571447975 pbc="F F F"
C        0.00000000       0.00000000      -1.01500000       0.00000000      -0.00000000       0.00071482
Si       0.00000000       0.00000000       1.01500000       0.00000000       0.00000000      -0.00046707
H        0.00000000      -1.01976200      -1.40689700       0.00000000      -0.00028777       0.00013052
H       -0.88314000       0.50988100      -1.40689700      -0.00024922       0.00014389       0.00013052
H        0.88314000       0.50988100      -1.40689700       0.00024922       0.00014389       0.00013052
H        0.00000000       1.39123400       1.53797900      -0.00000000       0.00024174      -0.00021310
H       -1.20484400      -0.69561700       1.53797900      -0.00020936      -0.00012087      -0.00021310
H        1.20484400      -0.69561700       1.53797900       0.00020936      -0.00012087      -0.00021310
