8
Properties=species:S:1:pos:R:3:forces:R:3 calculation_type=dimer_refinement calculation_label=CH3SiH3/refinement_100/point_067_distance_2.05 d4_functional=r2SCAN d4_method=r2scan d4_energy_eV=-0.023699047799152162 source_geometry=/mnt/ceph/users/cwoodson/dft_calc/diatomics/dimer_jobs/CH3SiH3/refinement_100/point_067_distance_2.05/geometry.in energy=-0.023699047799152162 free_energy=-0.023699047799152162 pbc="F F F"
C        0.00000000       0.00000000      -1.02500000       0.00000000      -0.00000000       0.00052402
Si       0.00000000       0.00000000       1.02500000       0.00000000       0.00000000      -0.00028435
H        0.00000000      -1.01976200      -1.41689700       0.00000000      -0.00029829       0.00013395
H       -0.88314000       0.50988100      -1.41689700      -0.00025833       0.00014914       0.00013395
H        0.88314000       0.50988100      -1.41689700       0.00025833       0.00014914       0.00013395
H        0.00000000       1.39123400       1.54797900      -0.00000000       0.00026081      -0.00021384
H       -1.20484400      -0.69561700       1.54797900      -0.00022587      -0.00013040      -0.00021384
H        1.20484400      -0.69561700       1.54797900       0.00022587      -0.00013040      -0.00021384
