8
Properties=species:S:1:pos:R:3:forces:R:3 calculation_type=dimer_refinement calculation_label=CH3SiH3/refinement_100/point_039_distance_1.77 d4_functional=r2SCAN d4_method=r2scan d4_energy_eV=-0.024097847656149092 source_geometry=/mnt/ceph/users/cwoodson/dft_calc/diatomics/dimer_jobs/CH3SiH3/refinement_100/point_039_distance_1.77/geometry.in energy=-0.024097847656149092 free_energy=-0.024097847656149092 pbc="F F F"
C        0.00000000       0.00000000      -0.88500000       0.00000000      -0.00000000       0.00135462
Si       0.00000000       0.00000000       0.88500000       0.00000000       0.00000000      -0.00107205
H        0.00000000      -1.01976200      -1.27689700      -0.00000000      -0.00027395       0.00003559
H       -0.88314000       0.50988100      -1.27689700      -0.00023725       0.00013698       0.00003559
H        0.88314000       0.50988100      -1.27689700       0.00023725       0.00013698       0.00003559
H        0.00000000       1.39123400       1.40797900      -0.00000000       0.00019638      -0.00012978
H       -1.20484400      -0.69561700       1.40797900      -0.00017007      -0.00009819      -0.00012978
H        1.20484400      -0.69561700       1.40797900       0.00017007      -0.00009819      -0.00012978
