8
Properties=species:S:1:pos:R:3:forces:R:3 calculation_type=dimer_refinement calculation_label=CH3SiH3/refinement_100/point_042_distance_1.80 d4_functional=r2SCAN d4_method=r2scan d4_energy_eV=-0.024053433987933148 source_geometry=/mnt/ceph/users/cwoodson/dft_calc/diatomics/dimer_jobs/CH3SiH3/refinement_100/point_042_distance_1.80/geometry.in energy=-0.024053433987933148 free_energy=-0.024053433987933148 pbc="F F F"
C        0.00000000       0.00000000      -0.90000000      -0.00000000      -0.00000000       0.00134733
Si       0.00000000       0.00000000       0.90000000       0.00000000       0.00000000      -0.00107214
H        0.00000000      -1.01976200      -1.29189700       0.00000000      -0.00026951       0.00005016
H       -0.88314000       0.50988100      -1.29189700      -0.00023340       0.00013475       0.00005016
H        0.88314000       0.50988100      -1.29189700       0.00023340       0.00013475       0.00005016
H        0.00000000       1.39123400       1.42297900      -0.00000000       0.00019407      -0.00014189
H       -1.20484400      -0.69561700       1.42297900      -0.00016807      -0.00009704      -0.00014189
H        1.20484400      -0.69561700       1.42297900       0.00016807      -0.00009704      -0.00014189
