8
Properties=species:S:1:pos:R:3:forces:R:3 calculation_type=dimer_refinement calculation_label=CH3SiH3/refinement_100/point_021_distance_1.59 d4_functional=r2SCAN d4_method=r2scan d4_energy_eV=-0.024325034306795203 source_geometry=/mnt/ceph/users/cwoodson/dft_calc/diatomics/dimer_jobs/CH3SiH3/refinement_100/point_021_distance_1.59/geometry.in energy=-0.024325034306795203 free_energy=-0.024325034306795203 pbc="F F F"
C        0.00000000       0.00000000      -0.79500000      -0.00000000      -0.00000000       0.00132810
Si       0.00000000       0.00000000       0.79500000      -0.00000000       0.00000000      -0.00077450
H        0.00000000      -1.01976200      -1.18689700       0.00000000      -0.00034270      -0.00011999
H       -0.88314000       0.50988100      -1.18689700      -0.00029679       0.00017135      -0.00011999
H        0.88314000       0.50988100      -1.18689700       0.00029679       0.00017135      -0.00011999
H        0.00000000       1.39123400       1.31797900       0.00000000       0.00019912      -0.00006454
H       -1.20484400      -0.69561700       1.31797900      -0.00017244      -0.00009956      -0.00006454
H        1.20484400      -0.69561700       1.31797900       0.00017244      -0.00009956      -0.00006454
