8
Properties=species:S:1:pos:R:3:forces:R:3 calculation_type=dimer_refinement calculation_label=CH3SiH3/refinement_100/point_014_distance_1.52 d4_functional=r2SCAN d4_method=r2scan d4_energy_eV=-0.024380451771526274 source_geometry=/mnt/ceph/users/cwoodson/dft_calc/diatomics/dimer_jobs/CH3SiH3/refinement_100/point_014_distance_1.52/geometry.in energy=-0.024380451771526274 free_energy=-0.024380451771526274 pbc="F F F"
C        0.00000000       0.00000000      -0.76000000      -0.00000000      -0.00000000       0.00130541
Si       0.00000000       0.00000000       0.76000000      -0.00000000       0.00000000      -0.00045599
H        0.00000000      -1.01976200      -1.15189700       0.00000000      -0.00040170      -0.00023508
H       -0.88314000       0.50988100      -1.15189700      -0.00034788       0.00020085      -0.00023508
H        0.88314000       0.50988100      -1.15189700       0.00034788       0.00020085      -0.00023508
H        0.00000000       1.39123400       1.28297900       0.00000000       0.00018144      -0.00004806
H       -1.20484400      -0.69561700       1.28297900      -0.00015713      -0.00009072      -0.00004806
H        1.20484400      -0.69561700       1.28297900       0.00015713      -0.00009072      -0.00004806
