8
Properties=species:S:1:pos:R:3:forces:R:3 calculation_type=dimer_refinement calculation_label=CH3SiH3/refinement_100/point_089_distance_2.27 d4_functional=r2SCAN d4_method=r2scan d4_energy_eV=-0.024272115333623282 source_geometry=/mnt/ceph/users/cwoodson/dft_calc/diatomics/dimer_jobs/CH3SiH3/refinement_100/point_089_distance_2.27/geometry.in energy=-0.024272115333623282 free_energy=-0.024272115333623282 pbc="F F F"
C        0.00000000       0.00000000      -1.13500000      -0.00000000      -0.00000000      -0.00953774
Si       0.00000000       0.00000000       1.13500000       0.00000000       0.00000000       0.00887789
H        0.00000000      -1.01976200      -1.52689700       0.00000000      -0.00060712       0.00009917
H       -0.88314000       0.50988100      -1.52689700      -0.00052578       0.00030356       0.00009917
H        0.88314000       0.50988100      -1.52689700       0.00052578       0.00030356       0.00009917
H        0.00000000       1.39123400       1.65797900       0.00000000       0.00139707       0.00012078
H       -1.20484400      -0.69561700       1.65797900      -0.00120990      -0.00069854       0.00012078
H        1.20484400      -0.69561700       1.65797900       0.00120990      -0.00069854       0.00012078
