8
Properties=species:S:1:pos:R:3:forces:R:3 calculation_type=dimer_refinement calculation_label=CH3SiH3/refinement_100/point_005_distance_1.43 d4_functional=r2SCAN d4_method=r2scan d4_energy_eV=-0.024410404450786526 source_geometry=/mnt/ceph/users/cwoodson/dft_calc/diatomics/dimer_jobs/CH3SiH3/refinement_100/point_005_distance_1.43/geometry.in energy=-0.024410404450786526 free_energy=-0.024410404450786526 pbc="F F F"
C        0.00000000       0.00000000      -0.71500000       0.00000000      -0.00000000       0.00127459
Si       0.00000000       0.00000000       0.71500000      -0.00000000       0.00000000       0.00002769
H        0.00000000      -1.01976200      -1.10689700      -0.00000000      -0.00049383      -0.00040315
H       -0.88314000       0.50988100      -1.10689700      -0.00042767       0.00024692      -0.00040315
H        0.88314000       0.50988100      -1.10689700       0.00042767       0.00024692      -0.00040315
H        0.00000000       1.39123400       1.23797900       0.00000000       0.00015289      -0.00003094
H       -1.20484400      -0.69561700       1.23797900      -0.00013240      -0.00007644      -0.00003094
H        1.20484400      -0.69561700       1.23797900       0.00013240      -0.00007644      -0.00003094
