8
Properties=species:S:1:pos:R:3:forces:R:3 calculation_type=dimer_refinement calculation_label=CH3SiH3/refinement_100/point_091_distance_2.29 d4_functional=r2SCAN d4_method=r2scan d4_energy_eV=-0.024470631458083703 source_geometry=/mnt/ceph/users/cwoodson/dft_calc/diatomics/dimer_jobs/CH3SiH3/refinement_100/point_091_distance_2.29/geometry.in energy=-0.024470631458083703 free_energy=-0.024470631458083703 pbc="F F F"
C        0.00000000       0.00000000      -1.14500000      -0.00000000      -0.00000000      -0.01089263
Si       0.00000000       0.00000000       1.14500000       0.00000000       0.00000000       0.00996156
H        0.00000000      -1.01976200      -1.53689700       0.00000000      -0.00059237       0.00011309
H       -0.88314000       0.50988100      -1.53689700      -0.00051301       0.00029618       0.00011309
H        0.88314000       0.50988100      -1.53689700       0.00051301       0.00029618       0.00011309
H        0.00000000       1.39123400       1.66797900       0.00000000       0.00162515       0.00019727
H       -1.20484400      -0.69561700       1.66797900      -0.00140742      -0.00081258       0.00019727
H        1.20484400      -0.69561700       1.66797900       0.00140742      -0.00081258       0.00019727
