8
Properties=species:S:1:pos:R:3:forces:R:3 calculation_type=dimer_refinement calculation_label=CH3SiH3/refinement_100/point_064_distance_2.02 d4_functional=r2SCAN d4_method=r2scan d4_energy_eV=-0.02373089102423966 source_geometry=/mnt/ceph/users/cwoodson/dft_calc/diatomics/dimer_jobs/CH3SiH3/refinement_100/point_064_distance_2.02/geometry.in energy=-0.02373089102423966 free_energy=-0.02373089102423966 pbc="F F F"
C        0.00000000       0.00000000      -1.01000000       0.00000000      -0.00000000       0.00079362
Si       0.00000000       0.00000000       1.01000000       0.00000000       0.00000000      -0.00054267
H        0.00000000      -1.01976200      -1.40189700       0.00000000      -0.00028347       0.00012844
H       -0.88314000       0.50988100      -1.40189700      -0.00024549       0.00014173       0.00012844
H        0.88314000       0.50988100      -1.40189700       0.00024549       0.00014173       0.00012844
H        0.00000000       1.39123400       1.53297900      -0.00000000       0.00023394      -0.00021209
H       -1.20484400      -0.69561700       1.53297900      -0.00020259      -0.00011697      -0.00021209
H        1.20484400      -0.69561700       1.53297900       0.00020259      -0.00011697      -0.00021209
