8
Properties=species:S:1:pos:R:3:forces:R:3 calculation_type=dimer_refinement calculation_label=CH3SiH3/refinement_41/point_008_distance_1.740000 d4_functional=r2SCAN d4_method=r2scan d4_energy_eV=-0.024135831509173464 source_geometry=/mnt/ceph/users/cwoodson/dft_calc/diatomics/dimer_jobs/CH3SiH3/refinement_41/point_008_distance_1.740000/geometry.in energy=-0.024135831509173464 free_energy=-0.024135831509173464 pbc="F F F"
C        0.00000000       0.00000279      -0.87000000       0.00000000      -0.00000000       0.00134665
Si       0.00000000      -0.00000279       0.87000000       0.00000000      -0.00000000      -0.00102063
H       -0.00000100      -1.01749221      -1.25773400      -0.00000000      -0.00027571       0.00001845
H       -0.88117700       0.50875179      -1.25772400      -0.00023877       0.00013786       0.00001845
H        0.88117800       0.50874979      -1.25772400       0.00023877       0.00013786       0.00001845
H       -0.00000100       1.38371121       1.39140200      -0.00000000       0.00016616      -0.00012712
H       -1.19833100      -0.69185279       1.39141500      -0.00014389      -0.00008308      -0.00012712
H        1.19833200      -0.69185079       1.39141500       0.00014389      -0.00008307      -0.00012712
