8
Properties=species:S:1:pos:R:3:forces:R:3 calculation_type=dimer_refinement calculation_label=CH3SiH3/refinement_100/point_032_distance_1.70 d4_functional=r2SCAN d4_method=r2scan d4_energy_eV=-0.02419607501530749 source_geometry=/mnt/ceph/users/cwoodson/dft_calc/diatomics/dimer_jobs/CH3SiH3/refinement_100/point_032_distance_1.70/geometry.in energy=-0.02419607501530749 free_energy=-0.02419607501530749 pbc="F F F"
C        0.00000000       0.00000000      -0.85000000       0.00000000      -0.00000000       0.00135399
Si       0.00000000       0.00000000       0.85000000       0.00000000       0.00000000      -0.00102867
H        0.00000000      -1.01976200      -1.24189700       0.00000000      -0.00028989      -0.00000644
H       -0.88314000       0.50988100      -1.24189700      -0.00025105       0.00014495      -0.00000644
H        0.88314000       0.50988100      -1.24189700       0.00025105       0.00014495      -0.00000644
H        0.00000000       1.39123400       1.37297900      -0.00000000       0.00020195      -0.00010200
H       -1.20484400      -0.69561700       1.37297900      -0.00017489      -0.00010097      -0.00010200
H        1.20484400      -0.69561700       1.37297900       0.00017489      -0.00010097      -0.00010200
