8
Properties=species:S:1:pos:R:3:forces:R:3 calculation_type=dimer_refinement calculation_label=CH3SiH3/refinement_41/point_021_distance_1.870000 d4_functional=r2SCAN d4_method=r2scan d4_energy_eV=-0.023942872286411124 source_geometry=/mnt/ceph/users/cwoodson/dft_calc/diatomics/dimer_jobs/CH3SiH3/refinement_41/point_021_distance_1.870000/geometry.in energy=-0.023942872286411124 free_energy=-0.023942872286411124 pbc="F F F"
C        0.00000000       0.00000300      -0.93500000       0.00000000      -0.00000000       0.00129194
Si      -0.00000000      -0.00000300       0.93500000       0.00000000      -0.00000000      -0.00099335
H       -0.00000100      -1.01749200      -1.32273400      -0.00000000      -0.00025864       0.00007997
H       -0.88117700       0.50875200      -1.32272400      -0.00022398       0.00012932       0.00007997
H        0.88117800       0.50875000      -1.32272400       0.00022398       0.00012932       0.00007997
H       -0.00000100       1.38371100       1.45640200      -0.00000000       0.00015738      -0.00017950
H       -1.19833100      -0.69185300       1.45641500      -0.00013629      -0.00007869      -0.00017950
H        1.19833200      -0.69185100       1.45641500       0.00013629      -0.00007869      -0.00017950
