8
Properties=species:S:1:pos:R:3:forces:R:3 calculation_type=dimer_refinement calculation_label=CH3SiH3/refinement_100/point_051_distance_1.89 d4_functional=r2SCAN d4_method=r2scan d4_energy_eV=-0.02391599266731462 source_geometry=/mnt/ceph/users/cwoodson/dft_calc/diatomics/dimer_jobs/CH3SiH3/refinement_100/point_051_distance_1.89/geometry.in energy=-0.02391599266731462 free_energy=-0.02391599266731462 pbc="F F F"
C        0.00000000       0.00000000      -0.94500000       0.00000000      -0.00000000       0.00127298
Si       0.00000000       0.00000000       0.94500000       0.00000000       0.00000000      -0.00100563
H        0.00000000      -1.01976200      -1.33689700      -0.00000000      -0.00026309       0.00008770
H       -0.88314000       0.50988100      -1.33689700      -0.00022785       0.00013155       0.00008770
H        0.88314000       0.50988100      -1.33689700       0.00022785       0.00013155       0.00008770
H        0.00000000       1.39123400       1.46797900      -0.00000000       0.00019261      -0.00017682
H       -1.20484400      -0.69561700       1.46797900      -0.00016681      -0.00009631      -0.00017682
H        1.20484400      -0.69561700       1.46797900       0.00016681      -0.00009631      -0.00017682
