8
Properties=species:S:1:pos:R:3:forces:R:3 calculation_type=dimer_refinement calculation_label=CH3SiH3/refinement_41/point_016_distance_1.820000 d4_functional=r2SCAN d4_method=r2scan d4_energy_eV=-0.024018988779913108 source_geometry=/mnt/ceph/users/cwoodson/dft_calc/diatomics/dimer_jobs/CH3SiH3/refinement_41/point_016_distance_1.820000/geometry.in energy=-0.024018988779913108 free_energy=-0.024018988779913108 pbc="F F F"
C        0.00000000       0.00000292      -0.91000000       0.00000000      -0.00000000       0.00133003
Si       0.00000000      -0.00000292       0.91000000       0.00000000      -0.00000000      -0.00102788
H       -0.00000100      -1.01749208      -1.29773400      -0.00000000      -0.00026266       0.00005892
H       -0.88117700       0.50875192      -1.29772400      -0.00022747       0.00013133       0.00005892
H        0.88117800       0.50874992      -1.29772400       0.00022747       0.00013133       0.00005892
H       -0.00000100       1.38371108       1.43140200      -0.00000000       0.00015933      -0.00015963
H       -1.19833100      -0.69185292       1.43141500      -0.00013798      -0.00007966      -0.00015963
H        1.19833200      -0.69185092       1.43141500       0.00013798      -0.00007966      -0.00015963
