8
Properties=species:S:1:pos:R:3:forces:R:3 calculation_type=dimer_refinement calculation_label=CH3SiH3/refinement_41/point_032_distance_1.980000 d4_functional=r2SCAN d4_method=r2scan d4_energy_eV=-0.023778855441770653 source_geometry=/mnt/ceph/users/cwoodson/dft_calc/diatomics/dimer_jobs/CH3SiH3/refinement_41/point_032_distance_1.980000/geometry.in energy=-0.023778855441770653 free_energy=-0.023778855441770653 pbc="F F F"
C        0.00000000       0.00000318      -0.99000000       0.00000000      -0.00000000       0.00102928
Si      -0.00000000      -0.00000318       0.99000000       0.00000000      -0.00000000      -0.00073554
H       -0.00000100      -1.01749182      -1.37773400      -0.00000000      -0.00026457       0.00011907
H       -0.88117700       0.50875218      -1.37772400      -0.00022912       0.00013228       0.00011907
H        0.88117800       0.50875018      -1.37772400       0.00022912       0.00013228       0.00011907
H       -0.00000100       1.38371082       1.51140200      -0.00000000       0.00017174      -0.00021698
H       -1.19833100      -0.69185318       1.51141500      -0.00014873      -0.00008587      -0.00021698
H        1.19833200      -0.69185118       1.51141500       0.00014873      -0.00008587      -0.00021698
