8
Properties=species:S:1:pos:R:3:forces:R:3 calculation_type=dimer_refinement calculation_label=CH3SiH3/refinement_41/point_005_distance_1.710000 d4_functional=r2SCAN d4_method=r2scan d4_energy_eV=-0.024177033362566068 source_geometry=/mnt/ceph/users/cwoodson/dft_calc/diatomics/dimer_jobs/CH3SiH3/refinement_41/point_005_distance_1.710000/geometry.in energy=-0.024177033362566068 free_energy=-0.024177033362566068 pbc="F F F"
C        0.00000000       0.00000275      -0.85500000       0.00000000      -0.00000000       0.00134478
Si       0.00000000      -0.00000275       0.85500000       0.00000000      -0.00000000      -0.00099723
H       -0.00000100      -1.01749225      -1.24273400      -0.00000000      -0.00028328      -0.00000067
H       -0.88117700       0.50875175      -1.24272400      -0.00024533       0.00014164      -0.00000067
H        0.88117800       0.50874975      -1.24272400       0.00024533       0.00014164      -0.00000067
H       -0.00000100       1.38371125       1.37640200      -0.00000000       0.00016876      -0.00011518
H       -1.19833100      -0.69185275       1.37641500      -0.00014615      -0.00008438      -0.00011518
H        1.19833200      -0.69185075       1.37641500       0.00014615      -0.00008438      -0.00011518
