8
Properties=species:S:1:pos:R:3:forces:R:3 calculation_type=dimer_refinement calculation_label=CH3SiH3/refinement_100/point_013_distance_1.51 d4_functional=r2SCAN d4_method=r2scan d4_energy_eV=-0.024386161294134984 source_geometry=/mnt/ceph/users/cwoodson/dft_calc/diatomics/dimer_jobs/CH3SiH3/refinement_100/point_013_distance_1.51/geometry.in energy=-0.024386161294134984 free_energy=-0.024386161294134984 pbc="F F F"
C        0.00000000       0.00000000      -0.75500000      -0.00000000      -0.00000000       0.00130201
Si       0.00000000       0.00000000       0.75500000      -0.00000000       0.00000000      -0.00040316
H        0.00000000      -1.01976200      -1.14689700      -0.00000000      -0.00041144      -0.00025347
H       -0.88314000       0.50988100      -1.14689700      -0.00035632       0.00020572      -0.00025347
H        0.88314000       0.50988100      -1.14689700       0.00035632       0.00020572      -0.00025347
H        0.00000000       1.39123400       1.27797900       0.00000000       0.00017801      -0.00004614
H       -1.20484400      -0.69561700       1.27797900      -0.00015416      -0.00008901      -0.00004614
H        1.20484400      -0.69561700       1.27797900       0.00015416      -0.00008901      -0.00004614
