8
Properties=species:S:1:pos:R:3:forces:R:3 calculation_type=dimer_refinement calculation_label=CH3SiH3/refinement_41/point_020_distance_1.860000 d4_functional=r2SCAN d4_method=r2scan d4_energy_eV=-0.023958182145562723 source_geometry=/mnt/ceph/users/cwoodson/dft_calc/diatomics/dimer_jobs/CH3SiH3/refinement_41/point_020_distance_1.860000/geometry.in energy=-0.023958182145562723 free_energy=-0.023958182145562723 pbc="F F F"
C        0.00000000       0.00000299      -0.93000000       0.00000000      -0.00000000       0.00130204
Si       0.00000000      -0.00000299       0.93000000       0.00000000      -0.00000000      -0.00100303
H       -0.00000100      -1.01749201      -1.31773400      -0.00000000      -0.00025918       0.00007593
H       -0.88117700       0.50875199      -1.31772400      -0.00022446       0.00012959       0.00007593
H        0.88117800       0.50874999      -1.31772400       0.00022446       0.00012959       0.00007593
H       -0.00000100       1.38371101       1.45140200      -0.00000000       0.00015752      -0.00017560
H       -1.19833100      -0.69185299       1.45141500      -0.00013641      -0.00007876      -0.00017560
H        1.19833200      -0.69185099       1.45141500       0.00013641      -0.00007876      -0.00017560
