8
Properties=species:S:1:pos:R:3:forces:R:3 calculation_type=dimer_refinement calculation_label=CH3SiH3/refinement_100/point_053_distance_1.91 d4_functional=r2SCAN d4_method=r2scan d4_energy_eV=-0.023885369004131015 source_geometry=/mnt/ceph/users/cwoodson/dft_calc/diatomics/dimer_jobs/CH3SiH3/refinement_100/point_053_distance_1.91/geometry.in energy=-0.023885369004131015 free_energy=-0.023885369004131015 pbc="F F F"
C        0.00000000       0.00000000      -0.95500000      -0.00000000      -0.00000000       0.00123928
Si       0.00000000       0.00000000       0.95500000       0.00000000       0.00000000      -0.00097290
H        0.00000000      -1.01976200      -1.34689700      -0.00000000      -0.00026330       0.00009513
H       -0.88314000       0.50988100      -1.34689700      -0.00022802       0.00013165       0.00009513
H        0.88314000       0.50988100      -1.34689700       0.00022802       0.00013165       0.00009513
H        0.00000000       1.39123400       1.47797900      -0.00000000       0.00019433      -0.00018392
H       -1.20484400      -0.69561700       1.47797900      -0.00016829      -0.00009716      -0.00018392
H        1.20484400      -0.69561700       1.47797900       0.00016829      -0.00009716      -0.00018392
