8
Properties=species:S:1:pos:R:3:forces:R:3 calculation_type=dimer_refinement calculation_label=CH3SiH3/refinement_100/point_008_distance_1.46 d4_functional=r2SCAN d4_method=r2scan d4_energy_eV=-0.024405787190622395 source_geometry=/mnt/ceph/users/cwoodson/dft_calc/diatomics/dimer_jobs/CH3SiH3/refinement_100/point_008_distance_1.46/geometry.in energy=-0.024405787190622395 free_energy=-0.024405787190622395 pbc="F F F"
C        0.00000000       0.00000000      -0.73000000      -0.00000000      -0.00000000       0.00128480
Si       0.00000000       0.00000000       0.73000000       0.00000000       0.00000000      -0.00013193
H        0.00000000      -1.01976200      -1.12189700       0.00000000      -0.00046239      -0.00034727
H       -0.88314000       0.50988100      -1.12189700      -0.00040044       0.00023120      -0.00034727
H        0.88314000       0.50988100      -1.12189700       0.00040044       0.00023120      -0.00034727
H        0.00000000       1.39123400       1.25297900      -0.00000000       0.00016072      -0.00003702
H       -1.20484400      -0.69561700       1.25297900      -0.00013919      -0.00008036      -0.00003702
H        1.20484400      -0.69561700       1.25297900       0.00013919      -0.00008036      -0.00003702
