2
Properties=species:S:1:pos:R:3:forces:R:3 calculation_type=dimer_refinement calculation_label=LiCl/refinement_100/point_060_distance_2.11 d4_functional=r2SCAN d4_method=r2scan d4_energy_eV=-0.002394301280743909 source_geometry=/mnt/ceph/users/cwoodson/dft_calc/diatomics/dimer_jobs/LiCl/refinement_100/point_060_distance_2.11/geometry.in energy=-0.002394301280743909 free_energy=-0.002394301280743909 pbc="F F F"
Li       0.00000000       0.00000000      -1.05500000      -0.00000000      -0.00000000      -0.00006061
Cl       0.00000000       0.00000000       1.05500000      -0.00000000      -0.00000000       0.00006061
