2
Properties=species:S:1:pos:R:3:forces:R:3 calculation_type=dimer_refinement calculation_label=LiCl/refinement_100/point_011_distance_1.62 d4_functional=r2SCAN d4_method=r2scan d4_energy_eV=-0.0023762134516553185 source_geometry=/mnt/ceph/users/cwoodson/dft_calc/diatomics/dimer_jobs/LiCl/refinement_100/point_011_distance_1.62/geometry.in energy=-0.0023762134516553185 free_energy=-0.0023762134516553185 pbc="F F F"
Li       0.00000000       0.00000000      -0.81000000      -0.00000000      -0.00000000      -0.00005024
Cl       0.00000000       0.00000000       0.81000000      -0.00000000      -0.00000000       0.00005024
