2
Properties=species:S:1:pos:R:3:forces:R:3 calculation_type=dimer_refinement calculation_label=LiCl/refinement_100/point_084_distance_2.35 d4_functional=r2SCAN d4_method=r2scan d4_energy_eV=-0.0024473051472030175 source_geometry=/mnt/ceph/users/cwoodson/dft_calc/diatomics/dimer_jobs/LiCl/refinement_100/point_084_distance_2.35/geometry.in energy=-0.0024473051472030175 free_energy=-0.0024473051472030175 pbc="F F F"
Li       0.00000000       0.00000000      -1.17500000      -0.00000000      -0.00000000      -0.00054049
Cl       0.00000000       0.00000000       1.17500000      -0.00000000      -0.00000000       0.00054049
