2
Properties=species:S:1:pos:R:3:forces:R:3 calculation_type=dimer_refinement calculation_label=LiCl/refinement_41/point_041_distance_2.220000 d4_functional=r2SCAN d4_method=r2scan d4_energy_eV=-0.002405734466182384 source_geometry=/mnt/ceph/users/cwoodson/dft_calc/diatomics/dimer_jobs/LiCl/refinement_41/point_041_distance_2.220000/geometry.in energy=-0.002405734466182384 free_energy=-0.002405734466182384 pbc="F F F"
Li       0.00000000       0.00000000      -1.11000000      -0.00000000      -0.00000000      -0.00016624
Cl       0.00000000       0.00000000       1.11000000      -0.00000000      -0.00000000       0.00016624
