2
Properties=species:S:1:pos:R:3:forces:R:3 calculation_type=dimer_refinement calculation_label=LiCl/refinement_100/point_088_distance_2.39 d4_functional=r2SCAN d4_method=r2scan d4_energy_eV=-0.002473139795575091 source_geometry=/mnt/ceph/users/cwoodson/dft_calc/diatomics/dimer_jobs/LiCl/refinement_100/point_088_distance_2.39/geometry.in energy=-0.002473139795575091 free_energy=-0.002473139795575091 pbc="F F F"
Li       0.00000000       0.00000000      -1.19500000      -0.00000000      -0.00000000      -0.00076332
Cl       0.00000000       0.00000000       1.19500000      -0.00000000      -0.00000000       0.00076332
