2
Properties=species:S:1:pos:R:3:forces:R:3 calculation_type=dimer_refinement calculation_label=LiCl/refinement_41/point_001_distance_1.820000 d4_functional=r2SCAN d4_method=r2scan d4_energy_eV=-0.0023844281673515754 source_geometry=/mnt/ceph/users/cwoodson/dft_calc/diatomics/dimer_jobs/LiCl/refinement_41/point_001_distance_1.820000/geometry.in energy=-0.0023844281673515754 free_energy=-0.0023844281673515754 pbc="F F F"
Li       0.00000000       0.00000000      -0.91000000      -0.00000000      -0.00000000      -0.00003273
Cl       0.00000000       0.00000000       0.91000000      -0.00000000      -0.00000000       0.00003273
