2
Properties=species:S:1:pos:R:3:forces:R:3 calculation_type=dimer_refinement calculation_label=LiCl/refinement_100/point_091_distance_2.42 d4_functional=r2SCAN d4_method=r2scan d4_energy_eV=-0.0024992310289117694 source_geometry=/mnt/ceph/users/cwoodson/dft_calc/diatomics/dimer_jobs/LiCl/refinement_100/point_091_distance_2.42/geometry.in energy=-0.0024992310289117694 free_energy=-0.0024992310289117694 pbc="F F F"
Li       0.00000000       0.00000000      -1.21000000      -0.00000000      -0.00000000      -0.00098514
Cl       0.00000000       0.00000000       1.21000000      -0.00000000      -0.00000000       0.00098514
