2
Properties=species:S:1:pos:R:3:forces:R:3 calculation_type=dimer_refinement calculation_label=LiCl/refinement_100/point_086_distance_2.37 d4_functional=r2SCAN d4_method=r2scan d4_energy_eV=-0.0024591107530523523 source_geometry=/mnt/ceph/users/cwoodson/dft_calc/diatomics/dimer_jobs/LiCl/refinement_100/point_086_distance_2.37/geometry.in energy=-0.0024591107530523523 free_energy=-0.0024591107530523523 pbc="F F F"
Li       0.00000000       0.00000000      -1.18500000      -0.00000000      -0.00000000      -0.00064285
Cl       0.00000000       0.00000000       1.18500000      -0.00000000      -0.00000000       0.00064285
