2
Properties=species:S:1:pos:R:3:forces:R:3 calculation_type=dimer_refinement calculation_label=LiCl/refinement_100/point_017_distance_1.68 d4_functional=r2SCAN d4_method=r2scan d4_energy_eV=-0.0023790548383031593 source_geometry=/mnt/ceph/users/cwoodson/dft_calc/diatomics/dimer_jobs/LiCl/refinement_100/point_017_distance_1.68/geometry.in energy=-0.0023790548383031593 free_energy=-0.0023790548383031593 pbc="F F F"
Li       0.00000000       0.00000000      -0.84000000      -0.00000000      -0.00000000      -0.00004452
Cl       0.00000000       0.00000000       0.84000000      -0.00000000      -0.00000000       0.00004452
