2
Properties=species:S:1:pos:R:3:forces:R:3 calculation_type=dimer_refinement calculation_label=LiF/refinement_100/point_099_distance_2.04 d4_functional=r2SCAN d4_method=r2scan d4_energy_eV=-0.0014665583946342304 source_geometry=/mnt/ceph/users/cwoodson/dft_calc/diatomics/dimer_jobs/LiF/refinement_100/point_099_distance_2.04/geometry.in energy=-0.0014665583946342304 free_energy=-0.0014665583946342304 pbc="F F F"
Li       0.00000000       0.00000000      -1.02000000      -0.00000000      -0.00000000      -0.00107280
F        0.00000000       0.00000000       1.02000000      -0.00000000      -0.00000000       0.00107280
