2
Properties=species:S:1:pos:R:3:forces:R:3 calculation_type=dimer_refinement calculation_label=LiF/refinement_41/point_009_distance_1.440000 d4_functional=r2SCAN d4_method=r2scan d4_energy_eV=-0.0013937081987852862 source_geometry=/mnt/ceph/users/cwoodson/dft_calc/diatomics/dimer_jobs/LiF/refinement_41/point_009_distance_1.440000/geometry.in energy=-0.0013937081987852862 free_energy=-0.0013937081987852862 pbc="F F F"
Li       0.00000000       0.00000000      -0.72000000      -0.00000000      -0.00000000       0.00007876
F        0.00000000       0.00000000       0.72000000      -0.00000000      -0.00000000      -0.00007876
