2
Properties=species:S:1:pos:R:3:forces:R:3 calculation_type=dimer_refinement calculation_label=LiF/refinement_100/point_052_distance_1.57 d4_functional=r2SCAN d4_method=r2scan d4_energy_eV=-0.001384320131184236 source_geometry=/mnt/ceph/users/cwoodson/dft_calc/diatomics/dimer_jobs/LiF/refinement_100/point_052_distance_1.57/geometry.in energy=-0.001384320131184236 free_energy=-0.001384320131184236 pbc="F F F"
Li       0.00000000       0.00000000      -0.78500000      -0.00000000      -0.00000000       0.00006522
F        0.00000000       0.00000000       0.78500000      -0.00000000      -0.00000000      -0.00006522
