2
Properties=species:S:1:pos:R:3:forces:R:3 calculation_type=dimer_refinement calculation_label=LiF/refinement_100/point_092_distance_1.97 d4_functional=r2SCAN d4_method=r2scan d4_energy_eV=-0.0014126727141990003 source_geometry=/mnt/ceph/users/cwoodson/dft_calc/diatomics/dimer_jobs/LiF/refinement_100/point_092_distance_1.97/geometry.in energy=-0.0014126727141990003 free_energy=-0.0014126727141990003 pbc="F F F"
Li       0.00000000       0.00000000      -0.98500000      -0.00000000      -0.00000000      -0.00052193
F        0.00000000       0.00000000       0.98500000      -0.00000000      -0.00000000       0.00052193
