2
Properties=species:S:1:pos:R:3:forces:R:3 calculation_type=dimer_refinement calculation_label=MgO/refinement_41/point_010_distance_1.640000 d4_functional=r2SCAN d4_method=r2scan d4_energy_eV=-0.004677338068124397 source_geometry=/mnt/ceph/users/cwoodson/dft_calc/diatomics/dimer_jobs/MgO/refinement_41/point_010_distance_1.640000/geometry.in energy=-0.004677338068124397 free_energy=-0.004677338068124397 pbc="F F F"
Mg       0.00000000       0.00000000      -0.82000000      -0.00000000      -0.00000000       0.00079073
O        0.00000000       0.00000000       0.82000000      -0.00000000      -0.00000000      -0.00079073
