2
Properties=species:S:1:pos:R:3:forces:R:3 calculation_type=dimer_refinement calculation_label=MgO/refinement_100/point_039_distance_1.63 d4_functional=r2SCAN d4_method=r2scan d4_energy_eV=-0.004685324598122824 source_geometry=/mnt/ceph/users/cwoodson/dft_calc/diatomics/dimer_jobs/MgO/refinement_100/point_039_distance_1.63/geometry.in energy=-0.004685324598122824 free_energy=-0.004685324598122824 pbc="F F F"
Mg       0.00000000       0.00000000      -0.81500000      -0.00000000      -0.00000000       0.00080664
O        0.00000000       0.00000000       0.81500000      -0.00000000      -0.00000000      -0.00080664
