2
Properties=species:S:1:pos:R:3:forces:R:3 calculation_type=dimer_refinement calculation_label=MgO/refinement_100/point_096_distance_2.20 d4_functional=r2SCAN d4_method=r2scan d4_energy_eV=-0.0045080023833176846 source_geometry=/mnt/ceph/users/cwoodson/dft_calc/diatomics/dimer_jobs/MgO/refinement_100/point_096_distance_2.20/geometry.in energy=-0.0045080023833176846 free_energy=-0.0045080023833176846 pbc="F F F"
Mg       0.00000000       0.00000000      -1.10000000      -0.00000000      -0.00000000      -0.00080773
O        0.00000000       0.00000000       1.10000000      -0.00000000      -0.00000000       0.00080773
