2
Properties=species:S:1:pos:R:3:forces:R:3 calculation_type=dimer_refinement calculation_label=MgO/refinement_100/point_098_distance_2.22 d4_functional=r2SCAN d4_method=r2scan d4_energy_eV=-0.00452653141792752 source_geometry=/mnt/ceph/users/cwoodson/dft_calc/diatomics/dimer_jobs/MgO/refinement_100/point_098_distance_2.22/geometry.in energy=-0.00452653141792752 free_energy=-0.00452653141792752 pbc="F F F"
Mg       0.00000000       0.00000000      -1.11000000      -0.00000000      -0.00000000      -0.00105273
O        0.00000000       0.00000000       1.11000000      -0.00000000      -0.00000000       0.00105273
