2
Properties=species:S:1:pos:R:3:forces:R:3 calculation_type=dimer_refinement calculation_label=MgO/refinement_41/point_012_distance_1.660000 d4_functional=r2SCAN d4_method=r2scan d4_energy_eV=-0.0046618323848956165 source_geometry=/mnt/ceph/users/cwoodson/dft_calc/diatomics/dimer_jobs/MgO/refinement_41/point_012_distance_1.660000/geometry.in energy=-0.0046618323848956165 free_energy=-0.0046618323848956165 pbc="F F F"
Mg       0.00000000       0.00000000      -0.83000000      -0.00000000      -0.00000000       0.00076009
O        0.00000000       0.00000000       0.83000000      -0.00000000      -0.00000000      -0.00076009
