2
Properties=species:S:1:pos:R:3:forces:R:3 calculation_type=dimer_refinement calculation_label=MgO/refinement_100/point_086_distance_2.10 d4_functional=r2SCAN d4_method=r2scan d4_energy_eV=-0.0044694380305713155 source_geometry=/mnt/ceph/users/cwoodson/dft_calc/diatomics/dimer_jobs/MgO/refinement_100/point_086_distance_2.10/geometry.in energy=-0.0044694380305713155 free_energy=-0.0044694380305713155 pbc="F F F"
Mg       0.00000000       0.00000000      -1.05000000      -0.00000000      -0.00000000      -0.00006913
O        0.00000000       0.00000000       1.05000000      -0.00000000      -0.00000000       0.00006913
