2
Properties=species:S:1:pos:R:3:forces:R:3 calculation_type=dimer_refinement calculation_label=MgO/refinement_100/point_084_distance_2.08 d4_functional=r2SCAN d4_method=r2scan d4_energy_eV=-0.004468949879161524 source_geometry=/mnt/ceph/users/cwoodson/dft_calc/diatomics/dimer_jobs/MgO/refinement_100/point_084_distance_2.08/geometry.in energy=-0.004468949879161524 free_energy=-0.004468949879161524 pbc="F F F"
Mg       0.00000000       0.00000000      -1.04000000      -0.00000000      -0.00000000       0.00001808
O        0.00000000       0.00000000       1.04000000      -0.00000000      -0.00000000      -0.00001808
