5
Properties=species:S:1:pos:R:3:forces:R:3 calculation_type=dimer_refinement calculation_label=MgOH2/refinement_41/point_031_distance_1.870000 d4_functional=r2SCAN d4_method=r2scan d4_energy_eV=-0.010827750832764677 source_geometry=/mnt/ceph/users/cwoodson/dft_calc/diatomics/dimer_jobs/MgOH2/refinement_41/point_031_distance_1.870000/geometry.in energy=-0.010827750832764677 free_energy=-0.010827750832764677 pbc="F F F"
Mg       0.00000000       0.00000000       0.00000000       0.00000000       0.00000000      -0.00000000
O       -1.85127358       0.26398131       0.00000000       0.00178042      -0.00020327      -0.00000000
O        1.85127358      -0.26398131       0.00000000      -0.00178042       0.00020327      -0.00000000
H       -2.66767558       0.74382431       0.00000000       0.00030083      -0.00011900      -0.00000000
H        2.66767558      -0.74382431       0.00000000      -0.00030083       0.00011900      -0.00000000
