5
Properties=species:S:1:pos:R:3:forces:R:3 calculation_type=dimer_refinement calculation_label=MgOH2/refinement_41/point_009_distance_1.650000 d4_functional=r2SCAN d4_method=r2scan d4_energy_eV=-0.01181687426025778 source_geometry=/mnt/ceph/users/cwoodson/dft_calc/diatomics/dimer_jobs/MgOH2/refinement_41/point_009_distance_1.650000/geometry.in energy=-0.01181687426025778 free_energy=-0.01181687426025778 pbc="F F F"
Mg       0.00000000       0.00000000       0.00000000      -0.00000000       0.00000000      -0.00000000
O       -1.63347669       0.23292469       0.00000000       0.00212756      -0.00008012      -0.00000000
O        1.63347669      -0.23292469       0.00000000      -0.00212756       0.00008012      -0.00000000
H       -2.44987869       0.71276769       0.00000000      -0.00005169      -0.00013382      -0.00000000
H        2.44987869      -0.71276769       0.00000000       0.00005169       0.00013382      -0.00000000
