5
Properties=species:S:1:pos:R:3:forces:R:3 calculation_type=dimer_refinement calculation_label=MgOH2/refinement_41/point_039_distance_1.950000 d4_functional=r2SCAN d4_method=r2scan d4_energy_eV=-0.010522225357246558 source_geometry=/mnt/ceph/users/cwoodson/dft_calc/diatomics/dimer_jobs/MgOH2/refinement_41/point_039_distance_1.950000/geometry.in energy=-0.010522225357246558 free_energy=-0.010522225357246558 pbc="F F F"
Mg       0.00000000       0.00000000       0.00000000      -0.00000000       0.00000000      -0.00000000
O       -1.93047245       0.27527463       0.00000000       0.00140884      -0.00019133      -0.00000000
O        1.93047245      -0.27527463       0.00000000      -0.00140884       0.00019133      -0.00000000
H       -2.74687445       0.75511763       0.00000000       0.00023419      -0.00007110      -0.00000000
H        2.74687445      -0.75511763       0.00000000      -0.00023419       0.00007110      -0.00000000
