5
Properties=species:S:1:pos:R:3:forces:R:3 calculation_type=dimer_refinement calculation_label=MgOH2/refinement_41/point_033_distance_1.890000 d4_functional=r2SCAN d4_method=r2scan d4_energy_eV=-0.010745143772553596 source_geometry=/mnt/ceph/users/cwoodson/dft_calc/diatomics/dimer_jobs/MgOH2/refinement_41/point_033_distance_1.890000/geometry.in energy=-0.010745143772553596 free_energy=-0.010745143772553596 pbc="F F F"
Mg       0.00000000       0.00000000       0.00000000       0.00000000      -0.00000000      -0.00000000
O       -1.87107330       0.26680464       0.00000000       0.00171173      -0.00020454      -0.00000000
O        1.87107330      -0.26680464       0.00000000      -0.00171173       0.00020454      -0.00000000
H       -2.68747530       0.74664764       0.00000000       0.00028621      -0.00010705      -0.00000000
H        2.68747530      -0.74664764       0.00000000      -0.00028621       0.00010705      -0.00000000
