5
Properties=species:S:1:pos:R:3:forces:R:3 calculation_type=dimer_refinement calculation_label=MgOH2/refinement_41/point_008_distance_1.640000 d4_functional=r2SCAN d4_method=r2scan d4_energy_eV=-0.01185812026707998 source_geometry=/mnt/ceph/users/cwoodson/dft_calc/diatomics/dimer_jobs/MgOH2/refinement_41/point_008_distance_1.640000/geometry.in energy=-0.01185812026707998 free_energy=-0.01185812026707998 pbc="F F F"
Mg       0.00000000       0.00000000       0.00000000      -0.00000000       0.00000000      -0.00000000
O       -1.62357683       0.23151302       0.00000000       0.00213987      -0.00007093      -0.00000000
O        1.62357683      -0.23151302       0.00000000      -0.00213987       0.00007093      -0.00000000
H       -2.43997883       0.71135602       0.00000000      -0.00010830      -0.00012427      -0.00000000
H        2.43997883      -0.71135602       0.00000000       0.00010830       0.00012427      -0.00000000
