5
Properties=species:S:1:pos:R:3:forces:R:3 calculation_type=dimer_refinement calculation_label=MgOH2/refinement_41/point_027_distance_1.830000 d4_functional=r2SCAN d4_method=r2scan d4_energy_eV=-0.011001600558697979 source_geometry=/mnt/ceph/users/cwoodson/dft_calc/diatomics/dimer_jobs/MgOH2/refinement_41/point_027_distance_1.830000/geometry.in energy=-0.011001600558697979 free_energy=-0.011001600558697979 pbc="F F F"
Mg       0.00000000       0.00000000       0.00000000       0.00000000      -0.00000000      -0.00000000
O       -1.81167414       0.25833465       0.00000000       0.00188508      -0.00019425      -0.00000000
O        1.81167414      -0.25833465       0.00000000      -0.00188508       0.00019425      -0.00000000
H       -2.62807614       0.73817765       0.00000000       0.00032097      -0.00014155      -0.00000000
H        2.62807614      -0.73817765       0.00000000      -0.00032097       0.00014155      -0.00000000
