5
Properties=species:S:1:pos:R:3:forces:R:3 calculation_type=dimer_refinement calculation_label=MgOH2/refinement_41/point_002_distance_1.580000 d4_functional=r2SCAN d4_method=r2scan d4_energy_eV=-0.012084315396044439 source_geometry=/mnt/ceph/users/cwoodson/dft_calc/diatomics/dimer_jobs/MgOH2/refinement_41/point_002_distance_1.580000/geometry.in energy=-0.012084315396044439 free_energy=-0.012084315396044439 pbc="F F F"
Mg       0.00000000       0.00000000       0.00000000      -0.00000000       0.00000000      -0.00000000
O       -1.56417768       0.22304303       0.00000000       0.00222784      -0.00000943      -0.00000000
O        1.56417768      -0.22304303       0.00000000      -0.00222784       0.00000943      -0.00000000
H       -2.38057968       0.70288603       0.00000000      -0.00048787      -0.00005849      -0.00000000
H        2.38057968      -0.70288603       0.00000000       0.00048787       0.00005849      -0.00000000
