5
Properties=species:S:1:pos:R:3:forces:R:3 calculation_type=dimer_refinement calculation_label=MgOH2/refinement_41/point_017_distance_1.730000 d4_functional=r2SCAN d4_method=r2scan d4_energy_eV=-0.011461562509093519 source_geometry=/mnt/ceph/users/cwoodson/dft_calc/diatomics/dimer_jobs/MgOH2/refinement_41/point_017_distance_1.730000/geometry.in energy=-0.011461562509093519 free_energy=-0.011461562509093519 pbc="F F F"
Mg       0.00000000       0.00000000       0.00000000      -0.00000000      -0.00000000      -0.00000000
O       -1.71267556       0.24421800       0.00000000       0.00203778      -0.00014331      -0.00000000
O        1.71267556      -0.24421800       0.00000000      -0.00203778       0.00014331      -0.00000000
H       -2.52907756       0.72406100       0.00000000       0.00025046      -0.00017143      -0.00000000
H        2.52907756      -0.72406100       0.00000000      -0.00025046       0.00017143      -0.00000000
