5
Properties=species:S:1:pos:R:3:forces:R:3 calculation_type=dimer_refinement calculation_label=MgOH2/refinement_41/point_011_distance_1.670000 d4_functional=r2SCAN d4_method=r2scan d4_energy_eV=-0.011731770686225624 source_geometry=/mnt/ceph/users/cwoodson/dft_calc/diatomics/dimer_jobs/MgOH2/refinement_41/point_011_distance_1.670000/geometry.in energy=-0.011731770686225624 free_energy=-0.011731770686225624 pbc="F F F"
Mg       0.00000000       0.00000000       0.00000000      -0.00000000       0.00000000      -0.00000000
O       -1.65327641       0.23574802       0.00000000       0.00210420      -0.00009763      -0.00000000
O        1.65327641      -0.23574802       0.00000000      -0.00210420       0.00009763      -0.00000000
H       -2.46967841       0.71559102       0.00000000       0.00004969      -0.00014990      -0.00000000
H        2.46967841      -0.71559102       0.00000000      -0.00004969       0.00014990      -0.00000000
