2
Properties=species:S:1:pos:R:3:forces:R:3 calculation_type=dimer_refinement calculation_label=MgS/refinement_100/point_027_distance_1.93 d4_functional=r2SCAN d4_method=r2scan d4_energy_eV=-0.0077153470702331665 source_geometry=/mnt/ceph/users/cwoodson/dft_calc/diatomics/dimer_jobs/MgS/refinement_100/point_027_distance_1.93/geometry.in energy=-0.0077153470702331665 free_energy=-0.0077153470702331665 pbc="F F F"
Mg       0.00000000       0.00000000      -0.96500000      -0.00000000      -0.00000000       0.00014428
S        0.00000000       0.00000000       0.96500000      -0.00000000      -0.00000000      -0.00014428
