2
Properties=species:S:1:pos:R:3:forces:R:3 calculation_type=dimer_refinement calculation_label=MgS/refinement_41/point_032_distance_2.280000 d4_functional=r2SCAN d4_method=r2scan d4_energy_eV=-0.007665838295276645 source_geometry=/mnt/ceph/users/cwoodson/dft_calc/diatomics/dimer_jobs/MgS/refinement_41/point_032_distance_2.280000/geometry.in energy=-0.007665838295276645 free_energy=-0.007665838295276645 pbc="F F F"
Mg       0.00000000       0.00000000      -1.14000000      -0.00000000      -0.00000000       0.00012944
S        0.00000000       0.00000000       1.14000000      -0.00000000      -0.00000000      -0.00012944
