2
Properties=species:S:1:pos:R:3:forces:R:3 calculation_type=dimer_refinement calculation_label=MgS/refinement_100/point_003_distance_1.69 d4_functional=r2SCAN d4_method=r2scan d4_energy_eV=-0.00775131578478751 source_geometry=/mnt/ceph/users/cwoodson/dft_calc/diatomics/dimer_jobs/MgS/refinement_100/point_003_distance_1.69/geometry.in energy=-0.00775131578478751 free_energy=-0.00775131578478751 pbc="F F F"
Mg       0.00000000       0.00000000      -0.84500000      -0.00000000      -0.00000000       0.00015896
S        0.00000000       0.00000000       0.84500000      -0.00000000      -0.00000000      -0.00015896
