2
Properties=species:S:1:pos:R:3:forces:R:3 calculation_type=dimer_refinement calculation_label=MgS/refinement_41/point_002_distance_1.980000 d4_functional=r2SCAN d4_method=r2scan d4_energy_eV=-0.007708152021707085 source_geometry=/mnt/ceph/users/cwoodson/dft_calc/diatomics/dimer_jobs/MgS/refinement_41/point_002_distance_1.980000/geometry.in energy=-0.007708152021707085 free_energy=-0.007708152021707085 pbc="F F F"
Mg       0.00000000       0.00000000      -0.99000000      -0.00000000      -0.00000000       0.00014363
S        0.00000000       0.00000000       0.99000000      -0.00000000      -0.00000000      -0.00014363
