2
Properties=species:S:1:pos:R:3:forces:R:3 calculation_type=dimer_refinement calculation_label=MgS/refinement_41/point_015_distance_2.110000 d4_functional=r2SCAN d4_method=r2scan d4_energy_eV=-0.0076894987231242535 source_geometry=/mnt/ceph/users/cwoodson/dft_calc/diatomics/dimer_jobs/MgS/refinement_41/point_015_distance_2.110000/geometry.in energy=-0.0076894987231242535 free_energy=-0.0076894987231242535 pbc="F F F"
Mg       0.00000000       0.00000000      -1.05500000      -0.00000000      -0.00000000       0.00014333
S        0.00000000       0.00000000       1.05500000      -0.00000000      -0.00000000      -0.00014333
