2
Properties=species:S:1:pos:R:3:forces:R:3 calculation_type=dimer_refinement calculation_label=MgS/refinement_100/point_012_distance_1.78 d4_functional=r2SCAN d4_method=r2scan d4_energy_eV=-0.007737392278596016 source_geometry=/mnt/ceph/users/cwoodson/dft_calc/diatomics/dimer_jobs/MgS/refinement_100/point_012_distance_1.78/geometry.in energy=-0.007737392278596016 free_energy=-0.007737392278596016 pbc="F F F"
Mg       0.00000000       0.00000000      -0.89000000      -0.00000000      -0.00000000       0.00015097
S        0.00000000       0.00000000       0.89000000      -0.00000000      -0.00000000      -0.00015097
