5
Properties=species:S:1:pos:R:3:forces:R:3 calculation_type=dimer_refinement calculation_label=MgSH2/refinement_41/point_036_distance_2.440000 d4_functional=r2SCAN d4_method=r2scan d4_energy_eV=-0.018840933825265648 source_geometry=/mnt/ceph/users/cwoodson/dft_calc/diatomics/dimer_jobs/MgSH2/refinement_41/point_036_distance_2.440000/geometry.in energy=-0.018840933825265648 free_energy=-0.018840933825265648 pbc="F F F"
Mg       0.00000000       0.00000000       0.00000000      -0.00000000       0.00000000      -0.00000000
S       -2.42795327      -0.24216304       0.00000000       0.00282181      -0.00045133      -0.00000000
S        2.42795327       0.24216304       0.00000000      -0.00282181       0.00045133      -0.00000000
H       -2.61226527       1.08673396       0.00000000       0.00073311       0.00037610      -0.00000000
H        2.61226527      -1.08673396       0.00000000      -0.00073311      -0.00037610      -0.00000000
