5
Properties=species:S:1:pos:R:3:forces:R:3 calculation_type=dimer_refinement calculation_label=MgSH2/refinement_41/point_003_distance_2.110000 d4_functional=r2SCAN d4_method=r2scan d4_energy_eV=-0.021369327873213696 source_geometry=/mnt/ceph/users/cwoodson/dft_calc/diatomics/dimer_jobs/MgSH2/refinement_41/point_003_distance_2.110000/geometry.in energy=-0.021369327873213696 free_energy=-0.021369327873213696 pbc="F F F"
Mg       0.00000000       0.00000000       0.00000000       0.00000000       0.00000000      -0.00000000
S       -2.09958254      -0.20941148       0.00000000       0.00294176      -0.00060533      -0.00000000
S        2.09958254       0.20941148       0.00000000      -0.00294176       0.00060533      -0.00000000
H       -2.28389454       1.11948552      -0.00000000       0.00076899       0.00044928      -0.00000000
H        2.28389454      -1.11948552      -0.00000000      -0.00076899      -0.00044928      -0.00000000
