5
Properties=species:S:1:pos:R:3:forces:R:3 calculation_type=dimer_refinement calculation_label=MgSH2/refinement_41/point_039_distance_2.470000 d4_functional=r2SCAN d4_method=r2scan d4_energy_eV=-0.018634240662166953 source_geometry=/mnt/ceph/users/cwoodson/dft_calc/diatomics/dimer_jobs/MgSH2/refinement_41/point_039_distance_2.470000/geometry.in energy=-0.018634240662166953 free_energy=-0.018634240662166953 pbc="F F F"
Mg       0.00000000       0.00000000       0.00000000      -0.00000000       0.00000000      -0.00000000
S       -2.45780515      -0.24514045       0.00000000       0.00266522      -0.00045451      -0.00000000
S        2.45780515       0.24514045       0.00000000      -0.00266522       0.00045451      -0.00000000
H       -2.64211715       1.08375655       0.00000000       0.00071117       0.00037838      -0.00000000
H        2.64211715      -1.08375655       0.00000000      -0.00071117      -0.00037838      -0.00000000
