5
Properties=species:S:1:pos:R:3:forces:R:3 calculation_type=dimer_refinement calculation_label=MgSH2/refinement_41/point_026_distance_2.340000 d4_functional=r2SCAN d4_method=r2scan d4_energy_eV=-0.019586245361795655 source_geometry=/mnt/ceph/users/cwoodson/dft_calc/diatomics/dimer_jobs/MgSH2/refinement_41/point_026_distance_2.340000/geometry.in energy=-0.019586245361795655 free_energy=-0.019586245361795655 pbc="F F F"
Mg       0.00000000       0.00000000       0.00000000      -0.00000000      -0.00000000      -0.00000000
S       -2.32844698      -0.23223832       0.00000000       0.00309644      -0.00046982      -0.00000000
S        2.32844698       0.23223832       0.00000000      -0.00309644       0.00046982      -0.00000000
H       -2.51275898       1.09665868       0.00000000       0.00080189       0.00037157      -0.00000000
H        2.51275898      -1.09665868       0.00000000      -0.00080189      -0.00037157      -0.00000000
