2
Properties=species:S:1:pos:R:3:forces:R:3 calculation_type=dimer_refinement calculation_label=NaCl/refinement_100/point_006_distance_1.91 d4_functional=r2SCAN d4_method=r2scan d4_energy_eV=-0.0030646510339308805 source_geometry=/mnt/ceph/users/cwoodson/dft_calc/diatomics/dimer_jobs/NaCl/refinement_100/point_006_distance_1.91/geometry.in energy=-0.0030646510339308805 free_energy=-0.0030646510339308805 pbc="F F F"
Na       0.00000000       0.00000000      -0.95500000      -0.00000000      -0.00000000       0.00004754
Cl       0.00000000       0.00000000       0.95500000      -0.00000000      -0.00000000      -0.00004754
