2
Properties=species:S:1:pos:R:3:forces:R:3 calculation_type=dimer_refinement calculation_label=NaCl/refinement_41/point_031_distance_2.460000 d4_functional=r2SCAN d4_method=r2scan d4_energy_eV=-0.003056697444130902 source_geometry=/mnt/ceph/users/cwoodson/dft_calc/diatomics/dimer_jobs/NaCl/refinement_41/point_031_distance_2.460000/geometry.in energy=-0.003056697444130902 free_energy=-0.003056697444130902 pbc="F F F"
Na       0.00000000       0.00000000      -1.23000000      -0.00000000      -0.00000000      -0.00013380
Cl       0.00000000       0.00000000       1.23000000      -0.00000000      -0.00000000       0.00013380
