2
Properties=species:S:1:pos:R:3:forces:R:3 calculation_type=dimer_refinement calculation_label=NaCl/refinement_100/point_045_distance_2.30 d4_functional=r2SCAN d4_method=r2scan d4_energy_eV=-0.003049344960179034 source_geometry=/mnt/ceph/users/cwoodson/dft_calc/diatomics/dimer_jobs/NaCl/refinement_100/point_045_distance_2.30/geometry.in energy=-0.003049344960179034 free_energy=-0.003049344960179034 pbc="F F F"
Na       0.00000000       0.00000000      -1.15000000      -0.00000000      -0.00000000       0.00001009
Cl       0.00000000       0.00000000       1.15000000      -0.00000000      -0.00000000      -0.00001009
