2
Properties=species:S:1:pos:R:3:forces:R:3 calculation_type=dimer_refinement calculation_label=NaCl/refinement_100/point_014_distance_1.99 d4_functional=r2SCAN d4_method=r2scan d4_energy_eV=-0.003060894278684959 source_geometry=/mnt/ceph/users/cwoodson/dft_calc/diatomics/dimer_jobs/NaCl/refinement_100/point_014_distance_1.99/geometry.in energy=-0.003060894278684959 free_energy=-0.003060894278684959 pbc="F F F"
Na       0.00000000       0.00000000      -0.99500000      -0.00000000      -0.00000000       0.00004641
Cl       0.00000000       0.00000000       0.99500000      -0.00000000      -0.00000000      -0.00004641
