2
Properties=species:S:1:pos:R:3:forces:R:3 calculation_type=dimer_refinement calculation_label=NaCl/refinement_100/point_008_distance_1.93 d4_functional=r2SCAN d4_method=r2scan d4_energy_eV=-0.003063703386633721 source_geometry=/mnt/ceph/users/cwoodson/dft_calc/diatomics/dimer_jobs/NaCl/refinement_100/point_008_distance_1.93/geometry.in energy=-0.003063703386633721 free_energy=-0.003063703386633721 pbc="F F F"
Na       0.00000000       0.00000000      -0.96500000      -0.00000000      -0.00000000       0.00004723
Cl       0.00000000       0.00000000       0.96500000      -0.00000000      -0.00000000      -0.00004723
