2
Properties=species:S:1:pos:R:3:forces:R:3 calculation_type=dimer_refinement calculation_label=NaCl/refinement_100/point_009_distance_1.94 d4_functional=r2SCAN d4_method=r2scan d4_energy_eV=-0.0030632317799430594 source_geometry=/mnt/ceph/users/cwoodson/dft_calc/diatomics/dimer_jobs/NaCl/refinement_100/point_009_distance_1.94/geometry.in energy=-0.0030632317799430594 free_energy=-0.0030632317799430594 pbc="F F F"
Na       0.00000000       0.00000000      -0.97000000      -0.00000000      -0.00000000       0.00004709
Cl       0.00000000       0.00000000       0.97000000      -0.00000000      -0.00000000      -0.00004709
