2
Properties=species:S:1:pos:R:3:forces:R:3 calculation_type=dimer_refinement calculation_label=NaCl/refinement_100/point_049_distance_2.34 d4_functional=r2SCAN d4_method=r2scan d4_energy_eV=-0.003049312252614289 source_geometry=/mnt/ceph/users/cwoodson/dft_calc/diatomics/dimer_jobs/NaCl/refinement_100/point_049_distance_2.34/geometry.in energy=-0.003049312252614289 free_energy=-0.003049312252614289 pbc="F F F"
Na       0.00000000       0.00000000      -1.17000000      -0.00000000      -0.00000000      -0.00000968
Cl       0.00000000       0.00000000       1.17000000      -0.00000000      -0.00000000       0.00000968
