2
Properties=species:S:1:pos:R:3:forces:R:3 calculation_type=dimer_refinement calculation_label=NaCl/refinement_41/point_027_distance_2.420000 d4_functional=r2SCAN d4_method=r2scan d4_energy_eV=-0.0030525165726606788 source_geometry=/mnt/ceph/users/cwoodson/dft_calc/diatomics/dimer_jobs/NaCl/refinement_41/point_027_distance_2.420000/geometry.in energy=-0.0030525165726606788 free_energy=-0.0030525165726606788 pbc="F F F"
Na       0.00000000       0.00000000      -1.21000000      -0.00000000      -0.00000000      -0.00007820
Cl       0.00000000       0.00000000       1.21000000      -0.00000000      -0.00000000       0.00007820
