2
Properties=species:S:1:pos:R:3:forces:R:3 calculation_type=dimer_refinement calculation_label=NaCl/refinement_41/point_018_distance_2.330000 d4_functional=r2SCAN d4_method=r2scan d4_energy_eV=-0.0030492441185405264 source_geometry=/mnt/ceph/users/cwoodson/dft_calc/diatomics/dimer_jobs/NaCl/refinement_41/point_018_distance_2.330000/geometry.in energy=-0.0030492441185405264 free_energy=-0.0030492441185405264 pbc="F F F"
Na       0.00000000       0.00000000      -1.16500000      -0.00000000      -0.00000000      -0.00000403
Cl       0.00000000       0.00000000       1.16500000      -0.00000000      -0.00000000       0.00000403
