2
Properties=species:S:1:pos:R:3:forces:R:3 calculation_type=dimer_refinement calculation_label=NaF/refinement_100/point_030_distance_1.73 d4_functional=r2SCAN d4_method=r2scan d4_energy_eV=-0.0018096406060761567 source_geometry=/mnt/ceph/users/cwoodson/dft_calc/diatomics/dimer_jobs/NaF/refinement_100/point_030_distance_1.73/geometry.in energy=-0.0018096406060761567 free_energy=-0.0018096406060761567 pbc="F F F"
Na       0.00000000       0.00000000      -0.86500000      -0.00000000      -0.00000000       0.00014082
F        0.00000000       0.00000000       0.86500000      -0.00000000      -0.00000000      -0.00014082
