2
Properties=species:S:1:pos:R:3:forces:R:3 calculation_type=dimer_refinement calculation_label=NaF/refinement_100/point_092_distance_2.35 d4_functional=r2SCAN d4_method=r2scan d4_energy_eV=-0.0019697693938783532 source_geometry=/mnt/ceph/users/cwoodson/dft_calc/diatomics/dimer_jobs/NaF/refinement_100/point_092_distance_2.35/geometry.in energy=-0.0019697693938783532 free_energy=-0.0019697693938783532 pbc="F F F"
Na       0.00000000       0.00000000      -1.17500000      -0.00000000      -0.00000000      -0.00189121
F        0.00000000       0.00000000       1.17500000      -0.00000000      -0.00000000       0.00189121
