2
Properties=species:S:1:pos:R:3:forces:R:3 calculation_type=dimer_refinement calculation_label=NaF/refinement_41/point_019_distance_1.920000 d4_functional=r2SCAN d4_method=r2scan d4_energy_eV=-0.0017868339313197187 source_geometry=/mnt/ceph/users/cwoodson/dft_calc/diatomics/dimer_jobs/NaF/refinement_41/point_019_distance_1.920000/geometry.in energy=-0.0017868339313197187 free_energy=-0.0017868339313197187 pbc="F F F"
Na       0.00000000       0.00000000      -0.96000000      -0.00000000      -0.00000000       0.00009010
F        0.00000000       0.00000000       0.96000000      -0.00000000      -0.00000000      -0.00009010
