2
Properties=species:S:1:pos:R:3:forces:R:3 calculation_type=dimer_refinement calculation_label=NaF/refinement_41/point_007_distance_1.800000 d4_functional=r2SCAN d4_method=r2scan d4_energy_eV=-0.0018002230770259142 source_geometry=/mnt/ceph/users/cwoodson/dft_calc/diatomics/dimer_jobs/NaF/refinement_41/point_007_distance_1.800000/geometry.in energy=-0.0018002230770259142 free_energy=-0.0018002230770259142 pbc="F F F"
Na       0.00000000       0.00000000      -0.90000000      -0.00000000      -0.00000000       0.00012780
F        0.00000000       0.00000000       0.90000000      -0.00000000      -0.00000000      -0.00012780
