8
Properties=species:S:1:pos:R:3:forces:R:3 calculation_type=dimer_refinement calculation_label=Si2H6/refinement_100/point_003_distance_1.85 d4_functional=r2SCAN d4_method=r2scan d4_energy_eV=-0.031508619366908804 source_geometry=/mnt/ceph/users/cwoodson/dft_calc/diatomics/dimer_jobs/Si2H6/refinement_100/point_003_distance_1.85/geometry.in energy=-0.031508619366908804 free_energy=-0.031508619366908804 pbc="F F F"
Si       0.00000000       0.00000000       0.92500000       0.00000000      -0.00000000      -0.00121620
Si       0.00000000       0.00000000      -0.92500000       0.00000000       0.00000000       0.00121620
H        0.00000000       1.39328600       1.44333700      -0.00000000       0.00014725      -0.00029007
H       -1.20662100      -0.69664300       1.44333700      -0.00012752      -0.00007362      -0.00029007
H        1.20662100      -0.69664300       1.44333700       0.00012752      -0.00007362      -0.00029007
H        0.00000000      -1.39328600      -1.44333700      -0.00000000      -0.00014725       0.00029007
H       -1.20662100       0.69664300      -1.44333700      -0.00012752       0.00007362       0.00029007
H        1.20662100       0.69664300      -1.44333700       0.00012752       0.00007362       0.00029007
