8
Properties=species:S:1:pos:R:3:forces:R:3 calculation_type=dimer_refinement calculation_label=Si2H6/refinement_100/point_050_distance_2.32 d4_functional=r2SCAN d4_method=r2scan d4_energy_eV=-0.0303558799317475 source_geometry=/mnt/ceph/users/cwoodson/dft_calc/diatomics/dimer_jobs/Si2H6/refinement_100/point_050_distance_2.32/geometry.in energy=-0.0303558799317475 free_energy=-0.0303558799317475 pbc="F F F"
Si       0.00000000       0.00000000       1.16000000      -0.00000000      -0.00000000      -0.00120051
Si       0.00000000       0.00000000      -1.16000000       0.00000000       0.00000000       0.00120051
H        0.00000000       1.39328600       1.67833700       0.00000000       0.00013245      -0.00047567
H       -1.20662100      -0.69664300       1.67833700      -0.00011471      -0.00006623      -0.00047567
H        1.20662100      -0.69664300       1.67833700       0.00011471      -0.00006623      -0.00047567
H        0.00000000      -1.39328600      -1.67833700      -0.00000000      -0.00013245       0.00047567
H       -1.20662100       0.69664300      -1.67833700      -0.00011471       0.00006623       0.00047567
H        1.20662100       0.69664300      -1.67833700       0.00011471       0.00006623       0.00047567
