8
Properties=species:S:1:pos:R:3:forces:R:3 calculation_type=dimer_refinement calculation_label=Si2H6/refinement_41/point_021_distance_2.330000 d4_functional=r2SCAN d4_method=r2scan d4_energy_eV=-0.030344598027400107 source_geometry=/mnt/ceph/users/cwoodson/dft_calc/diatomics/dimer_jobs/Si2H6/refinement_41/point_021_distance_2.330000/geometry.in energy=-0.030344598027400107 free_energy=-0.030344598027400107 pbc="F F F"
Si       0.00000000      -0.00000700       1.16500000       0.00000000      -0.00000000      -0.00114644
Si       0.00000000       0.00000700      -1.16500000      -0.00000000       0.00000000       0.00114644
H       -0.00000200       1.38690900       1.67662100      -0.00000000       0.00010327      -0.00048840
H       -1.20110300      -0.69345900       1.67663300      -0.00008943      -0.00005163      -0.00048840
H        1.20110400      -0.69345600       1.67663300       0.00008943      -0.00005163      -0.00048840
H       -0.00000200      -1.38690900      -1.67662100      -0.00000000      -0.00010327       0.00048840
H       -1.20110300       0.69345900      -1.67663200      -0.00008943       0.00005163       0.00048840
H        1.20110500       0.69345600      -1.67663300       0.00008943       0.00005163       0.00048840
