8
Properties=species:S:1:pos:R:3:forces:R:3 calculation_type=dimer_refinement calculation_label=Si2H6/refinement_41/point_023_distance_2.350000 d4_functional=r2SCAN d4_method=r2scan d4_energy_eV=-0.030292664700701747 source_geometry=/mnt/ceph/users/cwoodson/dft_calc/diatomics/dimer_jobs/Si2H6/refinement_41/point_023_distance_2.350000/geometry.in energy=-0.030292664700701747 free_energy=-0.030292664700701747 pbc="F F F"
Si      -0.00000000      -0.00000706       1.17500000       0.00000000      -0.00000000      -0.00109757
Si       0.00000000       0.00000706      -1.17500000      -0.00000000       0.00000000       0.00109758
H       -0.00000200       1.38690894       1.68662100      -0.00000000       0.00010796      -0.00049401
H       -1.20110300      -0.69345906       1.68663300      -0.00009349      -0.00005397      -0.00049401
H        1.20110400      -0.69345606       1.68663300       0.00009349      -0.00005397      -0.00049402
H       -0.00000200      -1.38690894      -1.68662100      -0.00000000      -0.00010796       0.00049401
H       -1.20110300       0.69345906      -1.68663200      -0.00009349       0.00005397       0.00049402
H        1.20110500       0.69345606      -1.68663300       0.00009349       0.00005397       0.00049401
