8
Properties=species:S:1:pos:R:3:forces:R:3 calculation_type=dimer_refinement calculation_label=Si2H6/refinement_100/point_012_distance_1.94 d4_functional=r2SCAN d4_method=r2scan d4_energy_eV=-0.03131356415201075 source_geometry=/mnt/ceph/users/cwoodson/dft_calc/diatomics/dimer_jobs/Si2H6/refinement_100/point_012_distance_1.94/geometry.in energy=-0.03131356415201075 free_energy=-0.03131356415201075 pbc="F F F"
Si       0.00000000       0.00000000       0.97000000      -0.00000000      -0.00000000      -0.00126304
Si       0.00000000       0.00000000      -0.97000000       0.00000000       0.00000000       0.00126304
H        0.00000000       1.39328600       1.48833700       0.00000000       0.00013855      -0.00032836
H       -1.20662100      -0.69664300       1.48833700      -0.00011999      -0.00006928      -0.00032836
H        1.20662100      -0.69664300       1.48833700       0.00011999      -0.00006928      -0.00032836
H        0.00000000      -1.39328600      -1.48833700       0.00000000      -0.00013855       0.00032836
H       -1.20662100       0.69664300      -1.48833700      -0.00011999       0.00006928       0.00032836
H        1.20662100       0.69664300      -1.48833700       0.00011999       0.00006928       0.00032836
