8
Properties=species:S:1:pos:R:3:forces:R:3 calculation_type=dimer_refinement calculation_label=Si2H6/refinement_100/point_010_distance_1.92 d4_functional=r2SCAN d4_method=r2scan d4_energy_eV=-0.03135816830932805 source_geometry=/mnt/ceph/users/cwoodson/dft_calc/diatomics/dimer_jobs/Si2H6/refinement_100/point_010_distance_1.92/geometry.in energy=-0.03135816830932805 free_energy=-0.03135816830932805 pbc="F F F"
Si       0.00000000       0.00000000       0.96000000       0.00000000      -0.00000000      -0.00125273
Si       0.00000000       0.00000000      -0.96000000       0.00000000       0.00000000       0.00125273
H        0.00000000       1.39328600       1.47833700      -0.00000000       0.00014045      -0.00031984
H       -1.20662100      -0.69664300       1.47833700      -0.00012164      -0.00007023      -0.00031984
H        1.20662100      -0.69664300       1.47833700       0.00012164      -0.00007023      -0.00031984
H        0.00000000      -1.39328600      -1.47833700      -0.00000000      -0.00014045       0.00031984
H       -1.20662100       0.69664300      -1.47833700      -0.00012164       0.00007023       0.00031984
H        1.20662100       0.69664300      -1.47833700       0.00012164       0.00007023       0.00031984
