8
Properties=species:S:1:pos:R:3:forces:R:3 calculation_type=dimer_refinement calculation_label=Si2H6/refinement_100/point_061_distance_2.43 d4_functional=r2SCAN d4_method=r2scan d4_energy_eV=-0.03008238712174973 source_geometry=/mnt/ceph/users/cwoodson/dft_calc/diatomics/dimer_jobs/Si2H6/refinement_100/point_061_distance_2.43/geometry.in energy=-0.03008238712174973 free_energy=-0.03008238712174973 pbc="F F F"
Si       0.00000000       0.00000000       1.21500000       0.00000000      -0.00000000      -0.00075902
Si       0.00000000       0.00000000      -1.21500000       0.00000000       0.00000000       0.00075902
H        0.00000000       1.39328600       1.73333700      -0.00000000       0.00018886      -0.00049410
H       -1.20662100      -0.69664300       1.73333700      -0.00016356      -0.00009443      -0.00049410
H        1.20662100      -0.69664300       1.73333700       0.00016356      -0.00009443      -0.00049410
H        0.00000000      -1.39328600      -1.73333700       0.00000000      -0.00018886       0.00049410
H       -1.20662100       0.69664300      -1.73333700      -0.00016356       0.00009443       0.00049410
H        1.20662100       0.69664300      -1.73333700       0.00016356       0.00009443       0.00049410
