8
Properties=species:S:1:pos:R:3:forces:R:3 calculation_type=dimer_refinement calculation_label=Si2H6/refinement_100/point_057_distance_2.39 d4_functional=r2SCAN d4_method=r2scan d4_energy_eV=-0.030176767069923238 source_geometry=/mnt/ceph/users/cwoodson/dft_calc/diatomics/dimer_jobs/Si2H6/refinement_100/point_057_distance_2.39/geometry.in energy=-0.030176767069923238 free_energy=-0.030176767069923238 pbc="F F F"
Si       0.00000000       0.00000000       1.19500000       0.00000000      -0.00000000      -0.00098443
Si       0.00000000       0.00000000      -1.19500000       0.00000000       0.00000000       0.00098443
H        0.00000000       1.39328600       1.71333700      -0.00000000       0.00015895      -0.00049104
H       -1.20662100      -0.69664300       1.71333700      -0.00013765      -0.00007947      -0.00049104
H        1.20662100      -0.69664300       1.71333700       0.00013765      -0.00007947      -0.00049104
H        0.00000000      -1.39328600      -1.71333700       0.00000000      -0.00015895       0.00049104
H       -1.20662100       0.69664300      -1.71333700      -0.00013765       0.00007947       0.00049104
H        1.20662100       0.69664300      -1.71333700       0.00013765       0.00007947       0.00049104
