8
Properties=species:S:1:pos:R:3:forces:R:3 calculation_type=dimer_refinement calculation_label=Si2H6/refinement_100/point_020_distance_2.02 d4_functional=r2SCAN d4_method=r2scan d4_energy_eV=-0.031128055533571546 source_geometry=/mnt/ceph/users/cwoodson/dft_calc/diatomics/dimer_jobs/Si2H6/refinement_100/point_020_distance_2.02/geometry.in energy=-0.031128055533571546 free_energy=-0.031128055533571546 pbc="F F F"
Si       0.00000000       0.00000000       1.01000000      -0.00000000      -0.00000000      -0.00130144
Si       0.00000000       0.00000000      -1.01000000       0.00000000       0.00000000       0.00130144
H        0.00000000       1.39328600       1.52833700      -0.00000000       0.00013132      -0.00036231
H       -1.20662100      -0.69664300       1.52833700      -0.00011373      -0.00006566      -0.00036231
H        1.20662100      -0.69664300       1.52833700       0.00011373      -0.00006566      -0.00036231
H        0.00000000      -1.39328600      -1.52833700      -0.00000000      -0.00013132       0.00036231
H       -1.20662100       0.69664300      -1.52833700      -0.00011373       0.00006566       0.00036231
H        1.20662100       0.69664300      -1.52833700       0.00011373       0.00006566       0.00036231
