8
Properties=species:S:1:pos:R:3:forces:R:3 calculation_type=dimer_refinement calculation_label=Si2H6/refinement_100/point_071_distance_2.53 d4_functional=r2SCAN d4_method=r2scan d4_energy_eV=-0.029917086715728843 source_geometry=/mnt/ceph/users/cwoodson/dft_calc/diatomics/dimer_jobs/Si2H6/refinement_100/point_071_distance_2.53/geometry.in energy=-0.029917086715728843 free_energy=-0.029917086715728843 pbc="F F F"
Si       0.00000000       0.00000000       1.26500000       0.00000000      -0.00000000       0.00064758
Si       0.00000000       0.00000000      -1.26500000       0.00000000       0.00000000      -0.00064758
H        0.00000000       1.39328600       1.78333700       0.00000000       0.00037807      -0.00045885
H       -1.20662100      -0.69664300       1.78333700      -0.00032741      -0.00018903      -0.00045885
H        1.20662100      -0.69664300       1.78333700       0.00032741      -0.00018903      -0.00045885
H        0.00000000      -1.39328600      -1.78333700       0.00000000      -0.00037807       0.00045885
H       -1.20662100       0.69664300      -1.78333700      -0.00032741       0.00018903       0.00045885
H        1.20662100       0.69664300      -1.78333700       0.00032741       0.00018903       0.00045885
