8
Properties=species:S:1:pos:R:3:forces:R:3 calculation_type=dimer_refinement calculation_label=Si2H6/refinement_41/point_035_distance_2.470000 d4_functional=r2SCAN d4_method=r2scan d4_energy_eV=-0.0300115574401508 source_geometry=/mnt/ceph/users/cwoodson/dft_calc/diatomics/dimer_jobs/Si2H6/refinement_41/point_035_distance_2.470000/geometry.in energy=-0.0300115574401508 free_energy=-0.0300115574401508 pbc="F F F"
Si      -0.00000000      -0.00000742       1.23500000       0.00000000      -0.00000001      -0.00040317
Si       0.00000000       0.00000742      -1.23500000      -0.00000000       0.00000001       0.00040317
H       -0.00000200       1.38690858       1.74662100      -0.00000000       0.00018726      -0.00050800
H       -1.20110300      -0.69345942       1.74663300      -0.00016216      -0.00009362      -0.00050800
H        1.20110400      -0.69345642       1.74663300       0.00016216      -0.00009362      -0.00050800
H       -0.00000200      -1.38690858      -1.74662100      -0.00000000      -0.00018726       0.00050800
H       -1.20110300       0.69345942      -1.74663200      -0.00016216       0.00009362       0.00050800
H        1.20110500       0.69345642      -1.74663300       0.00016217       0.00009362       0.00050800
