8
Properties=species:S:1:pos:R:3:forces:R:3 calculation_type=dimer_refinement calculation_label=Si2H6/refinement_100/point_039_distance_2.21 d4_functional=r2SCAN d4_method=r2scan d4_energy_eV=-0.030647440752587782 source_geometry=/mnt/ceph/users/cwoodson/dft_calc/diatomics/dimer_jobs/Si2H6/refinement_100/point_039_distance_2.21/geometry.in energy=-0.030647440752587782 free_energy=-0.030647440752587782 pbc="F F F"
Si       0.00000000       0.00000000       1.10500000       0.00000000      -0.00000000      -0.00132276
Si       0.00000000       0.00000000      -1.10500000       0.00000000       0.00000000       0.00132276
H        0.00000000       1.39328600       1.62333700      -0.00000000       0.00012159      -0.00043897
H       -1.20662100      -0.69664300       1.62333700      -0.00010530      -0.00006079      -0.00043897
H        1.20662100      -0.69664300       1.62333700       0.00010530      -0.00006079      -0.00043897
H        0.00000000      -1.39328600      -1.62333700      -0.00000000      -0.00012159       0.00043897
H       -1.20662100       0.69664300      -1.62333700      -0.00010530       0.00006079       0.00043897
H        1.20662100       0.69664300      -1.62333700       0.00010530       0.00006079       0.00043897
