8
Properties=species:S:1:pos:R:3:forces:R:3 calculation_type=dimer_refinement calculation_label=Si2H6/refinement_41/point_029_distance_2.410000 d4_functional=r2SCAN d4_method=r2scan d4_energy_eV=-0.03014282535104538 source_geometry=/mnt/ceph/users/cwoodson/dft_calc/diatomics/dimer_jobs/Si2H6/refinement_41/point_029_distance_2.410000/geometry.in energy=-0.03014282535104538 free_energy=-0.03014282535104538 pbc="F F F"
Si      -0.00000000      -0.00000724       1.20500000       0.00000000      -0.00000001      -0.00086596
Si       0.00000000       0.00000724      -1.20500000      -0.00000000       0.00000000       0.00086596
H       -0.00000200       1.38690876       1.71662100      -0.00000000       0.00013294      -0.00050657
H       -1.20110300      -0.69345924       1.71663300      -0.00011513      -0.00006647      -0.00050657
H        1.20110400      -0.69345624       1.71663300       0.00011513      -0.00006646      -0.00050657
H       -0.00000200      -1.38690876      -1.71662100      -0.00000000      -0.00013294       0.00050657
H       -1.20110300       0.69345924      -1.71663200      -0.00011513       0.00006647       0.00050657
H        1.20110500       0.69345624      -1.71663300       0.00011513       0.00006647       0.00050657
