8
Properties=species:S:1:pos:R:3:forces:R:3 calculation_type=dimer_refinement calculation_label=Si2H6/refinement_100/point_031_distance_2.13 d4_functional=r2SCAN d4_method=r2scan d4_energy_eV=-0.03085565191976578 source_geometry=/mnt/ceph/users/cwoodson/dft_calc/diatomics/dimer_jobs/Si2H6/refinement_100/point_031_distance_2.13/geometry.in energy=-0.03085565191976578 free_energy=-0.03085565191976578 pbc="F F F"
Si       0.00000000       0.00000000       1.06500000       0.00000000      -0.00000000      -0.00133387
Si       0.00000000       0.00000000      -1.06500000       0.00000000       0.00000000       0.00133387
H        0.00000000       1.39328600       1.58333700      -0.00000000       0.00012351      -0.00040783
H       -1.20662100      -0.69664300       1.58333700      -0.00010696      -0.00006175      -0.00040783
H        1.20662100      -0.69664300       1.58333700       0.00010696      -0.00006175      -0.00040783
H        0.00000000      -1.39328600      -1.58333700      -0.00000000      -0.00012351       0.00040783
H       -1.20662100       0.69664300      -1.58333700      -0.00010696       0.00006175       0.00040783
H        1.20662100       0.69664300      -1.58333700       0.00010696       0.00006175       0.00040783
