8
Properties=species:S:1:pos:R:3:forces:R:3 calculation_type=dimer_refinement calculation_label=Si2H6/refinement_41/point_001_distance_2.130000 d4_functional=r2SCAN d4_method=r2scan d4_energy_eV=-0.030868014324504495 source_geometry=/mnt/ceph/users/cwoodson/dft_calc/diatomics/dimer_jobs/Si2H6/refinement_41/point_001_distance_2.130000/geometry.in energy=-0.030868014324504495 free_energy=-0.030868014324504495 pbc="F F F"
Si       0.00000000      -0.00000639       1.06500000       0.00000000      -0.00000000      -0.00129398
Si       0.00000000       0.00000639      -1.06500000      -0.00000000       0.00000000       0.00129398
H       -0.00000200       1.38690961       1.57662100      -0.00000000       0.00009706      -0.00041498
H       -1.20110300      -0.69345839       1.57663300      -0.00008406      -0.00004853      -0.00041498
H        1.20110400      -0.69345539       1.57663300       0.00008405      -0.00004853      -0.00041498
H       -0.00000200      -1.38690961      -1.57662100      -0.00000000      -0.00009706       0.00041498
H       -1.20110300       0.69345839      -1.57663200      -0.00008406       0.00004853       0.00041498
H        1.20110500       0.69345539      -1.57663300       0.00008406       0.00004853       0.00041498
