8
Properties=species:S:1:pos:R:3:forces:R:3 calculation_type=dimer_refinement calculation_label=Si2H6/refinement_100/point_091_distance_2.73 d4_functional=r2SCAN d4_method=r2scan d4_energy_eV=-0.031195127477597583 source_geometry=/mnt/ceph/users/cwoodson/dft_calc/diatomics/dimer_jobs/Si2H6/refinement_100/point_091_distance_2.73/geometry.in energy=-0.031195127477597583 free_energy=-0.031195127477597583 pbc="F F F"
Si       0.00000000       0.00000000       1.36500000       0.00000000      -0.00000000       0.01719598
Si       0.00000000       0.00000000      -1.36500000      -0.00000000       0.00000000      -0.01719598
H        0.00000000       1.39328600       1.88333700      -0.00000000       0.00231803       0.00018091
H       -1.20662100      -0.69664300       1.88333700      -0.00200747      -0.00115901       0.00018091
H        1.20662100      -0.69664300       1.88333700       0.00200747      -0.00115901       0.00018091
H        0.00000000      -1.39328600      -1.88333700       0.00000000      -0.00231803      -0.00018091
H       -1.20662100       0.69664300      -1.88333700      -0.00200747       0.00115901      -0.00018091
H        1.20662100       0.69664300      -1.88333700       0.00200747       0.00115901      -0.00018091
