8
Properties=species:S:1:pos:R:3:forces:R:3 calculation_type=dimer_refinement calculation_label=Si2H6/refinement_41/point_026_distance_2.380000 d4_functional=r2SCAN d4_method=r2scan d4_energy_eV=-0.030216309770155048 source_geometry=/mnt/ceph/users/cwoodson/dft_calc/diatomics/dimer_jobs/Si2H6/refinement_41/point_026_distance_2.380000/geometry.in energy=-0.030216309770155048 free_energy=-0.030216309770155048 pbc="F F F"
Si      -0.00000000      -0.00000715       1.19000000       0.00000000      -0.00000000      -0.00100087
Si       0.00000000       0.00000715      -1.19000000      -0.00000000       0.00000000       0.00100087
H       -0.00000200       1.38690885       1.70162100      -0.00000000       0.00011799      -0.00050124
H       -1.20110300      -0.69345915       1.70163300      -0.00010218      -0.00005899      -0.00050125
H        1.20110400      -0.69345615       1.70163300       0.00010217      -0.00005899      -0.00050125
H       -0.00000200      -1.38690885      -1.70162100      -0.00000000      -0.00011799       0.00050124
H       -1.20110300       0.69345915      -1.70163200      -0.00010217       0.00005899       0.00050125
H        1.20110500       0.69345615      -1.70163300       0.00010218       0.00005899       0.00050125
