8
Properties=species:S:1:pos:R:3:forces:R:3 calculation_type=dimer_refinement calculation_label=Si2H6/refinement_100/point_032_distance_2.14 d4_functional=r2SCAN d4_method=r2scan d4_energy_eV=-0.030830013928650587 source_geometry=/mnt/ceph/users/cwoodson/dft_calc/diatomics/dimer_jobs/Si2H6/refinement_100/point_032_distance_2.14/geometry.in energy=-0.030830013928650587 free_energy=-0.030830013928650587 pbc="F F F"
Si       0.00000000       0.00000000       1.07000000      -0.00000000      -0.00000000      -0.00133462
Si       0.00000000       0.00000000      -1.07000000      -0.00000000       0.00000000       0.00133462
H        0.00000000       1.39328600       1.58833700       0.00000000       0.00012303      -0.00041184
H       -1.20662100      -0.69664300       1.58833700      -0.00010655      -0.00006151      -0.00041184
H        1.20662100      -0.69664300       1.58833700       0.00010655      -0.00006151      -0.00041184
H        0.00000000      -1.39328600      -1.58833700      -0.00000000      -0.00012303       0.00041184
H       -1.20662100       0.69664300      -1.58833700      -0.00010655       0.00006151       0.00041184
H        1.20662100       0.69664300      -1.58833700       0.00010655       0.00006151       0.00041184
