8
Properties=species:S:1:pos:R:3:forces:R:3 calculation_type=dimer_refinement calculation_label=Si2H6/refinement_100/point_100_distance_2.82 d4_functional=r2SCAN d4_method=r2scan d4_energy_eV=-0.03289489590131318 source_geometry=/mnt/ceph/users/cwoodson/dft_calc/diatomics/dimer_jobs/Si2H6/refinement_100/point_100_distance_2.82/geometry.in energy=-0.03289489590131318 free_energy=-0.03289489590131318 pbc="F F F"
Si       0.00000000       0.00000000       1.41000000      -0.00000000      -0.00000000       0.01596804
Si       0.00000000       0.00000000      -1.41000000      -0.00000000       0.00000000      -0.01596804
H        0.00000000       1.39328600       1.92833700       0.00000000       0.00218048       0.00008169
H       -1.20662100      -0.69664300       1.92833700      -0.00188835      -0.00109024       0.00008169
H        1.20662100      -0.69664300       1.92833700       0.00188835      -0.00109024       0.00008169
H        0.00000000      -1.39328600      -1.92833700       0.00000000      -0.00218048      -0.00008169
H       -1.20662100       0.69664300      -1.92833700      -0.00188835       0.00109024      -0.00008169
H        1.20662100       0.69664300      -1.92833700       0.00188835       0.00109024      -0.00008169
