8
Properties=species:S:1:pos:R:3:forces:R:3 calculation_type=dimer_refinement calculation_label=Si2H6/refinement_100/point_074_distance_2.56 d4_functional=r2SCAN d4_method=r2scan d4_energy_eV=-0.029909650703191116 source_geometry=/mnt/ceph/users/cwoodson/dft_calc/diatomics/dimer_jobs/Si2H6/refinement_100/point_074_distance_2.56/geometry.in energy=-0.029909650703191116 free_energy=-0.029909650703191116 pbc="F F F"
Si       0.00000000       0.00000000       1.28000000       0.00000000      -0.00000000       0.00157703
Si       0.00000000       0.00000000      -1.28000000      -0.00000000       0.00000000      -0.00157703
H        0.00000000       1.39328600       1.79833700      -0.00000000       0.00049887      -0.00042455
H       -1.20662100      -0.69664300       1.79833700      -0.00043204      -0.00024944      -0.00042455
H        1.20662100      -0.69664300       1.79833700       0.00043204      -0.00024944      -0.00042455
H        0.00000000      -1.39328600      -1.79833700       0.00000000      -0.00049887       0.00042455
H       -1.20662100       0.69664300      -1.79833700      -0.00043204       0.00024944       0.00042455
H        1.20662100       0.69664300      -1.79833700       0.00043204       0.00024944       0.00042455
