8
Properties=species:S:1:pos:R:3:forces:R:3 calculation_type=dimer_refinement calculation_label=Si2H6/refinement_100/point_004_distance_1.86 d4_functional=r2SCAN d4_method=r2scan d4_energy_eV=-0.03148766566888311 source_geometry=/mnt/ceph/users/cwoodson/dft_calc/diatomics/dimer_jobs/Si2H6/refinement_100/point_004_distance_1.86/geometry.in energy=-0.03148766566888311 free_energy=-0.03148766566888311 pbc="F F F"
Si       0.00000000       0.00000000       0.93000000       0.00000000      -0.00000000      -0.00122140
Si       0.00000000       0.00000000      -0.93000000      -0.00000000       0.00000000       0.00122140
H        0.00000000       1.39328600       1.44833700      -0.00000000       0.00014627      -0.00029431
H       -1.20662100      -0.69664300       1.44833700      -0.00012667      -0.00007313      -0.00029431
H        1.20662100      -0.69664300       1.44833700       0.00012667      -0.00007313      -0.00029431
H        0.00000000      -1.39328600      -1.44833700       0.00000000      -0.00014627       0.00029431
H       -1.20662100       0.69664300      -1.44833700      -0.00012667       0.00007313       0.00029431
H        1.20662100       0.69664300      -1.44833700       0.00012667       0.00007313       0.00029431
