8
Properties=species:S:1:pos:R:3:forces:R:3 calculation_type=dimer_refinement calculation_label=Si2H6/refinement_100/point_036_distance_2.18 d4_functional=r2SCAN d4_method=r2scan d4_energy_eV=-0.030726278036699143 source_geometry=/mnt/ceph/users/cwoodson/dft_calc/diatomics/dimer_jobs/Si2H6/refinement_100/point_036_distance_2.18/geometry.in energy=-0.030726278036699143 free_energy=-0.030726278036699143 pbc="F F F"
Si       0.00000000       0.00000000       1.09000000      -0.00000000      -0.00000000      -0.00133202
Si       0.00000000       0.00000000      -1.09000000       0.00000000       0.00000000       0.00133202
H        0.00000000       1.39328600       1.60833700       0.00000000       0.00012172      -0.00042758
H       -1.20662100      -0.69664300       1.60833700      -0.00010542      -0.00006086      -0.00042758
H        1.20662100      -0.69664300       1.60833700       0.00010542      -0.00006086      -0.00042758
H        0.00000000      -1.39328600      -1.60833700      -0.00000000      -0.00012172       0.00042758
H       -1.20662100       0.69664300      -1.60833700      -0.00010542       0.00006086       0.00042758
H        1.20662100       0.69664300      -1.60833700       0.00010542       0.00006086       0.00042758
