2
Properties=species:S:1:pos:R:3:forces:R:3 calculation_type=dimer_refinement calculation_label=SiC/refinement_100/point_073_distance_1.85 d4_functional=r2SCAN d4_method=r2scan d4_energy_eV=-0.005983860421108376 source_geometry=/mnt/ceph/users/cwoodson/dft_calc/diatomics/dimer_jobs/SiC/refinement_100/point_073_distance_1.85/geometry.in energy=-0.005983860421108376 free_energy=-0.005983860421108376 pbc="F F F"
Si       0.00000000       0.00000000      -0.92500000      -0.00000000      -0.00000000       0.00021023
C        0.00000000       0.00000000       0.92500000      -0.00000000      -0.00000000      -0.00021023
