2
Properties=species:S:1:pos:R:3:forces:R:3 calculation_type=dimer_refinement calculation_label=SiC/refinement_100/point_097_distance_2.09 d4_functional=r2SCAN d4_method=r2scan d4_energy_eV=-0.005922346101306159 source_geometry=/mnt/ceph/users/cwoodson/dft_calc/diatomics/dimer_jobs/SiC/refinement_100/point_097_distance_2.09/geometry.in energy=-0.005922346101306159 free_energy=-0.005922346101306159 pbc="F F F"
Si       0.00000000       0.00000000      -1.04500000      -0.00000000      -0.00000000       0.00029851
C        0.00000000       0.00000000       1.04500000      -0.00000000      -0.00000000      -0.00029851
