2
Properties=species:S:1:pos:R:3:forces:R:3 calculation_type=dimer_refinement calculation_label=SiC/refinement_100/point_060_distance_1.72 d4_functional=r2SCAN d4_method=r2scan d4_energy_eV=-0.006010250847583417 source_geometry=/mnt/ceph/users/cwoodson/dft_calc/diatomics/dimer_jobs/SiC/refinement_100/point_060_distance_1.72/geometry.in energy=-0.006010250847583417 free_energy=-0.006010250847583417 pbc="F F F"
Si       0.00000000       0.00000000      -0.86000000      -0.00000000      -0.00000000       0.00020100
C        0.00000000       0.00000000       0.86000000      -0.00000000      -0.00000000      -0.00020100
