2
Properties=species:S:1:pos:R:3:forces:R:3 calculation_type=dimer_refinement calculation_label=SiC/refinement_41/point_002_distance_1.440000 d4_functional=r2SCAN d4_method=r2scan d4_energy_eV=-0.006070988632108804 source_geometry=/mnt/ceph/users/cwoodson/dft_calc/diatomics/dimer_jobs/SiC/refinement_41/point_002_distance_1.440000/geometry.in energy=-0.006070988632108804 free_energy=-0.006070988632108804 pbc="F F F"
Si       0.00000000       0.00000000      -0.72000000      -0.00000000      -0.00000000       0.00024074
C        0.00000000       0.00000000       0.72000000      -0.00000000      -0.00000000      -0.00024074
