------------------------------------------------------------
          Invoking FHI-aims ...

          When using FHI-aims, please cite the following reference:

            Volker Blum, Ralf Gehrke, Felix Hanke, Paula Havu,
            Ville Havu, Xinguo Ren, Karsten Reuter, and Matthias Scheffler,
            'Ab Initio Molecular Simulations with Numeric Atom-Centered Orbitals',
            Computer Physics Communications 180, 2175-2196 (2009)

          In addition, many other developments in FHI-aims are likely important for
          your particular application. If so, please cite them. A partial list of references
          is written at the end of this file. Thank you for giving credit to the authors
          of these developments.

          For general information about FHI-aims please find us at

            https://fhi-aims.org

          Online tutorials can be found at

            https://fhi-aims-club.gitlab.io/tutorials/tutorials-overview/

          For any questions about FHI-aims, please visit our slack channel at

            https://fhi-aims.slack.com

          and our main development and support site at

            https://aims-git.rz-berlin.mpg.de .

          The latter site, in particular, has a wiki to collect information, as well
          as an issue tracker to log discussions, suggest improvements, and report issues
          or bugs. https://aims-git.rz-berlin.mpg.de is also the main development site
          of the project and all new and updated code versions can be obtained there.
          Please send an email to aims-coordinators@ms1p.org and we will add
          you to these sites. They are for you and everyone is welcome there.

------------------------------------------------------------



  Date     :  20260724, Time     :  093955.197
  Time zero on CPU 1             :   0.226334000000000E+00  s.
  Internal wall clock time zero  :           554117995.197  s.

  FHI-aims created a unique identifier for this run for later identification
  aims_uuid : 9EC8B4A2-AB31-4CD8-AEA8-BCE2E823AACA

  Build configuration of the current instance of FHI-aims
  -------------------------------------------------------
  FHI-aims version      : 260331
  Commit number         : GITDIR-NOTFOUND
  CMake host system     : Linux-4.18.0-553.97.1.el8_10.x86_64
  CMake version         : 3.31.6
  OS Distribution       : Rocky Linux 8.10 (Green Obsidian)
  Built on              : Intel(R) Xeon(R) w5-3435X
  Fortran compiler      : /mnt/sw/nix/store/pa59vldasm7gxpr7dkijhk09q5qq63q1-openmpi-4.1.8/bin/mpifort (GNU) version 13.3.0
  Fortran compiler flags: -O2 -fallow-argument-mismatch -ffree-line-length-none
  C compiler            : /mnt/sw/nix/store/pa59vldasm7gxpr7dkijhk09q5qq63q1-openmpi-4.1.8/bin/mpicc (GNU) version 13.3.0
  C compiler flags      : -O2
  C++ compiler          : /mnt/sw/nix/store/pa59vldasm7gxpr7dkijhk09q5qq63q1-openmpi-4.1.8/bin/mpicxx (GNU) version 13.3.0
  C++ compiler flags    : -O2
  HIP compiler          :
  HIP compiler flags    :
  HIP GPU arch          :
  Using MPI
  Using ScaLAPACK
  Using LibXC
  Using i-PI
  Using RLSY
  Using GREENX
  Linking against: /mnt/sw/nix/store/dwd607jzx9m5bdd100br72s3b6g05zrf-intel-oneapi-mkl-2024.2.2/mkl/2024.2/lib/libmkl_intel_lp64.so
                   /mnt/sw/nix/store/dwd607jzx9m5bdd100br72s3b6g05zrf-intel-oneapi-mkl-2024.2.2/mkl/2024.2/lib/libmkl_sequential.so
                   /mnt/sw/nix/store/dwd607jzx9m5bdd100br72s3b6g05zrf-intel-oneapi-mkl-2024.2.2/mkl/2024.2/lib/libmkl_core.so
                   /mnt/sw/nix/store/dwd607jzx9m5bdd100br72s3b6g05zrf-intel-oneapi-mkl-2024.2.2/mkl/2024.2/lib/libmkl_blacs_openmpi_lp64.so
                   /mnt/sw/nix/store/dwd607jzx9m5bdd100br72s3b6g05zrf-intel-oneapi-mkl-2024.2.2/mkl/2024.2/lib/libmkl_scalapack_lp64.so

  Using       64 parallel tasks.
  Task        0 on host worker6022 reporting.
  Task        1 on host worker6022 reporting.
  Task        2 on host worker6022 reporting.
  Task        3 on host worker6022 reporting.
  Task        4 on host worker6022 reporting.
  Task        5 on host worker6022 reporting.
  Task        6 on host worker6022 reporting.
  Task        7 on host worker6022 reporting.
  Task        8 on host worker6022 reporting.
  Task        9 on host worker6022 reporting.
  Task       10 on host worker6022 reporting.
  Task       11 on host worker6022 reporting.
  Task       12 on host worker6022 reporting.
  Task       13 on host worker6022 reporting.
  Task       14 on host worker6022 reporting.
  Task       15 on host worker6022 reporting.
  Task       16 on host worker6022 reporting.
  Task       17 on host worker6022 reporting.
  Task       18 on host worker6022 reporting.
  Task       19 on host worker6022 reporting.
  Task       20 on host worker6022 reporting.
  Task       21 on host worker6022 reporting.
  Task       22 on host worker6022 reporting.
  Task       23 on host worker6022 reporting.
  Task       24 on host worker6022 reporting.
  Task       25 on host worker6022 reporting.
  Task       26 on host worker6022 reporting.
  Task       27 on host worker6022 reporting.
  Task       28 on host worker6022 reporting.
  Task       29 on host worker6022 reporting.
  Task       30 on host worker6022 reporting.
  Task       31 on host worker6022 reporting.
  Task       32 on host worker6196 reporting.
  Task       33 on host worker6196 reporting.
  Task       34 on host worker6196 reporting.
  Task       35 on host worker6196 reporting.
  Task       36 on host worker6196 reporting.
  Task       37 on host worker6196 reporting.
  Task       38 on host worker6196 reporting.
  Task       39 on host worker6196 reporting.
  Task       40 on host worker6196 reporting.
  Task       41 on host worker6196 reporting.
  Task       42 on host worker6196 reporting.
  Task       43 on host worker6196 reporting.
  Task       44 on host worker6196 reporting.
  Task       45 on host worker6196 reporting.
  Task       46 on host worker6196 reporting.
  Task       47 on host worker6196 reporting.
  Task       48 on host worker6196 reporting.
  Task       49 on host worker6196 reporting.
  Task       50 on host worker6196 reporting.
  Task       51 on host worker6196 reporting.
  Task       52 on host worker6196 reporting.
  Task       53 on host worker6196 reporting.
  Task       54 on host worker6196 reporting.
  Task       55 on host worker6196 reporting.
  Task       56 on host worker6196 reporting.
  Task       57 on host worker6196 reporting.
  Task       58 on host worker6196 reporting.
  Task       59 on host worker6196 reporting.
  Task       60 on host worker6196 reporting.
  Task       61 on host worker6196 reporting.
  Task       62 on host worker6196 reporting.
  Task       63 on host worker6196 reporting.

  Obtaining array dimensions for all initial allocations:
  
  -----------------------------------------------------------------------
  Parsing control.in (first pass over file, find array dimensions only).
  The contents of control.in will be repeated verbatim below
  unless switched off by setting 'verbatim_writeout .false.' .
  in the first line of control.in .
  -----------------------------------------------------------------------
  
  override_warning_libxc             True
  xc                                 libxc HYB_MGGA_XC_WB97M_V
  
  spin                               none
  charge                             0
  
  relativistic                       atomic_zora scalar
  atomic_solver_xc                   pbe
  ionic_solver_xc                    pbe
  
  occupation_type                    gaussian 0.01
  
  sc_accuracy_rho                    1e-06
  sc_accuracy_eev                    1e-03
  sc_accuracy_etot                   1e-06
  occupation_acc                     1e-09
  
  charge_mix_param                   0.1
  n_max_pulay                        8
  max_zeroin                         20000
  
  # Species defaults for Al
  ################################################################################
  #
  #  FHI-aims code project
  #  Volker Blum, 2018
  #
  #  Suggested "intermediate" defaults for Al atom (to be pasted into control.in file)
  #
  ################################################################################
    species        Al
  #     global species definitions
      nucleus             13
      mass                26.9815386
  #
      l_hartree           6
  #
      cut_pot             4.0          2.0  1.0
      basis_dep_cutoff    1e-4
  #
      radial_base         41 7.0
      radial_multiplier   2
      angular_grids       specified
        division   0.6594  110
        division   0.8170  194
        division   0.9059  302
        division   1.0363  434
  #      division   1.1443  590
  #      division   1.2621  770
  #      division   2.8177  974
  #      outer_grid   974
        outer_grid  434
  ################################################################################
  #
  #  Definition of "minimal" basis
  #
  ################################################################################
  #     valence basis states
      valence      3  s   2.
      valence      3  p   1.
  #     ion occupancy
      ion_occ      3  s   1.
      ion_occ      2  p   6.
  ################################################################################
  #
  #  Suggested additional basis functions. For production calculations,
  #  uncomment them one after another (the most important basis functions are
  #  listed first).
  #
  #  Constructed for dimers: 2.0 A, 2.5 A, 3.0 A, 3.75 A, 4.5 A
  #
  ################################################################################
  #  "First tier" - improvements: -199.47 meV to -10.63 meV
       ionic 3 d auto
       ionic 3 p auto
       hydro 4 f 4.7
       ionic 3 s auto
  #  "Second tier" - improvements: -5.35 meV to -1.57 meV
    for_aux   hydro 5 g 7
  #     hydro 3 d 6
  #     hydro 2 s 11.6
  #     hydro 2 p 0.9
  #  "Third tier" - improvements: -0.63 meV to -0.20 meV
  #     hydro 5 f 7.6
  #     hydro 4 p 7.2
  #     hydro 4 s 3.7
  #     hydro 4 d 7.6
  #  "Fourth tier" - improvements: -0.17 meV to -0.08 meV
  #     hydro 4 d 13.6
  #     hydro 5 g 11.2
  #     hydro 4 d 0.9
  #     hydro 1 s 0.4
  #     hydro 4 p 0.1
  #     hydro 5 f 9.8
  #  Further basis functions that fell out of the optimization - noise level...
  #     hydro 4 p 5
  
  ################################################################################
  #
  # For methods that use the localized form of the "resolution of identity" for
  # the two-electron Coulomb operator (RI_method LVL), particularly Hartree-Fock and
  # hybrid density functional calculations, the highest accuracy can be obtained by
  # uncommenting the line beginning with "for_aux"  below, thus adding an extra g radial
  # function to the construction of the product basis set for the expansion.
  # See Ref. New J. Phys. 17, 093020 (2015) for more information, particularly Figs. 1 and 6.
  #
  ################################################################################
  #
  # for_aux hydro 5 g 6.0
  
  # Species defaults for P
  ################################################################################
  #
  #  FHI-aims code project
  #  Volker Blum, Maria Dragoumi, Sebastian Kokott 2020
  #
  #  Suggested "intermediate" defaults for P atom (to be pasted into control.in file)
  #
  ################################################################################
    species        P
  #     global species definitions
      nucleus             15
      mass                30.973762
  #
      l_hartree           6
  #
      cut_pot             4.0          2.0  1.0
      basis_dep_cutoff    1e-4
  #
      radial_base         43 7.0
      radial_multiplier   2
      angular_grids       specified
        division   0.2995   50
        division   0.5998  110
        division   0.9240  194
        division   1.0921  302
        division   1.2863  434
  #      division   1.3165  590
  #      division   1.4113  770
  #      division   1.5128  974
  #      division   2.4980 1202
        outer_grid  434
  ################################################################################
  #
  #  Definition of "minimal" basis
  #
  ################################################################################
  #     valence basis states
      valence      3  s   2.
      valence      3  p   3.
  #     ion occupancy
      ion_occ      3  s   1.
      ion_occ      3  p   2.
  ################################################################################
  #
  #  Suggested additional basis functions. For production calculations,
  #  uncomment them one after another (the most important basis functions are
  #  listed first).
  #
  #  Constructed for dimers: 1.625 A, 1.875 A, 2.5 A, 3.25 A, 4.0 A
  #
  ################################################################################
  #  "First tier" - improvements: -726.20 meV to -35.91 meV
       ionic 3 d auto
       ionic 3 p auto
       hydro 4 f 6.2
    for_aux   hydro 5 g 8.6
       ionic 3 s auto
  #  "Second tier" - improvements: -16.02 meV to -1.71 meV
  #     hydro 4 d 6.2
  #     hydro 4 p 9.2
  #     hydro 5 f 9.8
  #     hydro 1 s 0.7
  #     hydro 5 g 13.2
  #  "Third tier" - improvements: -1.82 meV to -0.20 meV
  #     hydro 3 p 2.5
  #     hydro 4 d 6.4
  #     hydro 5 f 11.2
  #     hydro 2 s 1.5
  #  "Fourth tier" - improvements: -0.91 meV to -0.17 meV
  #     hydro 3 d 16.8
  #     hydro 5 g 18
  #     hydro 4 p 4.5
  #     hydro 3 s 2.1
  #  Further basis functions that fell out of the optimization - < -0.09 meV
  #     hydro 4 p 10.4
  #     hydro 4 d 17.6
  #     hydro 4 s 11.2
  ################################################################################
  #
  # For methods that use the localized form of the "resolution of identity" for
  # the two-electron Coulomb operator (RI_method LVL), particularly Hartree-Fock and
  # hybrid density functional calculations, the highest accuracy can be obtained by
  # uncommenting the line beginning with "for_aux"  below, thus adding an extra g radial
  # function to the construction of the product basis set for the expansion.
  # See Ref. New J. Phys. 17, 093020 (2015) for more information, particularly Figs. 1 and 6.
  #
  ################################################################################
  #
  # for_aux hydro 5 g 6.0
  
  -----------------------------------------------------------------------
  Completed first pass over input file control.in .
  -----------------------------------------------------------------------
  
  
  -----------------------------------------------------------------------
  Parsing geometry.in (first pass over file, find array dimensions only).
  The contents of geometry.in will be repeated verbatim below
  unless switched off by setting 'verbatim_writeout .false.' .
  in the first line of geometry.in .
  -----------------------------------------------------------------------
  
  #===============================================================================
  # Created using the Atomic Simulation Environment (ASE)
  
  # Thu Jul 23 15:37:04 2026
  
  #=======================================================
  atom 0.0000000000000000 0.0000000000000000 -0.9250000000000000 Al
  atom 0.0000000000000000 0.0000000000000000 0.9250000000000000 P
  
  -----------------------------------------------------------------------
  Completed first pass over input file geometry.in .
  -----------------------------------------------------------------------
  

  Basic array size parameters:
  | Number of species                 :        2
  | Number of atoms                   :        2
  | Max. basis fn. angular momentum   :        4
  | Max. atomic/ionic basis occupied n:        3
  | Max. number of basis fn. types    :        3
  | Max. radial fns per species/type  :        5
  | Max. logarithmic grid size        :     1352
  | Max. radial integration grid size :       87
  | Max. angular integration grid size:      434
  | Max. angular grid division number :        8
  | Radial grid for Hartree potential :     1352
  | Number of spin channels           :        1

  Definition of standardized fundamental physical constants in this FHI-aims run:
  | Using the set of values used in FHI-aims up to 2024, which combines values from
  | different CODATA sets - see constants.f90.
  | Use the 'codata' keyword in control.in to change this selection.

  Memory overcommitment is allowed on your operating system.

------------------------------------------------------------
          Reading file control.in.
------------------------------------------------------------
  XC: Using LibXC. Please refer to LibXC output for further details.
  Using libxc - Initializing
  Libxc version: 6.1.0

  You have selected libxc functional HYB_MGGA_XC_WB97M_V (531)
    - Description: wB97M-V exchange-correlation functional
    - Type: Hybrid MGGA(Exchange-correlation)
    - Using the following  17 external libxc parameters:
             _cx00 = 0.850000000000D+00  (u^00 coefficient for exchange)
             _cx01 = 0.100700000000D+01  (u^01 coefficient for exchange)
             _cx10 = 0.259000000000D+00  (u^10 coefficient for exchange)
            _css00 = 0.443000000000D+00  (u^00 coefficient for same-spin correlation)
            _css04 =-0.143700000000D+01  (u^04 coefficient for same-spin correlation)
            _css10 =-0.453500000000D+01  (u^10 coefficient for same-spin correlation)
            _css20 =-0.339000000000D+01  (u^20 coefficient for same-spin correlation)
            _css43 = 0.427800000000D+01  (u^43 coefficient for same-spin correlation)
            _cos00 = 0.100000000000D+01  (u^00 coefficient for opposite-spin correlation)
            _cos10 = 0.135800000000D+01  (u^10 coefficient for opposite-spin correlation)
            _cos20 = 0.292400000000D+01  (u^20 coefficient for opposite-spin correlation)
            _cos21 =-0.881200000000D+01  (u^21 coefficient for opposite-spin correlation)
            _cos60 =-0.139000000000D+01  (u^60 coefficient for opposite-spin correlation)
            _cos61 = 0.914200000000D+01  (u^61 coefficient for opposite-spin correlation)
            _alpha = 0.100000000000D+01  (fraction of HF exchange)
             _beta =-0.850000000000D+00  (fraction of short-range exchange)
            _omega = 0.300000000000D+00  (range-separation constant)
    - Reference to Literature:
      [1] N. Mardirossian and M. Head-Gordon.,  J. Chem. Phys. 144, 214110 (2016)

  Obtaining Hybrid Functional Parameters from Libxc:
  Fraction of Hartree-Fock exchange ALPHA:      1.00000000
  Fraction of short-range exchange BETA  :     -0.85000000
  Range-separation parameter OMEGA       :      0.30000000
  Detecting a range-separated Hybrid functional
  This translates into the following internal FHI-aims parameters:
  hybrid_coeff           =      0.15000000
  hybrid_coeff_LR        =      1.00000000
  hse_omega              =      0.30000000
  hse_omega_hf           =      0.30000000
  use_hse                =               F
  use_lc_wpbeh           =               T
  use_yukawa             =               F
  Spin treatment: No spin polarisation.
  Charge =   0.000000E+00: Neutral system requested explicitly.
  Scalar relativistic treatment of kinetic energy: on-site free-atom approximation to ZORA.
  Atomic Solver XC: Using user-defined functional for generating the minimal NAO basis functions.
  Note that only the following functionals are available: kli, pz-lda, pw-lda, vwn, vwn-gauss, pw91_gga, pbe, rpbe, revpbe, pbeint, pbesol, blyp.
  Ionic Solver XC: Using user-defined functional for generating the minimal NAO basis functions.
  Note that only the following functionals are available: kli, pz-lda, pw-lda, vwn, vwn-gauss, pw91_gga, pbe, rpbe, revpbe, pbeint, pbesol, blyp.
  Occupation type: Gaussian broadening, width =   0.100000E-01 eV.
  Convergence accuracy of self-consistent charge density:  0.1000E-05
  Convergence accuracy of sum of eigenvalues:  0.1000E-02
  Convergence accuracy of total energy:  0.1000E-05
  Accuracy of occupation numbers  :  0.1000E-08
  Charge density mixing - mixing parameter:     0.1000
  Pulay mixing - number of memorized iterations:    8
  Maximum # of zeroin steps  : ****

  Reading configuration options for species Al                  .
  | Found nuclear charge :  13.0000
  | Found atomic mass :    26.981538600000000      amu
  | Found l_max for Hartree potential  :   6
  | Found cutoff potl. onset [A], width [A], scale factor :    4.00000    2.00000    1.00000
  | Threshold for basis-dependent cutoff potential is   0.100000E-03
  | Found data for basic radial integration grid :    41 points, outermost radius =    7.000 A
  | Found multiplier for basic radial grid :   2
  | Found angular grid specification: user-specified.
  | Specified grid contains     5 separate shells.
  | Check grid settings after all constraints further below.
  | Found free-atom valence shell :  3 s   2.000
  | Found free-atom valence shell :  3 p   1.000
  | Found free-ion valence shell :  3 s   1.000
  | Found free-ion valence shell :  2 p   6.000
  | Found ionic basis function :  3 d , default cutoff radius.
  | Found ionic basis function :  3 p , default cutoff radius.
  | Found hydrogenic basis function :  4 f   4.700
  | Found ionic basis function :  3 s , default cutoff radius.
  | Found hydrogenic extended basis function :  5 g   7.000
 | Encountered keyword species, ending the description of species Al                  .
  Species Al                  : Missing cutoff potential type.
  Defaulting to exp(1/x)/(1-x)^2 type cutoff potential.
  Species Al: No 'logarithmic' tag. Using default grid for free atom:
  | Default logarithmic grid data [bohr] : 0.1000E-03 0.1000E+03 0.1012E+01
  | Will include ionic basis functions of  2.0-fold positive Al                   ion.
  Species Al: On-site basis accuracy parameter (for Gram-Schmidt orthonormalisation) not specified.
  Using default value basis_acc =  0.1000000E-03.
  Species Al                  : Using default innermost maximum threshold i_radial=  2 for radial functions.
  Species Al                  : Default cutoff onset for free atom density etc. : 0.40000000E+01 AA.
  Species Al                  : Basic radial grid will be enhanced according to radial_multiplier =   2, to contain    83 grid points.

  Reading configuration options for species P                   .
  | Found nuclear charge :  15.0000
  | Found atomic mass :    30.973762000000001      amu
  | Found l_max for Hartree potential  :   6
  | Found cutoff potl. onset [A], width [A], scale factor :    4.00000    2.00000    1.00000
  | Threshold for basis-dependent cutoff potential is   0.100000E-03
  | Found data for basic radial integration grid :    43 points, outermost radius =    7.000 A
  | Found multiplier for basic radial grid :   2
  | Found angular grid specification: user-specified.
  | Specified grid contains     6 separate shells.
  | Check grid settings after all constraints further below.
  | Found free-atom valence shell :  3 s   2.000
  | Found free-atom valence shell :  3 p   3.000
  | Found free-ion valence shell :  3 s   1.000
  | Found free-ion valence shell :  3 p   2.000
  | Found ionic basis function :  3 d , default cutoff radius.
  | Found ionic basis function :  3 p , default cutoff radius.
  | Found hydrogenic basis function :  4 f   6.200
  | Found hydrogenic extended basis function :  5 g   8.600
  | Found ionic basis function :  3 s , default cutoff radius.
  Species P                   : Missing cutoff potential type.
  Defaulting to exp(1/x)/(1-x)^2 type cutoff potential.
  Species P : No 'logarithmic' tag. Using default grid for free atom:
  | Default logarithmic grid data [bohr] : 0.1000E-03 0.1000E+03 0.1012E+01
  | Will include ionic basis functions of  2.0-fold positive P                    ion.
  Species P : On-site basis accuracy parameter (for Gram-Schmidt orthonormalisation) not specified.
  Using default value basis_acc =  0.1000000E-03.
  Species P                   : Using default innermost maximum threshold i_radial=  2 for radial functions.
  Species P                   : Default cutoff onset for free atom density etc. : 0.40000000E+01 AA.
  Species P                   : Basic radial grid will be enhanced according to radial_multiplier =   2, to contain    87 grid points.

  Finished reading input file 'control.in'.

------------------------------------------------------------


------------------------------------------------------------
          Reading geometry description geometry.in.
------------------------------------------------------------
  | The smallest distance between any two atoms is         1.85000000 AA.
  | The first atom of this pair is atom number                      1 .
  | The second atom of this pair is atom number                     2 .
  Input structure read successfully.
  The structure contains        2 atoms,  and a total of         28.000 electrons.

  Input geometry:
  | No unit cell requested.
  | Atomic structure:
  |       Atom                x [A]            y [A]            z [A]
  |    1: Species Al            0.00000000        0.00000000       -0.92500000
  |    2: Species P             0.00000000        0.00000000        0.92500000

  Slab Identifier: This is not a periodic structure.

  Finished reading input file 'geometry.in'.



  Consistency checks for stacksize environment parameter are next.

  | Maximum stacksize for task 0: unlimited
  | Maximum stacksize for task 1: unlimited
  | Maximum stacksize for task 2: unlimited
  | Maximum stacksize for task 3: unlimited
  | Maximum stacksize for task 4: unlimited
  | Maximum stacksize for task 5: unlimited
  | Maximum stacksize for task 6: unlimited
  | Maximum stacksize for task 7: unlimited
  | Maximum stacksize for task 8: unlimited
  | Maximum stacksize for task 9: unlimited
  | Maximum stacksize for task 10: unlimited
  | Maximum stacksize for task 11: unlimited
  | Maximum stacksize for task 12: unlimited
  | Maximum stacksize for task 13: unlimited
  | Maximum stacksize for task 14: unlimited
  | Maximum stacksize for task 15: unlimited
  | Maximum stacksize for task 16: unlimited
  | Maximum stacksize for task 17: unlimited
  | Maximum stacksize for task 18: unlimited
  | Maximum stacksize for task 19: unlimited
  | Maximum stacksize for task 20: unlimited
  | Maximum stacksize for task 21: unlimited
  | Maximum stacksize for task 22: unlimited
  | Maximum stacksize for task 23: unlimited
  | Maximum stacksize for task 24: unlimited
  | Maximum stacksize for task 25: unlimited
  | Maximum stacksize for task 26: unlimited
  | Maximum stacksize for task 27: unlimited
  | Maximum stacksize for task 28: unlimited
  | Maximum stacksize for task 29: unlimited
  | Maximum stacksize for task 30: unlimited
  | Maximum stacksize for task 31: unlimited
  | Maximum stacksize for task 32: unlimited
  | Maximum stacksize for task 33: unlimited
  | Maximum stacksize for task 34: unlimited
  | Maximum stacksize for task 35: unlimited
  | Maximum stacksize for task 36: unlimited
  | Maximum stacksize for task 37: unlimited
  | Maximum stacksize for task 38: unlimited
  | Maximum stacksize for task 39: unlimited
  | Maximum stacksize for task 40: unlimited
  | Maximum stacksize for task 41: unlimited
  | Maximum stacksize for task 42: unlimited
  | Maximum stacksize for task 43: unlimited
  | Maximum stacksize for task 44: unlimited
  | Maximum stacksize for task 45: unlimited
  | Maximum stacksize for task 46: unlimited
  | Maximum stacksize for task 47: unlimited
  | Maximum stacksize for task 48: unlimited
  | Maximum stacksize for task 49: unlimited
  | Maximum stacksize for task 50: unlimited
  | Maximum stacksize for task 51: unlimited
  | Maximum stacksize for task 52: unlimited
  | Maximum stacksize for task 53: unlimited
  | Maximum stacksize for task 54: unlimited
  | Maximum stacksize for task 55: unlimited
  | Maximum stacksize for task 56: unlimited
  | Maximum stacksize for task 57: unlimited
  | Maximum stacksize for task 58: unlimited
  | Maximum stacksize for task 59: unlimited
  | Maximum stacksize for task 60: unlimited
  | Maximum stacksize for task 61: unlimited
  | Maximum stacksize for task 62: unlimited
  | Maximum stacksize for task 63: unlimited
  | Current stacksize for task 0: unlimited
  | Current stacksize for task 1: unlimited
  | Current stacksize for task 2: unlimited
  | Current stacksize for task 3: unlimited
  | Current stacksize for task 4: unlimited
  | Current stacksize for task 5: unlimited
  | Current stacksize for task 6: unlimited
  | Current stacksize for task 7: unlimited
  | Current stacksize for task 8: unlimited
  | Current stacksize for task 9: unlimited
  | Current stacksize for task 10: unlimited
  | Current stacksize for task 11: unlimited
  | Current stacksize for task 12: unlimited
  | Current stacksize for task 13: unlimited
  | Current stacksize for task 14: unlimited
  | Current stacksize for task 15: unlimited
  | Current stacksize for task 16: unlimited
  | Current stacksize for task 17: unlimited
  | Current stacksize for task 18: unlimited
  | Current stacksize for task 19: unlimited
  | Current stacksize for task 20: unlimited
  | Current stacksize for task 21: unlimited
  | Current stacksize for task 22: unlimited
  | Current stacksize for task 23: unlimited
  | Current stacksize for task 24: unlimited
  | Current stacksize for task 25: unlimited
  | Current stacksize for task 26: unlimited
  | Current stacksize for task 27: unlimited
  | Current stacksize for task 28: unlimited
  | Current stacksize for task 29: unlimited
  | Current stacksize for task 30: unlimited
  | Current stacksize for task 31: unlimited
  | Current stacksize for task 32: unlimited
  | Current stacksize for task 33: unlimited
  | Current stacksize for task 34: unlimited
  | Current stacksize for task 35: unlimited
  | Current stacksize for task 36: unlimited
  | Current stacksize for task 37: unlimited
  | Current stacksize for task 38: unlimited
  | Current stacksize for task 39: unlimited
  | Current stacksize for task 40: unlimited
  | Current stacksize for task 41: unlimited
  | Current stacksize for task 42: unlimited
  | Current stacksize for task 43: unlimited
  | Current stacksize for task 44: unlimited
  | Current stacksize for task 45: unlimited
  | Current stacksize for task 46: unlimited
  | Current stacksize for task 47: unlimited
  | Current stacksize for task 48: unlimited
  | Current stacksize for task 49: unlimited
  | Current stacksize for task 50: unlimited
  | Current stacksize for task 51: unlimited
  | Current stacksize for task 52: unlimited
  | Current stacksize for task 53: unlimited
  | Current stacksize for task 54: unlimited
  | Current stacksize for task 55: unlimited
  | Current stacksize for task 56: unlimited
  | Current stacksize for task 57: unlimited
  | Current stacksize for task 58: unlimited
  | Current stacksize for task 59: unlimited
  | Current stacksize for task 60: unlimited
  | Current stacksize for task 61: unlimited
  | Current stacksize for task 62: unlimited
  | Current stacksize for task 63: unlimited

  Consistency checks for the contents of control.in are next.

  Coulomb operator: Defaulting to logarithmic spherical Bessel transform integrals (use_logsbt .true.).
  LC-wPBEh screening parameters: omega  =      0.30000000 bohr^-1, and
                                 alpha =      0.15000000.
  MPI_IN_PLACE appears to work with this MPI implementation.
  | Keeping use_mpi_in_place .true. (see manual).
  Explicit treatment of the Coulomb operator is needed, but the RI method is not specified.
  Coulomb operator: Defaulting to 'LVL fast' resolution of identity - RI_type = LVL_fast
  Species Al: Using default value for prodbas_acc =   1.000000E-04.
  Species Al: Using default value max_l_prodbas =    20.
  Species P: Using default value for prodbas_acc =   1.000000E-04.
  Species P: Using default value max_l_prodbas =    20.
  Target number of points in a grid batch is not set. Defaulting to  100
  Method for grid partitioning is not set. Defaulting to parallel hash+maxmin partitioning.
  Batch size limit is not set. Defaulting to    200
  By default, will store active basis functions for each batch.
  If in need of memory, prune_basis_once .false. can be used to disable this option.
  communication_type for Hartree potential was not specified.
  Defaulting to calc_hartree .
  Defaulting to Pulay charge density mixer.
  Pulay mixer: Number of initial linear mixing iterations not set.
  Defaulting to    0 iterations.
  Work space size for distributed Hartree potential not set.
  Defaulting to   0.200000E+03 MB.
  Algorithm-dependent basis array size parameters:
  | n_max_pulay                         :        8
  Maximum number of self-consistency iterations not provided.
  Presetting  1000 iterations.
  Presetting      1001 iterations before the initial mixing cycle
  is restarted anyway using the sc_init_iter criterion / keyword.
  Presetting a factor      1.000 between actual scf density residual
  and density convergence criterion sc_accuracy_rho below which sc_init_iter
  takes no effect.
  Calculation of forces was not defined in control.in. No forces will be calculated.
  Geometry relaxation not requested: no relaxation will be performed.
  No accuracy limit for integral partition fn. given. Defaulting to  0.1000E-14.
  No threshold value for u(r) in integrations given. Defaulting to  0.1000E-05.
  No threshold value for occupation numbers given. Defaulting to  0.0000E+00.
  No accuracy for fermi level given. Defaulting to  0.1000E-19.
  Preferred method for the eigenvalue solver ('KS_method') not specified in 'control.in'.
  Calling BLACS routine to test compilation state
  Since ScaLAPACK support is enabled, defaulting to ELPA (via ELSI).
  Threshold for basis singularities not set.
  Default threshold for basis singularities:  0.1000E-04
  partition_type (choice of integration weights) for integrals was not specified.
  | Using a version of the partition function of Stratmann and coworkers ('stratmann_sparse').
  | At each grid point, the set of atoms used to build the partition table is smoothly restricted to
  | only those atoms whose free-atom density would be non-zero at that grid point.
  Partitioning for Hartree potential was not defined. Using partition_type for integrals.
  | Adjusted default value of keyword multip_moments_threshold to:       0.10000000E-11
  | This value may affect high angular momentum components of the Hartree potential in periodic systems.
  Threshold for auxiliary basis singularities not set.
  Default threshold for auxiliary basis singularities:  0.1000E-04
  Use default threshold for vanishing multipole moments of auxiliary basis:  0.1000E-07
  No q(lm)/r^(l+1) cutoff set for long-range Hartree potential.
  | Using default value of  0.100000E-09 .
  | Verify using the multipole_threshold keyword.
  Defaulting to new monopole extrapolation.
  Density update method: automatic selection selected.
  Coulomb operator: Defaulting to screening threshold for four-center integrals:   0.100000E-06
  Coulomb operator: Defaulting to screening threshold for Coulomb matrix:   0.100000E-09
  Fock matrix calculation: Setting the screening threshold for overlap matrix to coul_mat_threshold:   0.100000E-09
  Coulomb operator: Defaulting to 'LVL_fast' resolution of identity - RI_type = LVL_fast 
  No other resolution of identity version is supported for periodic boundary conditions at present.
  Coulomb operator: Defaulting to logarithmic spherical Bessel transform integrals (use_logsbt .true.).
  Charge integration errors on the 3D integration grid will be compensated
  by explicit normalization and distribution of residual charges.
  Use the "compensate_multipole_errors" flag to change this behaviour.
  LVL not implemented with density matrix yet
  -> switching to transformed overlap
  LVL probably works better with logsbt
  Default to 1D ("use_logsbt") integrations for auxiliary 2-center integrals.
  Default onset of logarithmic r-grid for SBT is -38.000000000000
  Default onset of logarithmic k-grid for SBT is -25.000000000000
  Default range of logarithmic r- and k-grid for SBT is  45.000000000000
  Default number of logarithmic r- and k-grid for SBT is   4096
  Default of use_2d_corr is to use the efficient 2D distribution where possible
  Set 'collect_eigenvectors' to be '.true.' for use_density_matrix .false.
  Found potential conflicts with setting 'use_local_index' for this calculation. Will not set it.
** WARNING:

  You have specified the use of LibXC.

  ** PLEASE ** be careful using LibXC. Whilst most of the LDA, GGA and MGGA
  functionals, and hybrid variations therein, should be stable (though we
  always recommend testing!), there are several fancy functionals with e.g.
  range-separation, like HSE03/HSE06/LC-PBEh, and also MGGA functionals
  that depend on the laplacian of the density, like BR89, that are not
  fully implemented due to the infrastructure for these functionals being
  incomplete or non-generic.
  If you want to use these functionals please contact the development team
  and we will work on them with you!

** END OF WARNING

  Consistency checks for the contents of geometry.in are next.

  Number of empty states per atom not set in control.in - providing a guess from actual geometry.
  | Total number of empty states used during s.c.f. cycle:        6
  If you use a very high smearing, use empty_states (per atom!) in control.in to increase this value.

  Structure-dependent array size parameters: 
  | Maximum number of distinct radial functions  :       20
  | Maximum number of basis functions            :       68
  | Number of Kohn-Sham states (occupied + empty):       20
------------------------------------------------------------
  After read_input_data [GB]:    989.04

  Performing system and environment tests:
  | Environment variable OMP_NUM_THREADS correctly set to 1.
  | Checking for ScaLAPACK...
  | Testing pdtran()...
  *** WARNING: CPU mismatch detected for Node worker6196 : Intel(R) Xeon(R) Platinum 8362 CPU @ 2.80GHz                                                 
  | All pdtran() tests passed.
  | Testing CPU compatibility for run-time vs. build-time.
  | Reading /proc/cpuinfo for CPU information ...
  | Built for  : Intel(R) Xeon(R) w5-3435X
  *** WARNING: CPU mismatch detected for Node worker6022 : Intel(R) Xeon(R) Platinum 8362 CPU @ 2.80GHz                                                 
** WARNING:
  | WARNING: This FHI-aims executable was built on a different
  CPU type than the CPUs used in this run.

  | Running on different hardware than that on which a code was compiled
  | can produce incorrect results (wrong numbers) due to architecture-specific
  | optimizations made by the compiler. Those wrong numbers may occur only spuriously.
  | They are therefore very difficult to rule out even by tests ahead of time.

** END OF WARNING
  | Running on : Intel(R) Xeon(R) Platinum 8362 CPU @ 2.80GHz
  | Runtime CPU compatibility verified.
  
  After prepare_system [GB]:    989.02

------------------------------------------------------------
          Preparing all fixed parts of the calculation.
------------------------------------------------------------
  Determining machine precision:
     2.2250738585072014E-308
  Setting up grids for atomic and cluster calculations.

  Creating wave function, potential, and density for free atoms.
  Runtime choices for atomic solver:
  | atomic solver xc        : PBE
  | compute density gradient: 1
  | compute kinetic density : T

  Species: Al

  List of occupied orbitals and eigenvalues:
    n    l              occ      energy [Ha]    energy [eV]
    1    0           2.0000       -55.632680     -1513.8422
    2    0           2.0000        -3.968002      -107.9748
    3    0           2.0000        -0.279583        -7.6079
    2    1           6.0000        -2.551946       -69.4420
    3    1           1.0000        -0.093244        -2.5373


  Species: P

  List of occupied orbitals and eigenvalues:
    n    l              occ      energy [Ha]    energy [eV]
    1    0           2.0000       -76.790257     -2089.5692
    2    0           2.0000        -6.393895      -173.9867
    3    0           2.0000        -0.512112       -13.9353
    2    1           6.0000        -4.574086      -124.4672
    3    1           3.0000        -0.201148        -5.4735


  Adding cutoff potential to free-atom effective potential.
  Creating fixed part of basis set: Ionic, confined, hydrogenic.

  Al                   ion:
  Runtime choices for ionic solver:
  | ionic solver xc        : PBE

  List of free ionic orbitals and eigenvalues:
    n    l      energy [Ha]    energy [eV]
    1    0       -56.418846     -1535.2349
    2    0        -4.732717      -128.7838
    3    0        -0.872690       -23.7471
    2    1        -3.317230       -90.2664


  List of ionic basis orbitals and eigenvalues:
    n    l      energy [Ha]    energy [eV]    outer radius [A]
    3    2        -0.350517        -9.5381       5.451604
    3    1        -0.632146       -17.2016       5.385364
    3    0        -0.872680       -23.7468       4.943680


  Al                   hydrogenic:

  List of hydrogenic basis orbitals: 
    n    l      effective z      eigenvalue [eV]  inner max. [A]     outer max. [A]     outer radius [A]   
    4    3         4.700000       -18.7545           1.792186           1.792186           5.451604

  List of extra hydrogenic orbitals for auxiliary basis: 
    n    l      effective z      eigenvalue [eV]  inner max. [A]     outer max. [A]     outer radius [A]   
    5    4         7.000000       -26.6464           1.882002           1.882002           5.451604


  P                    ion:
  Runtime choices for ionic solver:
  | ionic solver xc        : PBE

  List of free ionic orbitals and eigenvalues:
    n    l      energy [Ha]    energy [eV]
    1    0       -77.734373     -2115.2599
    2    0        -7.310959      -198.9413
    3    0        -1.271460       -34.5982
    2    1        -5.492730      -149.4648
    3    1        -0.913468       -24.8567


  List of ionic basis orbitals and eigenvalues:
    n    l      energy [Ha]    energy [eV]    outer radius [A]
    3    2        -0.457450       -12.4478       5.404780
    3    1        -0.913460       -24.8565       4.724723
    3    0        -1.271453       -34.5980       4.232463


  P                    hydrogenic:

  List of hydrogenic basis orbitals: 
    n    l      effective z      eigenvalue [eV]  inner max. [A]     outer max. [A]     outer radius [A]   
    4    3         6.200000       -32.6870           1.357793           1.357793           5.339109

  List of extra hydrogenic orbitals for auxiliary basis: 
    n    l      effective z      eigenvalue [eV]  inner max. [A]     outer max. [A]     outer radius [A]   
    5    4         8.600000       -40.2502           1.534356           1.534356           5.404780

  Creating atomic-like basis functions for current effective potential.

  Species Al                  :

  List of atomic basis orbitals and eigenvalues:
    n    l      energy [Ha]    energy [eV]    outer radius [A]
    1    0       -55.632680     -1513.8422       0.850197
    2    0        -3.968002      -107.9748       3.144911
    3    0        -0.279583        -7.6079       5.385364
    2    1        -2.551946       -69.4420       3.777870
    3    1        -0.093244        -2.5373       5.451604


  Species P                   :

  List of atomic basis orbitals and eigenvalues:
    n    l      energy [Ha]    energy [eV]    outer radius [A]
    1    0       -76.790257     -2089.5692       0.727884
    2    0        -6.393895      -173.9867       2.532824
    3    0        -0.512112       -13.9353       5.274236
    2    1        -4.574086      -124.4672       2.862183
    3    1        -0.201148        -5.4735       5.404780

  Assembling full basis from fixed parts.
  | Species Al :   atomic orbital   1 s accepted.
  | Species Al :   atomic orbital   2 s accepted.
  | Species Al :    ionic orbital   3 s accepted.
  | Species Al :   atomic orbital   3 s accepted.
  | Species Al :   atomic orbital   2 p accepted.
  | Species Al :    ionic orbital   3 p accepted.
  | Species Al :   atomic orbital   3 p accepted.
  | Species Al :    ionic orbital   3 d accepted.
  | Species Al :    hydro orbital   4 f accepted.
  | Species P :   atomic orbital   1 s accepted.
  | Species P :   atomic orbital   2 s accepted.
  | Species P :    ionic orbital   3 s accepted.
  | Species P :   atomic orbital   3 s accepted.
  | Species P :   atomic orbital   2 p accepted.
  | Species P :    ionic orbital   3 p accepted.
  | Species P :   atomic orbital   3 p accepted.
  | Species P :    ionic orbital   3 d accepted.
  | Species P :    hydro orbital   4 f accepted.

  Basis size parameters after reduction:
  | Total number of radial functions:       18
  | Total number of basis functions :       50

  Assembling extended basis for auxiliary basis.
  | Species Al :   atomic orbital   1 s accepted.
  | Species Al :   atomic orbital   2 s accepted.
  | Species Al :    ionic orbital   3 s accepted.
  | Species Al :   atomic orbital   3 s accepted.
  | Species Al :   atomic orbital   2 p accepted.
  | Species Al :    ionic orbital   3 p accepted.
  | Species Al :   atomic orbital   3 p accepted.
  | Species Al :    ionic orbital   3 d accepted.
  | Species Al :    hydro orbital   4 f accepted.
  | Species Al :    hydro orbital   5 g accepted.
  | Species P :   atomic orbital   1 s accepted.
  | Species P :   atomic orbital   2 s accepted.
  | Species P :    ionic orbital   3 s accepted.
  | Species P :   atomic orbital   3 s accepted.
  | Species P :   atomic orbital   2 p accepted.
  | Species P :    ionic orbital   3 p accepted.
  | Species P :   atomic orbital   3 p accepted.
  | Species P :    ionic orbital   3 d accepted.
  | Species P :    hydro orbital   4 f accepted.
  | Species P :    hydro orbital   5 g accepted.
  Per-task memory consumption for arrays in subroutine allocate_ext:
  |           6.925000MB.

  Extended basis size parameters after reduction:
  | Total number of radial functions:       20
  | Total number of basis functions :       68

  Testing on-site integration grid accuracy.
  |  Species  Function  <phi|h_atom|phi> (log., in eV)  <phi|h_atom|phi> (rad., in eV)
           1        1              -1513.8422387113              -1513.8422137479
           1        2               -107.9748298038               -107.9748295037
           1        3                 -7.1549958236                 -7.1549944009
           1        4                  4.6897975489                  4.6885092788
           1        5                -69.4419904626                -69.4419903866
           1        6                 -1.7284229072                 -1.7284376197
           1        7                  4.8720809074                  4.8685169848
           1        8                  3.8392908628                  3.8389332718
           1        9                 11.4987355985                 11.4983224815
           2       10              -2089.5691986335              -2089.5691596863
           2       11               -173.9867283695               -173.9867277557
           2       12                -13.6361081844                -13.6361080848
           2       13                  6.3196202277                  6.3196248730
           2       14               -124.4672117337               -124.4672115736
           2       15                 -4.8326310060                 -4.8326301332
           2       16                  5.8128667531                  5.8123810283
           2       17                  5.1351171633                  5.1350933795
           2       18                 19.3185135835                 19.3185098349

  Preparing densities etc. for the partition functions (integrals / Hartree potential).

  Preparations completed.
  max(cpu_time)          :      0.231 s.
  Wall clock time (cpu1) :      0.632 s.
------------------------------------------------------------
  After prepare_scf [GB]:    988.20

  Initializing index lists of integration centers etc. from given atomic structure:
  | Consuming          0 KiB for k_phase_exx.
  | Number of centers in hartree potential                       :         2
  | Number of centers in hartree multipole                       :         2
  | Number of centers in electron density summation              :         2
  | Number of centers in basis integrals                         :         2
  | Number of centers in integrals                               :         2
  | Number of centers in hamiltonian                             :         2
  | Number of centers in partition table from touching 0-cell    :         2
  | Number of centers in partition table total                   :         2
  After initialize_bc_dependent_lists [GB]:    988.20

------------------------------------------------------------
          Begin self-consistency loop: Initialization.

          Date     :  20260724, Time     :  093956.075
------------------------------------------------------------
  Available memory per node after initialize_hartree_non_periodic_ewald [GB]:    988.20
  Available memory per node after initialize_recip_hartree_potential [GB]:    988.20
  * Using 64 tasks for Scalapack Eigenvalue solver.
  Detailed listing of tasks and assigned k-points:
  (for non-periodic systems, the "k-point" denotes an internal label only)
   Task     0 k-point     1 on worker6022
   Task     1 k-point     1 on worker6022
   Task     2 k-point     1 on worker6022
   Task     3 k-point     1 on worker6022
   Task     4 k-point     1 on worker6022
   Task     5 k-point     1 on worker6022
   Task     6 k-point     1 on worker6022
   Task     7 k-point     1 on worker6022
   Task     8 k-point     1 on worker6022
   Task     9 k-point     1 on worker6022
   Task    10 k-point     1 on worker6022
   Task    11 k-point     1 on worker6022
   Task    12 k-point     1 on worker6022
   Task    13 k-point     1 on worker6022
   Task    14 k-point     1 on worker6022
   Task    15 k-point     1 on worker6022
   Task    16 k-point     1 on worker6022
   Task    17 k-point     1 on worker6022
   Task    18 k-point     1 on worker6022
   Task    19 k-point     1 on worker6022
   Task    20 k-point     1 on worker6022
   Task    21 k-point     1 on worker6022
   Task    22 k-point     1 on worker6022
   Task    23 k-point     1 on worker6022
   Task    24 k-point     1 on worker6022
   Task    25 k-point     1 on worker6022
   Task    26 k-point     1 on worker6022
   Task    27 k-point     1 on worker6022
   Task    28 k-point     1 on worker6022
   Task    29 k-point     1 on worker6022
   Task    30 k-point     1 on worker6022
   Task    31 k-point     1 on worker6022
   Task    32 k-point     1 on worker6196
   Task    33 k-point     1 on worker6196
   Task    34 k-point     1 on worker6196
   Task    35 k-point     1 on worker6196
   Task    36 k-point     1 on worker6196
   Task    37 k-point     1 on worker6196
   Task    38 k-point     1 on worker6196
   Task    39 k-point     1 on worker6196
   Task    40 k-point     1 on worker6196
   Task    41 k-point     1 on worker6196
   Task    42 k-point     1 on worker6196
   Task    43 k-point     1 on worker6196
   Task    44 k-point     1 on worker6196
   Task    45 k-point     1 on worker6196
   Task    46 k-point     1 on worker6196
   Task    47 k-point     1 on worker6196
   Task    48 k-point     1 on worker6196
   Task    49 k-point     1 on worker6196
   Task    50 k-point     1 on worker6196
   Task    51 k-point     1 on worker6196
   Task    52 k-point     1 on worker6196
   Task    53 k-point     1 on worker6196
   Task    54 k-point     1 on worker6196
   Task    55 k-point     1 on worker6196
   Task    56 k-point     1 on worker6196
   Task    57 k-point     1 on worker6196
   Task    58 k-point     1 on worker6196
   Task    59 k-point     1 on worker6196
   Task    60 k-point     1 on worker6196
   Task    61 k-point     1 on worker6196
   Task    62 k-point     1 on worker6196
   Task    63 k-point     1 on worker6196
  Tasks:    64 split into      8 X      8 BLACS grid
  Calculating block size based on n_basis =           50  max_nprow =            8  max_npcol =            8
  ScaLAPACK block size set to:            4
  Allocating        0.000 MB for ovlp
  Allocating        0.000 MB for ham
  Allocating        0.000 MB for eigenvec
  Required Scalapack workspace - INTEGER:            1  REAL:             1
  Available memory per node after initialize_scalapack [GB]:    988.20
  Available memory per node after aims_elsi_init_scf [GB]:    988.20
  Available memory per node after initialize_fixed_grids [GB]:    988.20
  Partitioning the integration grid into batches with parallel hashing+maxmin method.
  | Number of batches:      576
  | Maximal batch size:     151
  | Minimal batch size:       1
  | Average batch size:      71.049
  | Standard deviation of batch sizes:      17.773

  Integration load balanced across    64 MPI tasks.
  Work distribution over tasks is as follows:
  Task     0 has        657 integration points.
  Task     1 has        606 integration points.
  Task     2 has        602 integration points.
  Task     3 has        653 integration points.
  Task     4 has        699 integration points.
  Task     5 has        644 integration points.
  Task     6 has        614 integration points.
  Task     7 has        604 integration points.
  Task     8 has        656 integration points.
  Task     9 has        610 integration points.
  Task    10 has        672 integration points.
  Task    11 has        601 integration points.
  Task    12 has        651 integration points.
  Task    13 has        604 integration points.
  Task    14 has        655 integration points.
  Task    15 has        646 integration points.
  Task    16 has        608 integration points.
  Task    17 has        646 integration points.
  Task    18 has        617 integration points.
  Task    19 has        609 integration points.
  Task    20 has        618 integration points.
  Task    21 has        749 integration points.
  Task    22 has        654 integration points.
  Task    23 has        718 integration points.
  Task    24 has        606 integration points.
  Task    25 has        647 integration points.
  Task    26 has        652 integration points.
  Task    27 has        614 integration points.
  Task    28 has        716 integration points.
  Task    29 has        654 integration points.
  Task    30 has        641 integration points.
  Task    31 has        652 integration points.
  Task    32 has        617 integration points.
  Task    33 has        648 integration points.
  Task    34 has        648 integration points.
  Task    35 has        612 integration points.
  Task    36 has        655 integration points.
  Task    37 has        602 integration points.
  Task    38 has        650 integration points.
  Task    39 has        625 integration points.
  Task    40 has        649 integration points.
  Task    41 has        657 integration points.
  Task    42 has        618 integration points.
  Task    43 has        651 integration points.
  Task    44 has        626 integration points.
  Task    45 has        628 integration points.
  Task    46 has        615 integration points.
  Task    47 has        601 integration points.
  Task    48 has        645 integration points.
  Task    49 has        653 integration points.
  Task    50 has        653 integration points.
  Task    51 has        651 integration points.
  Task    52 has        668 integration points.
  Task    53 has        602 integration points.
  Task    54 has        621 integration points.
  Task    55 has        714 integration points.
  Task    56 has        600 integration points.
  Task    57 has        619 integration points.
  Task    58 has        618 integration points.
  Task    59 has        613 integration points.
  Task    60 has        613 integration points.
  Task    61 has        609 integration points.
  Task    62 has        650 integration points.
  Task    63 has        718 integration points.
  Available memory per node after partition_grid [GB]:    987.86
  Initializing partition tables, free-atom densities, potentials, etc. across the integration grid (initialize_grid_storage).
  | initialize_grid_storage: Actual outermost partition radius vs. multipole_radius_free
  | (-- VB: in principle, multipole_radius_free should be larger, hence this output)
  | Species        1: Confinement radius =              6.000000000000000 AA, multipole_radius_free =              6.011712643327361 AA.
  | Species        1: outer_partition_radius set to              6.011712643327361 AA .
  | Species        2: Confinement radius =              6.000000000000000 AA, multipole_radius_free =              6.033387558927091 AA.
  | Species        2: outer_partition_radius set to              6.033387558927091 AA .
  | The sparse table of interatomic distances needs          0.04 kbyte instead of         0.03 kbyte of memory.
  | Using the partition_type stratmann_smoother will reduce your memory usage.
  | Net number of integration points:    40924
  | of which are non-zero points    :    39249
  Available memory per node after initialize_grid_storage_p1 [GB]:    987.86
  Renormalizing the initial density to the exact electron count on the 3D integration grid.
  | Initial density: Formal number of electrons (from input files) :      28.0000000000
  | Integrated number of electrons on 3D grid     :      27.9999990609
  | Charge integration error                      :      -0.0000009391
  | Normalization factor for density and gradient :       1.0000000335
  Renormalizing the free-atom superposition density to the exact electron count on the 3D integration grid.
  | Formal number of electrons (from input files) :      28.0000000000
  | Integrated number of electrons on 3D grid     :      27.9999990609
  | Charge integration error                      :      -0.0000009391
  | Normalization factor for density and gradient :       1.0000000335
  Obtaining max. number of non-zero basis functions in each batch (get_n_compute_maxes).
  | Maximal number of non-zero basis functions:       49 in task     0
  | Maximal number of non-zero basis functions:       49 in task     1
  | Maximal number of non-zero basis functions:       49 in task     2
  | Maximal number of non-zero basis functions:       49 in task     3
  | Maximal number of non-zero basis functions:       49 in task     4
  | Maximal number of non-zero basis functions:       49 in task     5
  | Maximal number of non-zero basis functions:       49 in task     6
  | Maximal number of non-zero basis functions:       49 in task     7
  | Maximal number of non-zero basis functions:       49 in task     8
  | Maximal number of non-zero basis functions:       49 in task     9
  | Maximal number of non-zero basis functions:       50 in task    10
  | Maximal number of non-zero basis functions:       49 in task    11
  | Maximal number of non-zero basis functions:       49 in task    12
  | Maximal number of non-zero basis functions:       49 in task    13
  | Maximal number of non-zero basis functions:       49 in task    14
  | Maximal number of non-zero basis functions:       49 in task    15
  | Maximal number of non-zero basis functions:       49 in task    16
  | Maximal number of non-zero basis functions:       49 in task    17
  | Maximal number of non-zero basis functions:       50 in task    18
  | Maximal number of non-zero basis functions:       49 in task    19
  | Maximal number of non-zero basis functions:       49 in task    20
  | Maximal number of non-zero basis functions:       50 in task    21
  | Maximal number of non-zero basis functions:       49 in task    22
  | Maximal number of non-zero basis functions:       49 in task    23
  | Maximal number of non-zero basis functions:       49 in task    24
  | Maximal number of non-zero basis functions:       49 in task    25
  | Maximal number of non-zero basis functions:       49 in task    26
  | Maximal number of non-zero basis functions:       49 in task    27
  | Maximal number of non-zero basis functions:       50 in task    28
  | Maximal number of non-zero basis functions:       49 in task    29
  | Maximal number of non-zero basis functions:       49 in task    30
  | Maximal number of non-zero basis functions:       50 in task    31
  | Maximal number of non-zero basis functions:       50 in task    32
  | Maximal number of non-zero basis functions:       49 in task    33
  | Maximal number of non-zero basis functions:       49 in task    34
  | Maximal number of non-zero basis functions:       49 in task    35
  | Maximal number of non-zero basis functions:       49 in task    36
  | Maximal number of non-zero basis functions:       49 in task    37
  | Maximal number of non-zero basis functions:       50 in task    38
  | Maximal number of non-zero basis functions:       49 in task    39
  | Maximal number of non-zero basis functions:       49 in task    40
  | Maximal number of non-zero basis functions:       49 in task    41
  | Maximal number of non-zero basis functions:       49 in task    42
  | Maximal number of non-zero basis functions:       49 in task    43
  | Maximal number of non-zero basis functions:       49 in task    44
  | Maximal number of non-zero basis functions:       49 in task    45
  | Maximal number of non-zero basis functions:       49 in task    46
  | Maximal number of non-zero basis functions:       49 in task    47
  | Maximal number of non-zero basis functions:       49 in task    48
  | Maximal number of non-zero basis functions:       49 in task    49
  | Maximal number of non-zero basis functions:       50 in task    50
  | Maximal number of non-zero basis functions:       48 in task    51
  | Maximal number of non-zero basis functions:       49 in task    52
  | Maximal number of non-zero basis functions:       49 in task    53
  | Maximal number of non-zero basis functions:       49 in task    54
  | Maximal number of non-zero basis functions:       49 in task    55
  | Maximal number of non-zero basis functions:       49 in task    56
  | Maximal number of non-zero basis functions:       49 in task    57
  | Maximal number of non-zero basis functions:       49 in task    58
  | Maximal number of non-zero basis functions:       49 in task    59
  | Maximal number of non-zero basis functions:       49 in task    60
  | Maximal number of non-zero basis functions:       49 in task    61
  | Maximal number of non-zero basis functions:       49 in task    62
  | Maximal number of non-zero basis functions:       50 in task    63
  Selecting the method for density update.
  Loop over occupied states selected for charge density update.
  Available memory per node after get_n_compute_maxes_p1 [GB]:    987.86
  Allocating        0.008 MB for KS_eigenvector
  Available memory per node after allocate_matrices [GB]:    987.86
  Available memory per node after init_comm_sparse_local_matrix_scalapack [GB]:    987.86
  Integrating Hamiltonian matrix: batch-based integration.
  Time summed over all CPUs for integration: real work        0.132 s, elapsed        0.234 s => Consider using load balancing!
  Available memory per node after integrate hamiltonian matrix [GB]:    987.86
  Integrating overlap matrix.
  Time summed over all CPUs for integration: real work        0.035 s, elapsed        0.057 s
  Available memory per node after integrate ovlp matrix [GB]:    987.86
  Deallocating overlap matrix.
  Available memory per node after save_overlap_scalapack [GB]:    987.86

  Updating Kohn-Sham eigenvalues and eigenvectors using ELSI and the ELPA eigensolver.
  Overlap matrix is not singular
  | Lowest and highest eigenvalues :  0.4245E-02,  0.1996E+01
  Finished singularity check of overlap matrix
  | Time :     0.163 s
  Starting ELPA eigensolver
  Finished Cholesky decomposition
  | Time :     0.003 s
  Finished transformation to standard eigenproblem
  | Time :     0.000 s
  Finished solving standard eigenproblem
  | Time :     0.017 s
  Finished back-transformation of eigenvectors
  | Time :     0.000 s

  Obtaining occupation numbers and electronic chemical potential using ELSI.
  | Note that, for insulating systems, the printed 'chemical potential' value is not uniquely defined.
  | It can be anywhere in the energy gap, as long as it correctly separates occupied and unoccupied states.
  | In systems with a gap, the physically relevant chemical potential is the VBM or HOMO.

  | Chemical potential (Fermi level):    -1.47025868 eV
  Available memory per node after advance_KS_solution [GB]:    987.85
  Writing Kohn-Sham eigenvalues.

  State    Occupation    Eigenvalue [Ha]    Eigenvalue [eV]
      1       2.00000         -76.582433        -2083.91403
      2       2.00000         -55.399086        -1507.48584
      3       2.00000          -6.169754         -167.88754
      4       2.00000          -4.322778         -117.62877
      5       2.00000          -4.316198         -117.44973
      6       2.00000          -4.316198         -117.44973
      7       2.00000          -3.735337         -101.64370
      8       2.00000          -2.301320          -62.62209
      9       2.00000          -2.291128          -62.34477
     10       2.00000          -2.291128          -62.34477
     11       2.00000          -0.408648          -11.11987
     12       2.00000          -0.136113           -3.70382
     13       2.00000          -0.084993           -2.31278
     14       2.00000          -0.084993           -2.31278
     15       0.00000          -0.023069           -0.62774
     16       0.00000           0.078875            2.14630
     17       0.00000           0.078875            2.14630
     18       0.00000           0.143550            3.90619
     19       0.00000           0.227271            6.18437
     20       0.00000           0.227272            6.18440

  Highest occupied state (VBM) at     -2.31277988 eV
  | Occupation number:      2.00000000

  Lowest unoccupied state (CBM) at    -0.62773748 eV
  | Occupation number:      0.00000000

  Overall HOMO-LUMO gap:      1.68504240 eV.
  Calculating total energy contributions from superposition of free atom densities.

  Total energy components:
  | Sum of eigenvalues            :        -324.88021685 Ha       -8840.44049726 eV
  | XC energy correction          :         -32.13433770 Ha        -874.41981872 eV
  | XC potential correction       :          46.63087369 Ha        1268.89063357 eV
  | Free-atom electrostatic energy:        -265.56026682 Ha       -7226.26252847 eV
  | Hartree energy correction     :          -0.00000000 Ha          -0.00000000 eV
  | Entropy correction            :          -0.00000000 Ha          -0.00000000 eV
  | ---------------------------
  | Total energy                  :        -575.94394768 Ha      -15672.23221089 eV
  | Total energy, T -> 0          :        -575.94394768 Ha      -15672.23221089 eV  <-- do not rely on this value for anything but (periodic) metals
  | Electronic free energy        :        -575.94394768 Ha      -15672.23221089 eV

  Derived energy quantities:
  | Kinetic energy                :         587.10336661 Ha       15975.89545001 eV
  | Electrostatic energy          :       -1130.91297660 Ha      -30773.70784218 eV
  | Energy correction for multipole
  | error in Hartree potential    :           0.00000000 Ha           0.00000000 eV
  | Sum of eigenvalues per atom                           :       -4420.22024863 eV
  | Total energy (T->0) per atom                          :       -7836.11610544 eV  <-- do not rely on this value for anything but (periodic) metals
  | Electronic free energy per atom                       :       -7836.11610544 eV
  
  --------------------------------------------
  Constructing auxiliary basis (full product) ...
  
  Product basis:
  | charge radius: extent of product basis function
  | field radius: extent of its Coulomb potential
  | Species   l  charge radius    field radius  multipol momen
  |    Al     0     1.211957 A      1.211957 A        3.489474E-17 a.u.
  |    Al     0     2.886979 A      2.886979 A       -3.881708E-17 a.u.
  |    Al     0     4.269130 A      4.269130 A       -4.403898E-16 a.u.
  |    Al     0     4.883611 A      4.883611 A       -2.186423E-16 a.u.
  |    Al     0     4.883611 A      4.883611 A       -4.864426E-16 a.u.
  |    Al     0     5.128355 A      5.191434 A        1.856956E-16 a.u.
  |    Al     0     5.451604 A      5.518658 A        2.193861E-17 a.u.
  |    Al     0     5.451604 A      5.518658 A       -1.930590E-18 a.u.
  |    Al     0     5.451604 A      5.586538 A       -5.361319E-16 a.u.
  |    Al     0     5.451604 A  4.863048E+12 A            0.731303 a.u.
  |    Al     1     3.031661 A      3.031661 A       -4.688724E-19 a.u.
  |    Al     1     4.538221 A      4.538221 A       -3.251814E-17 a.u.
  |    Al     1     5.004487 A      5.004487 A        1.261824E-16 a.u.
  |    Al     1     4.943680 A      4.943680 A        1.073767E-16 a.u.
  |    Al     1     5.128355 A      5.128355 A        2.713808E-16 a.u.
  |    Al     1     5.128355 A      5.128355 A       -3.879661E-16 a.u.
  |    Al     1     5.385364 A      5.451604 A        2.932825E-16 a.u.
  |    Al     1     5.451604 A      5.518658 A       -8.722396E-16 a.u.
  |    Al     1     5.518658 A      5.518658 A       -4.951982E-16 a.u.
  |    Al     1     5.518658 A  3.252779E+06 A            3.006747 a.u.
  |    Al     2     4.707750 A      4.707750 A       -2.679167E-17 a.u.
  |    Al     2     5.255288 A      5.255288 A        1.146935E-16 a.u.
  |    Al     2     5.319928 A      5.319928 A        7.276153E-16 a.u.
  |    Al     2     5.385364 A      5.385364 A       -2.436031E-16 a.u.
  |    Al     2     5.451604 A      5.518658 A        4.352275E-15 a.u.
  |    Al     2     5.451604 A      5.451604 A        5.335538E-18 a.u.
  |    Al     2     5.518658 A      5.518658 A       -1.681824E-15 a.u.
  |    Al     2     5.518658 A  3.141630E+04 A           16.651441 a.u.
  |    Al     3     5.319928 A      5.319928 A       -1.191934E-15 a.u.
  |    Al     3     5.451604 A      5.451604 A        2.158104E-15 a.u.
  |    Al     3     5.451604 A      5.451604 A        5.636650E-15 a.u.
  |    Al     3     5.451604 A      5.451604 A       -8.005467E-15 a.u.
  |    Al     3     5.451604 A      5.451604 A       -2.598472E-15 a.u.
  |    Al     3     5.451604 A      5.451604 A       -1.091637E-14 a.u.
  |    Al     3     5.518658 A      5.518658 A        2.575798E-14 a.u.
  |    Al     3     5.518658 A  3.151703E+03 A          100.130555 a.u.
  |    Al     4     5.319928 A      5.319928 A        1.333949E-14 a.u.
  |    Al     4     5.451604 A      5.451604 A        3.025200E-14 a.u.
  |    Al     4     5.451604 A      5.451604 A        1.660923E-14 a.u.
  |    Al     4     5.451604 A      5.451604 A       -4.894975E-14 a.u.
  |    Al     4     5.385364 A      5.385364 A        2.772931E-14 a.u.
  |    Al     4     5.451604 A      5.451604 A       -3.659125E-14 a.u.
  |    Al     4     5.518658 A  7.673893E+02 A          510.344318 a.u.
  |    Al     5     5.385364 A      5.385364 A       -3.945765E-14 a.u.
  |    Al     5     5.451604 A      5.451604 A        2.570000E-13 a.u.
  |    Al     5     5.451604 A      5.451604 A        3.282664E-13 a.u.
  |    Al     5     5.385364 A      5.385364 A        7.344695E-13 a.u.
  |    Al     5     5.518658 A  3.066066E+02 A         3010.734535 a.u.
  |    Al     6     5.385364 A      5.385364 A       -3.144243E-13 a.u.
  |    Al     6     5.451604 A      5.451604 A        1.807785E-13 a.u.
  |    Al     6     5.518658 A  1.577436E+02 A        16643.504268 a.u.
  |    Al     7     5.451604 A  5.451604E+00 A            0.000000 a.u.
  |    Al     7     5.451604 A  7.825279E+01 A        18196.163331 a.u.
  |    Al     8     5.451604 A  5.457020E+01 A       104949.344697 a.u.
  |    P      0     1.050363 A      1.050363 A        5.859875E-17 a.u.
  |    P      0     2.325093 A      2.325093 A        8.955019E-17 a.u.
  |    P      0     3.438239 A      3.438239 A        5.434018E-17 a.u.
  |    P      0     4.181036 A      4.181036 A       -1.065232E-16 a.u.
  |    P      0     4.337222 A      4.337222 A        2.193566E-16 a.u.
  |    P      0     4.554583 A      4.554583 A        6.344742E-16 a.u.
  |    P      0     5.404780 A      5.404780 A       -8.658678E-17 a.u.
  |    P      0     5.339109 A      5.404780 A       -2.132738E-17 a.u.
  |    P      0     5.471259 A      5.538556 A        4.602184E-16 a.u.
  |    P      0     5.471259 A  4.552282E+12 A            0.684571 a.u.
  |    P      1     2.382642 A      2.382642 A       -9.212763E-18 a.u.
  |    P      1     3.654957 A      3.654957 A        1.875910E-17 a.u.
  |    P      1     4.499242 A      4.499242 A       -4.274561E-17 a.u.
  |    P      1     4.444574 A      4.444574 A        5.939822E-17 a.u.
  |    P      1     4.667315 A      4.667315 A       -3.022134E-17 a.u.
  |    P      1     4.961504 A      4.961504 A        7.499482E-17 a.u.
  |    P      1     5.404780 A      5.404780 A       -7.424751E-16 a.u.
  |    P      1     5.471259 A      5.471259 A       -6.293965E-16 a.u.
  |    P      1     5.471259 A  2.946671E+06 A            2.467466 a.u.
  |    P      2     3.885335 A      3.885335 A        2.715960E-17 a.u.
  |    P      2     4.610605 A      4.610605 A       -5.540464E-17 a.u.
  |    P      2     4.782837 A      4.782837 A       -5.113172E-18 a.u.
  |    P      2     5.022530 A      5.022530 A       -7.193680E-18 a.u.
  |    P      2     5.404780 A      5.471259 A        1.804366E-15 a.u.
  |    P      2     5.404780 A      5.404780 A       -8.551282E-16 a.u.
  |    P      2     5.471259 A      5.471259 A        3.999328E-15 a.u.
  |    P      2     5.471259 A  2.907677E+04 A           13.201552 a.u.
  |    P      3     4.841666 A      4.841666 A        1.043924E-16 a.u.
  |    P      3     5.404780 A      5.404780 A       -5.604466E-16 a.u.
  |    P      3     5.404780 A      5.404780 A        6.035348E-15 a.u.
  |    P      3     5.404780 A      5.404780 A        3.644767E-15 a.u.
  |    P      3     5.404780 A      5.404780 A       -2.620521E-16 a.u.
  |    P      3     5.471259 A      5.471259 A        2.361089E-16 a.u.
  |    P      3     5.471259 A      5.471259 A       -8.271667E-15 a.u.
  |    P      3     5.471259 A  2.880711E+03 A           69.885065 a.u.
  |    P      4     5.274236 A      5.274236 A       -4.210141E-15 a.u.
  |    P      4     5.404780 A      5.404780 A        7.519341E-15 a.u.
  |    P      4     5.404780 A      5.404780 A       -3.353816E-14 a.u.
  |    P      4     5.471259 A      5.471259 A        2.625022E-14 a.u.
  |    P      4     5.471259 A      5.471259 A        2.637808E-15 a.u.
  |    P      4     5.471259 A      5.471259 A        4.944272E-15 a.u.
  |    P      4     5.404780 A  6.441629E+02 A          212.697771 a.u.
  |    P      5     5.404780 A      5.404780 A        3.655688E-14 a.u.
  |    P      5     5.404780 A      5.404780 A        3.410171E-14 a.u.
  |    P      5     5.339109 A      5.339109 A       -1.185816E-13 a.u.
  |    P      5     5.404780 A      5.404780 A       -1.036691E-13 a.u.
  |    P      5     5.471259 A  2.719651E+02 A         1466.434633 a.u.
  |    P      6     5.404780 A      5.404780 A        5.462176E-13 a.u.
  |    P      6     5.404780 A      5.404780 A        2.674998E-13 a.u.
  |    P      6     5.404780 A  1.317111E+02 A         4709.107951 a.u.
  |    P      7     5.274236 A  5.274236E+00 A           -0.000000 a.u.
  |    P      7     5.339109 A  7.058572E+01 A         7974.725354 a.u.
  |    P      8     5.339109 A  4.609625E+01 A        22981.068052 a.u.

  | Shrink_full_auxil_basis : there are      107  radial auxiliary wave functions
                            accepted and     127 rejected.
  | Shrink_full_auxil_basis : there are totally                 677 partial auxiliary wave functions.
  prodbas_tasks_distribution_pbc not up to date - distributing tasks.

  | Maximal number of product basis functions per thread :    20    20

  | Number of local auxiliary basis funcs on node     0 :     20
  | Number of local auxiliary basis funcs on node     1 :     20
  | Number of local auxiliary basis funcs on node     2 :     20
  | Number of local auxiliary basis funcs on node     3 :     17
  | Number of local auxiliary basis funcs on node     4 :     10
  | Number of local auxiliary basis funcs on node     5 :     10
  | Number of local auxiliary basis funcs on node     6 :     10
  | Number of local auxiliary basis funcs on node     7 :     10
  | Number of local auxiliary basis funcs on node     8 :     10
  | Number of local auxiliary basis funcs on node     9 :     10
  | Number of local auxiliary basis funcs on node    10 :     10
  | Number of local auxiliary basis funcs on node    11 :     10
  | Number of local auxiliary basis funcs on node    12 :     10
  | Number of local auxiliary basis funcs on node    13 :     10
  | Number of local auxiliary basis funcs on node    14 :     10
  | Number of local auxiliary basis funcs on node    15 :     10
  | Number of local auxiliary basis funcs on node    16 :     10
  | Number of local auxiliary basis funcs on node    17 :     10
  | Number of local auxiliary basis funcs on node    18 :     10
  | Number of local auxiliary basis funcs on node    19 :     10
  | Number of local auxiliary basis funcs on node    20 :     10
  | Number of local auxiliary basis funcs on node    21 :     10
  | Number of local auxiliary basis funcs on node    22 :     10
  | Number of local auxiliary basis funcs on node    23 :     10
  | Number of local auxiliary basis funcs on node    24 :     10
  | Number of local auxiliary basis funcs on node    25 :     10
  | Number of local auxiliary basis funcs on node    26 :     10
  | Number of local auxiliary basis funcs on node    27 :     10
  | Number of local auxiliary basis funcs on node    28 :     10
  | Number of local auxiliary basis funcs on node    29 :     10
  | Number of local auxiliary basis funcs on node    30 :     10
  | Number of local auxiliary basis funcs on node    31 :     10
  | Number of local auxiliary basis funcs on node    32 :     10
  | Number of local auxiliary basis funcs on node    33 :     10
  | Number of local auxiliary basis funcs on node    34 :     10
  | Number of local auxiliary basis funcs on node    35 :     10
  | Number of local auxiliary basis funcs on node    36 :     10
  | Number of local auxiliary basis funcs on node    37 :     10
  | Number of local auxiliary basis funcs on node    38 :     10
  | Number of local auxiliary basis funcs on node    39 :     10
  | Number of local auxiliary basis funcs on node    40 :     10
  | Number of local auxiliary basis funcs on node    41 :     10
  | Number of local auxiliary basis funcs on node    42 :     10
  | Number of local auxiliary basis funcs on node    43 :     10
  | Number of local auxiliary basis funcs on node    44 :     10
  | Number of local auxiliary basis funcs on node    45 :     10
  | Number of local auxiliary basis funcs on node    46 :     10
  | Number of local auxiliary basis funcs on node    47 :     10
  | Number of local auxiliary basis funcs on node    48 :     10
  | Number of local auxiliary basis funcs on node    49 :     10
  | Number of local auxiliary basis funcs on node    50 :     10
  | Number of local auxiliary basis funcs on node    51 :     10
  | Number of local auxiliary basis funcs on node    52 :     10
  | Number of local auxiliary basis funcs on node    53 :     10
  | Number of local auxiliary basis funcs on node    54 :     10
  | Number of local auxiliary basis funcs on node    55 :     10
  | Number of local auxiliary basis funcs on node    56 :     10
  | Number of local auxiliary basis funcs on node    57 :     10
  | Number of local auxiliary basis funcs on node    58 :     10
  | Number of local auxiliary basis funcs on node    59 :     10
  | Number of local auxiliary basis funcs on node    60 :     10
  | Number of local auxiliary basis funcs on node    61 :     10
  | Number of local auxiliary basis funcs on node    62 :     10
  | Number of local auxiliary basis funcs on node    63 :     10
  Parallel distribution of product basis not up to date - distributing tasks.

  | Maximal number of product basis functions per thread :    20    20

  | Minimal total memory requirement for three-center overlap :       0.025 Gbs
  | Number of local auxiliary basis functions on task:      0    20
  | Number of local auxiliary basis functions on task:      1    20
  | Number of local auxiliary basis functions on task:      2    20
  | Number of local auxiliary basis functions on task:      3    17
  | Number of local auxiliary basis functions on task:      4    10
  | Number of local auxiliary basis functions on task:      5    10
  | Number of local auxiliary basis functions on task:      6    10
  | Number of local auxiliary basis functions on task:      7    10
  | Number of local auxiliary basis functions on task:      8    10
  | Number of local auxiliary basis functions on task:      9    10
  | Number of local auxiliary basis functions on task:     10    10
  | Number of local auxiliary basis functions on task:     11    10
  | Number of local auxiliary basis functions on task:     12    10
  | Number of local auxiliary basis functions on task:     13    10
  | Number of local auxiliary basis functions on task:     14    10
  | Number of local auxiliary basis functions on task:     15    10
  | Number of local auxiliary basis functions on task:     16    10
  | Number of local auxiliary basis functions on task:     17    10
  | Number of local auxiliary basis functions on task:     18    10
  | Number of local auxiliary basis functions on task:     19    10
  | Number of local auxiliary basis functions on task:     20    10
  | Number of local auxiliary basis functions on task:     21    10
  | Number of local auxiliary basis functions on task:     22    10
  | Number of local auxiliary basis functions on task:     23    10
  | Number of local auxiliary basis functions on task:     24    10
  | Number of local auxiliary basis functions on task:     25    10
  | Number of local auxiliary basis functions on task:     26    10
  | Number of local auxiliary basis functions on task:     27    10
  | Number of local auxiliary basis functions on task:     28    10
  | Number of local auxiliary basis functions on task:     29    10
  | Number of local auxiliary basis functions on task:     30    10
  | Number of local auxiliary basis functions on task:     31    10
  | Number of local auxiliary basis functions on task:     32    10
  | Number of local auxiliary basis functions on task:     33    10
  | Number of local auxiliary basis functions on task:     34    10
  | Number of local auxiliary basis functions on task:     35    10
  | Number of local auxiliary basis functions on task:     36    10
  | Number of local auxiliary basis functions on task:     37    10
  | Number of local auxiliary basis functions on task:     38    10
  | Number of local auxiliary basis functions on task:     39    10
  | Number of local auxiliary basis functions on task:     40    10
  | Number of local auxiliary basis functions on task:     41    10
  | Number of local auxiliary basis functions on task:     42    10
  | Number of local auxiliary basis functions on task:     43    10
  | Number of local auxiliary basis functions on task:     44    10
  | Number of local auxiliary basis functions on task:     45    10
  | Number of local auxiliary basis functions on task:     46    10
  | Number of local auxiliary basis functions on task:     47    10
  | Number of local auxiliary basis functions on task:     48    10
  | Number of local auxiliary basis functions on task:     49    10
  | Number of local auxiliary basis functions on task:     50    10
  | Number of local auxiliary basis functions on task:     51    10
  | Number of local auxiliary basis functions on task:     52    10
  | Number of local auxiliary basis functions on task:     53    10
  | Number of local auxiliary basis functions on task:     54    10
  | Number of local auxiliary basis functions on task:     55    10
  | Number of local auxiliary basis functions on task:     56    10
  | Number of local auxiliary basis functions on task:     57    10
  | Number of local auxiliary basis functions on task:     58    10
  | Number of local auxiliary basis functions on task:     59    10
  | Number of local auxiliary basis functions on task:     60    10
  | Number of local auxiliary basis functions on task:     61    10
  | Number of local auxiliary basis functions on task:     62    10
  | Number of local auxiliary basis functions on task:     63    10
  | 2D aux task distribution:      8 X      8
  | 2D block size (nb_aux_2d):     64
  Minimal free memory per node on init_fm entry [GB]:    987.68
  -----------------------------------------
  --- Initializing Fock matrix calculations
  -----------------------------------------
  screening_threshold (crit_val) =  0.000000100000
  coul_mat_threshold =  0.000000000100
  No atoms are split internally
  Number of super-cells in X Y Z:       0       0       0
  Number of atoms pairs total:            4
  Atom pair distribution:
  Cell:        0       0       0 atom pairs:        4
  sparsity of pfbvk:   1.00000000
  Number of atoms pairs in BvK cells:            4
  Max. memory consumption per node for Pulay mixing [GB]:      0.00
  Minimal total memory per node [GB]:   1056.49
  Minimal free memory per node [GB]:    987.68
  --- Initializing LVL triples, type COULOMB
  | Storage requirements for basis-basbas products (processor-local):
  |   Species Al: n_prodsfn:   800; storage:       25.00 MiB.
  |   Species P: n_prodsfn:   786; storage:       24.56 MiB.

  --- Initializing Coulomb matrix calculations, type COULOMB
  Preparing TB like auxiliary 2-center Coulomb matrix
  SBT integration errors (all should be 'small'):
  large logFT aliasing -> increase N/lnrange
  large SBT aliasing -> decrease lnk0 & increase lnk0+lnrange
  large SBT ringing -> decrease lnr0 & increase lnr0+lnrange
  |            El't  L: logFT-al.   small-k   large-k   small-r   large-r
  | Need to store 14351 splines of   167 points taking      18952 KiB.
  | Spline reduction from  4096 to   167 points by (cutting and)     1 x coarsening gives error:  0.00E+00
  Finished with initialize_tb_auxmat/lvl_triples, time:        0.170
  --- Calculating Coulomb matrices
  Upper limit for memory consumption per node [GB] for Coulomb matrices if no compression occurs:       0.059
  Upper limit for temporary arrays in Coulomb matrix initalization [GB]:      9.60
  Allocating        0.882 MB for aux_mat
  Min./max. time for Coulomb matrix computation [s]:      0.00      0.00
  Max. memory consumption per node for global Coulomb matrix [GB]:      0.00
  Time to calculate Coulomb Matrices   :        0.005
  After init_coulomb_tuned [GB]:    986.94
  Atomic logSBT for LVL-triples                :  max(cpu_time)    wall_clock(cpu1)
  | Multiplication with kernel                  :        0.000 s           0.000 s
  | Main matrix multiplication                  :        0.000 s           0.000 s
  | Analytic angular integration                :        0.000 s           0.000 s
  | Kernel construction                         :        0.000 s           0.000 s
  | Overall 2-center overlap time               :        0.000 s           0.000 s
  | LVL initialization                          :        0.063 s           0.063 s
  | Whole LVL-triples                           :        0.063 s           0.063 s

  --- Initializing LVL triples, type COULOMB
  | Storage requirements for basis-basbas products (processor-local):
  |   Species Al: n_prodsfn:   800; storage:       25.00 MiB.
  |   Species P: n_prodsfn:   786; storage:       24.56 MiB.

  Atomic logSBT for 2-center Coulomb matrix    :  max(cpu_time)    wall_clock(cpu1)
  | TB initialization                           :        0.106 s           0.107 s
  | TB usage                                    :        0.003 s           0.004 s

  --- Initializing Coulomb matrix calculations, type COULOMB
  Preparing TB like auxiliary 2-center Coulomb matrix
  SBT integration errors (all should be 'small'):
  large logFT aliasing -> increase N/lnrange
  large SBT aliasing -> decrease lnk0 & increase lnk0+lnrange
  large SBT ringing -> decrease lnr0 & increase lnr0+lnrange
  |            El't  L: logFT-al.   small-k   large-k   small-r   large-r
  | Need to store 14351 splines of   167 points taking      18952 KiB.
  | Spline reduction from  4096 to   167 points by (cutting and)     1 x coarsening gives error:  0.00E+00
  Finished with initialize_tb_auxmat/lvl_triples, time:        0.133
  Max. memory consumption per node for uncompressed ovlp3fn matrix [GB]:       0.003
  --- Calculating OVLP3FN
  --- Done calculating OVLP3FN, time:        0.570
  After init_ovlp3fn_tuned2 [GB]:    986.77
  Max. memory consumption per node for compressed global ovlp3fn matrix [GB]:      -0.024
  Atomic logSBT for 2-center Coulomb matrix    :  max(cpu_time)    wall_clock(cpu1)
  | TB initialization                           :        0.097 s           0.097 s
  | TB usage                                    :        0.000 s           0.000 s

  Atomic logSBT for LVL-triples                :  max(cpu_time)    wall_clock(cpu1)
  | Multiplication with kernel                  :        0.001 s           0.000 s
  | Main matrix multiplication                  :        0.114 s           0.010 s
  | Analytic angular integration                :        0.001 s           0.000 s
  | Kernel construction                         :        0.001 s           0.001 s
  | Overall 2-center overlap time               :        0.121 s           0.011 s
  | 3-center preparation multiplications        :        0.008 s           0.008 s
  | 3-center preparation SBTs                   :        0.221 s           0.215 s
  | 3-center combinations                       :        0.128 s           0.016 s
  | Overal 3-center time                        :        0.357 s           0.240 s
  | LVL initialization                          :        0.031 s           0.031 s
  | Whole LVL-triples                           :        0.031 s           0.031 s

  Assumed free memory per node for Fock matrix prefactors [GB]    882.03
  Memory per instance for Coulomb / ovlp matrix [GB]      0.00     -0.05
  Number of nodes, tasks per node     2    32
  Number of instances:   16
  -----------------------------------------------------
  Dividing atoms among tasks for exact exchange energy:
  Atom:     1 Weight:  0.42500E+06
  Atom:     2 Weight:  0.42125E+06

  Average weight per task:  0.21156E+06

  Number of "big" (above average) atoms  :     2
  Number of "small" (below average) atoms:     0
  All atoms have above average work per task
  Atoms will be divided among tasks to get best load distribution

  Atom division among tasks:
  Atom     1: (initial) task:     0, # of tasks:     2
  Atom     2: (initial) task:     2, # of tasks:     2

  -----------------------------------------------------
  Task      0: my_n_atoms2:      1 my_atom_list:      1
  Task      1: my_n_atoms2:      1 my_atom_list:      1
  Task      2: my_n_atoms2:      1 my_atom_list:      2
  Task      3: my_n_atoms2:      1 my_atom_list:      2
  Task      0: my_n_atoms2:      1 my_atom_list:      1
  Task      1: my_n_atoms2:      1 my_atom_list:      1
  Task      2: my_n_atoms2:      1 my_atom_list:      2
  Task      3: my_n_atoms2:      1 my_atom_list:      2
  Task      0: my_n_atoms2:      1 my_atom_list:      1
  Task      1: my_n_atoms2:      1 my_atom_list:      1
  Task      2: my_n_atoms2:      1 my_atom_list:      2
  Task      3: my_n_atoms2:      1 my_atom_list:      2
  Task      0: my_n_atoms2:      1 my_atom_list:      1
  Task      1: my_n_atoms2:      1 my_atom_list:      1
  Task      2: my_n_atoms2:      1 my_atom_list:      2
  Task      3: my_n_atoms2:      1 my_atom_list:      2
  Task      0: my_n_atoms2:      1 my_atom_list:      1
  Task      1: my_n_atoms2:      1 my_atom_list:      1
  Task      2: my_n_atoms2:      1 my_atom_list:      2
  Task      3: my_n_atoms2:      1 my_atom_list:      2
  Task      0: my_n_atoms2:      1 my_atom_list:      1
  Task      1: my_n_atoms2:      1 my_atom_list:      1
  Task      2: my_n_atoms2:      1 my_atom_list:      2
  Task      3: my_n_atoms2:      1 my_atom_list:      2
  Task      0: my_n_atoms2:      1 my_atom_list:      1
  Task      1: my_n_atoms2:      1 my_atom_list:      1
  Task      2: my_n_atoms2:      1 my_atom_list:      2
  Task      3: my_n_atoms2:      1 my_atom_list:      2
  Task      0: my_n_atoms2:      1 my_atom_list:      1
  Task      1: my_n_atoms2:      1 my_atom_list:      1
  Task      2: my_n_atoms2:      1 my_atom_list:      2
  Task      3: my_n_atoms2:      1 my_atom_list:      2
  Task      0: my_n_atoms2:      1 my_atom_list:      1
  Task      1: my_n_atoms2:      1 my_atom_list:      1
  Task      2: my_n_atoms2:      1 my_atom_list:      2
  Task      3: my_n_atoms2:      1 my_atom_list:      2
  Task      0: my_n_atoms2:      1 my_atom_list:      1
  Task      1: my_n_atoms2:      1 my_atom_list:      1
  Task      2: my_n_atoms2:      1 my_atom_list:      2
  Task      3: my_n_atoms2:      1 my_atom_list:      2
  Task      0: my_n_atoms2:      1 my_atom_list:      1
  Task      1: my_n_atoms2:      1 my_atom_list:      1
  Task      2: my_n_atoms2:      1 my_atom_list:      2
  Task      3: my_n_atoms2:      1 my_atom_list:      2
  Task      0: my_n_atoms2:      1 my_atom_list:      1
  Task      1: my_n_atoms2:      1 my_atom_list:      1
  Task      2: my_n_atoms2:      1 my_atom_list:      2
  Task      3: my_n_atoms2:      1 my_atom_list:      2
  Task      0: my_n_atoms2:      1 my_atom_list:      1
  Task      1: my_n_atoms2:      1 my_atom_list:      1
  Task      2: my_n_atoms2:      1 my_atom_list:      2
  Task      3: my_n_atoms2:      1 my_atom_list:      2
  Task      0: my_n_atoms2:      1 my_atom_list:      1
  Task      1: my_n_atoms2:      1 my_atom_list:      1
  Task      2: my_n_atoms2:      1 my_atom_list:      2
  Task      3: my_n_atoms2:      1 my_atom_list:      2
  Task      0: my_n_atoms2:      1 my_atom_list:      1
  Task      1: my_n_atoms2:      1 my_atom_list:      1
  Task      2: my_n_atoms2:      1 my_atom_list:      2
  Task      3: my_n_atoms2:      1 my_atom_list:      2
  Task      0: my_n_atoms2:      1 my_atom_list:      1
  Task      1: my_n_atoms2:      1 my_atom_list:      1
  Task      2: my_n_atoms2:      1 my_atom_list:      2
  Task      3: my_n_atoms2:      1 my_atom_list:      2
  Task      0: my_n_atom_pairs:      1
  Task      1: my_n_atom_pairs:      1
  Task      2: my_n_atom_pairs:      1
  Task      3: my_n_atom_pairs:      1
  Task      0: my_n_atom_pairs:      1
  Task      1: my_n_atom_pairs:      1
  Task      2: my_n_atom_pairs:      1
  Task      3: my_n_atom_pairs:      1
  Task      0: my_n_atom_pairs:      1
  Task      1: my_n_atom_pairs:      1
  Task      2: my_n_atom_pairs:      1
  Task      3: my_n_atom_pairs:      1
  Task      0: my_n_atom_pairs:      1
  Task      1: my_n_atom_pairs:      1
  Task      2: my_n_atom_pairs:      1
  Task      3: my_n_atom_pairs:      1
  Task      0: my_n_atom_pairs:      1
  Task      1: my_n_atom_pairs:      1
  Task      2: my_n_atom_pairs:      1
  Task      3: my_n_atom_pairs:      1
  Task      0: my_n_atom_pairs:      1
  Task      1: my_n_atom_pairs:      1
  Task      2: my_n_atom_pairs:      1
  Task      3: my_n_atom_pairs:      1
  Task      0: my_n_atom_pairs:      1
  Task      1: my_n_atom_pairs:      1
  Task      2: my_n_atom_pairs:      1
  Task      3: my_n_atom_pairs:      1
  Task      0: my_n_atom_pairs:      1
  Task      1: my_n_atom_pairs:      1
  Task      2: my_n_atom_pairs:      1
  Task      3: my_n_atom_pairs:      1
  Task      0: my_n_atom_pairs:      1
  Task      1: my_n_atom_pairs:      1
  Task      2: my_n_atom_pairs:      1
  Task      3: my_n_atom_pairs:      1
  Task      0: my_n_atom_pairs:      1
  Task      1: my_n_atom_pairs:      1
  Task      2: my_n_atom_pairs:      1
  Task      3: my_n_atom_pairs:      1
  Task      0: my_n_atom_pairs:      1
  Task      1: my_n_atom_pairs:      1
  Task      2: my_n_atom_pairs:      1
  Task      3: my_n_atom_pairs:      1
  Task      0: my_n_atom_pairs:      1
  Task      1: my_n_atom_pairs:      1
  Task      2: my_n_atom_pairs:      1
  Task      3: my_n_atom_pairs:      1
  Task      0: my_n_atom_pairs:      1
  Task      1: my_n_atom_pairs:      1
  Task      2: my_n_atom_pairs:      1
  Task      3: my_n_atom_pairs:      1
  Task      0: my_n_atom_pairs:      1
  Task      1: my_n_atom_pairs:      1
  Task      2: my_n_atom_pairs:      1
  Task      3: my_n_atom_pairs:      1
  Task      0: my_n_atom_pairs:      1
  Task      1: my_n_atom_pairs:      1
  Task      2: my_n_atom_pairs:      1
  Task      3: my_n_atom_pairs:      1
  Task      0: my_n_atom_pairs:      1
  Task      1: my_n_atom_pairs:      1
  Task      2: my_n_atom_pairs:      1
  Task      3: my_n_atom_pairs:      1
  Transferring Coulomb matrix to final data layout
  Coulomb matrix communicaton time [s]    0.84
  Max. memory per node for ovlp3fn matrices:        0.050 GB
  Total memory for ovlp3fn matrices:        0.006 GB
  --- Done getting norm of OVLP3FN, time:        0.000
  Total memory for ovlp3fn matrices:        0.006 GB
  --- time for get_ovlp3fn:        0.013
  Max. memory consumption per node for Hartree Fock matrix [GB]      0.00
  Blocksize for Fock matrix computation:     1
  Minimal free memory per node after Fock matrix initialization [GB]:    984.96
  Initialize hartree_potential_storage
  Max. number of atoms included in rho_multipole:            2

  End scf initialization - timings             :  max(cpu_time)    wall_clock(cpu1)
  | Time for scf. initialization                :        1.903 s           2.023 s
  | Boundary condition initialization           :        0.002 s           0.001 s
  | Integration                                 :        0.009 s           0.009 s
  | Solution of K.-S. eqns.                     :        0.165 s           0.187 s
  | Grid partitioning                           :        0.016 s           0.016 s
  | Preloading free-atom quantities on grid     :        0.004 s           0.004 s
  | Free-atom superposition energy              :        0.001 s           0.001 s
  | Total energy evaluation                     :        0.000 s           0.000 s
  | Product basis setup: Total time             :        1.718 s           1.803 s

  Partial memory accounting:
  | Current value for overall tracked memory usage:
  |   Minimum:        1.407 MB (on task 46)
  |   Maximum:        1.609 MB (on task  1)
  |   Average:        1.508 MB
  | Peak value for overall tracked memory usage:
  |   Minimum:        1.615 MB (on task 45 after allocating d_aux_mat)
  |   Maximum:        3.978 MB (on task  0 after allocating d_aux_mat)
  |   Average:        1.762 MB
  | Largest tracked array allocation so far:
  |   Minimum:        1.383 MB (ovlp3fn2%dat on task  2)
  |   Maximum:        1.621 MB (ovlp3fn2%dat on task  0)
  |   Average:        1.491 MB
  Note:  These values currently only include a subset of arrays which are explicitly tracked.
  The "true" memory usage will be greater.
------------------------------------------------------------
  Available memory after initialize_scf [GB]:    984.96
  Available memory after allocating mixing [GB]:    984.96
  Evaluating new KS density.
  Integration grid: deviation in total charge (<rho> - N_e) =   0.000000E+00

  Time for density update prior                :  max(cpu_time)    wall_clock(cpu1)
  | self-consistency iterative process          :        0.002 s           0.002 s
  Available memory before start of SCF loop [GB]:    984.95

------------------------------------------------------------
          Begin self-consistency iteration #    1

  Date     :  20260724, Time     :  093958.100
------------------------------------------------------------
  Pulay mixing of updated and previous charge densities.
  Available memory per node after mixing [GB]:    984.95
  Renormalizing the density to the exact electron count on the 3D integration grid.
  | Formal number of electrons (from input files) :      28.0000000000
  | Integrated number of electrons on 3D grid     :      28.0000000000
  | Charge integration error                      :      -0.0000000000
  | Normalization factor for density and gradient :       1.0000000000

  Evaluating partitioned Hartree potential by multipole expansion.
  | Original multipole sum: apparent total charge =  -0.662909E-14
  | Sum of charges compensated after spline to logarithmic grids =   0.768815E-07
  | Analytical far-field extrapolation by fixed multipoles:
  | Hartree multipole sum: apparent total charge =  -0.637081E-14
  Summing up the Hartree potential.
  Time summed over all CPUs for potential: real work        0.002 s, elapsed        0.002 s
  | RMS charge density error from multipole expansion :   0.338246E-03

  Integrating Hamiltonian matrix: batch-based integration.
  Time summed over all CPUs for integration: real work        0.105 s, elapsed        0.128 s
  Max. memory consumption per node for dm_cols [GB]:      0.00
  Max. memory consumption per node for fock_matrix [GB]:      0.00
  Calculating non-local Hartree-Fock exchange by two-center RI (RI-LVL).
  screening_threshold (crit_val) =  0.000000100000
  Max. allocated memory per node for ovlp3fn_rcv [GB]:      0.00
  Max. allocated memory per node for fock_matrix_row [GB]:      0.00
  Max. memory consumption per node for m_ovlp_fact11 [GB]:      0.00
  Max. memory consumption per node for d_aux_mem [GB]:      0.00
  Max. memory consumption per node for dm_x_o3fn_aux [GB]:      0.00
  Max. allocated memory per node for tmp1/tmp2 [GB]:      0.00
   final impselect vector           6           2           6           1
   Time for autotuning:    5.0217919999999694E-003
  Exact exchange progress report - outermost block loop i_block: 1 ..       4
  |        1         2         3         4 Total ovlp3fn data transfer [GB]   2.1441199060063809E-003
  Average sparsity of tmp1/2 0.50000000
  Average sparsity of fock_matrix_row 0.02000000
  Full exact exchange energy: weighted long- and short-range EXX    269.055773911149 eV.
  Detailed communication and barrier times:
  | Comm    0:        0.000       0.000       0.000       0.000       0.000       0.000       0.000       0.000       0.000       0.000
  | Comm    1:        0.000       0.000       0.000       0.000       0.000       0.000       0.000       0.000       0.000       0.000
  | Comm    2:        0.000       0.000       0.000       0.000       0.000       0.000       0.000       0.000       0.000       0.000
  | Comm    3:        0.000       0.000       0.000       0.000       0.000       0.000       0.000       0.000       0.000       0.000
  | Comm    4:        0.000       0.000       0.000       0.000       0.000       0.000       0.000       0.000       0.000       0.000
  | Comm    5:        0.000       0.000       0.000       0.000       0.000       0.000       0.000       0.000       0.000       0.000
  | Comm    6:        0.000       0.000       0.000       0.000       0.000       0.000       0.000       0.000       0.000       0.000
  | Comm    7:        0.000       0.000       0.000       0.000       0.000       0.000       0.000       0.000       0.000       0.000
  | Comm    8:        0.000       0.000       0.000       0.000       0.000       0.000       0.000       0.000       0.000       0.000
  | Comm    9:        0.000       0.000       0.000       0.000       0.000       0.000       0.000       0.000       0.000       0.000
  | Comm   10:        0.000       0.000       0.000       0.000       0.000       0.000       0.000       0.000       0.000       0.000
  | Comm   11:        0.000       0.000       0.000       0.000       0.000       0.000       0.000       0.000       0.000       0.000
  | Comm   12:        0.000       0.000       0.000       0.000       0.000       0.000       0.000       0.000       0.000       0.000
  | Comm   13:        0.000       0.000       0.000       0.000       0.000       0.000       0.000       0.000       0.000       0.000
  | Comm   14:        0.000       0.000       0.000       0.000       0.000       0.000       0.000       0.000       0.000       0.000
  | Comm   15:        0.000       0.000       0.000       0.000       0.000       0.000       0.000       0.000       0.000       0.000
  | Comm   16:        0.000       0.000       0.000       0.000       0.000       0.000       0.000       0.000       0.000       0.000
  | Comm   17:        0.000       0.000       0.000       0.000       0.000       0.000       0.000       0.000       0.000       0.000
  | Comm   18:        0.000       0.000       0.000       0.000       0.000       0.000       0.000       0.000       0.000       0.000
  | Comm   19:        0.000       0.000       0.000       0.000       0.000       0.000       0.000       0.000       0.000       0.000
  | Comm   20:        0.000       0.000       0.000       0.000       0.000       0.000       0.000       0.000       0.000       0.000
  | Comm   21:        0.000       0.000       0.000       0.000       0.000       0.000       0.000       0.000       0.000       0.000
  | Comm   22:        0.000       0.000       0.000       0.000       0.000       0.000       0.000       0.000       0.000       0.000
  | Comm   23:        0.000       0.000       0.000       0.000       0.000       0.000       0.000       0.000       0.000       0.000
  | Comm   24:        0.000       0.000       0.000       0.000       0.000       0.000       0.000       0.000       0.000       0.000
  | Comm   25:        0.000       0.000       0.000       0.000       0.000       0.000       0.000       0.000       0.000       0.000
  | Comm   26:        0.000       0.000       0.000       0.000       0.000       0.000       0.000       0.000       0.000       0.000
  | Comm   27:        0.000       0.000       0.000       0.000       0.000       0.000       0.000       0.000       0.000       0.000
  | Comm   28:        0.000       0.000       0.000       0.000       0.000       0.000       0.000       0.000       0.000       0.000
  | Comm   29:        0.000       0.000       0.000       0.000       0.000       0.000       0.000       0.000       0.000       0.000
  | Comm   30:        0.000       0.000       0.000       0.000       0.000       0.000       0.000       0.000       0.000       0.000
  | Comm   31:        0.000       0.000       0.000       0.000       0.000       0.000       0.000       0.000       0.000       0.000
  | Comm   32:        0.000       0.000       0.000       0.000       0.000       0.000       0.000       0.000       0.000       0.000
  | Comm   33:        0.000       0.000       0.000       0.000       0.000       0.000       0.000       0.000       0.000       0.000
  | Comm   34:        0.000       0.000       0.000       0.000       0.000       0.000       0.000       0.000       0.000       0.000
  | Comm   35:        0.000       0.000       0.000       0.000       0.000       0.000       0.000       0.000       0.000       0.000
  | Comm   36:        0.000       0.000       0.000       0.000       0.000       0.000       0.000       0.000       0.000       0.000
  | Comm   37:        0.000       0.000       0.000       0.000       0.000       0.000       0.000       0.000       0.000       0.000
  | Comm   38:        0.000       0.000       0.000       0.000       0.000       0.000       0.000       0.000       0.000       0.000
  | Comm   39:        0.000       0.000       0.000       0.000       0.000       0.000       0.000       0.000       0.000       0.000
  | Comm   40:        0.000       0.000       0.000       0.000       0.000       0.000       0.000       0.000       0.000       0.000
  | Comm   41:        0.000       0.000       0.000       0.000       0.000       0.000       0.000       0.000       0.000       0.000
  | Comm   42:        0.000       0.000       0.000       0.000       0.000       0.000       0.000       0.000       0.000       0.000
  | Comm   43:        0.000       0.000       0.000       0.000       0.000       0.000       0.000       0.000       0.000       0.000
  | Comm   44:        0.000       0.000       0.000       0.000       0.000       0.000       0.000       0.000       0.000       0.000
  | Comm   45:        0.000       0.000       0.000       0.000       0.000       0.000       0.000       0.000       0.000       0.000
  | Comm   46:        0.000       0.000       0.000       0.000       0.000       0.000       0.000       0.000       0.000       0.000
  | Comm   47:        0.000       0.000       0.000       0.000       0.000       0.000       0.000       0.000       0.000       0.000
  | Comm   48:        0.000       0.000       0.000       0.000       0.000       0.000       0.000       0.000       0.000       0.000
  | Comm   49:        0.000       0.000       0.000       0.000       0.000       0.000       0.000       0.000       0.000       0.000
  | Comm   50:        0.000       0.000       0.000       0.000       0.000       0.000       0.000       0.000       0.000       0.000
  | Comm   51:        0.000       0.000       0.000       0.000       0.000       0.000       0.000       0.000       0.000       0.000
  | Comm   52:        0.000       0.000       0.000       0.000       0.000       0.000       0.000       0.000       0.000       0.000
  | Comm   53:        0.000       0.000       0.000       0.000       0.000       0.000       0.000       0.000       0.000       0.000
  | Comm   54:        0.000       0.000       0.000       0.000       0.000       0.000       0.000       0.000       0.000       0.000
  | Comm   55:        0.000       0.000       0.000       0.000       0.000       0.000       0.000       0.000       0.000       0.000
  | Comm   56:        0.000       0.000       0.000       0.000       0.000       0.000       0.000       0.000       0.000       0.000
  | Comm   57:        0.000       0.000       0.000       0.000       0.000       0.000       0.000       0.000       0.000       0.000
  | Comm   58:        0.000       0.000       0.000       0.000       0.000       0.000       0.000       0.000       0.000       0.000
  | Comm   59:        0.000       0.000       0.000       0.000       0.000       0.000       0.000       0.000       0.000       0.000
  | Comm   60:        0.000       0.000       0.000       0.000       0.000       0.000       0.000       0.000       0.000       0.000
  | Comm   61:        0.000       0.000       0.000       0.000       0.000       0.000       0.000       0.000       0.000       0.000
  | Comm   62:        0.000       0.000       0.000       0.000       0.000       0.000       0.000       0.000       0.000       0.000
  | Comm   63:        0.000       0.000       0.000       0.000       0.000       0.000       0.000       0.000       0.000       0.000
  | Imbalance    0:        0.000       0.000       0.000       0.000       0.001       0.000       0.000       0.000       0.000       0.000
  | Imbalance    1:        0.000       0.000       0.000       0.000       0.001       0.000       0.000       0.000       0.000       0.001
  | Imbalance    2:        0.000       0.000       0.000       0.000       0.000       0.000       0.000       0.000       0.000       0.000
  | Imbalance    3:        0.000       0.000       0.000       0.000       0.000       0.000       0.000       0.000       0.000       0.001
  | Imbalance    4:        0.000       0.000       0.000       0.000       0.001       0.000       0.000       0.000       0.000       0.000
  | Imbalance    5:        0.000       0.000       0.000       0.000       0.001       0.000       0.000       0.000       0.000       0.000
  | Imbalance    6:        0.000       0.000       0.000       0.000       0.000       0.000       0.000       0.000       0.000       0.000
  | Imbalance    7:        0.000       0.000       0.000       0.000       0.000       0.000       0.000       0.000       0.000       0.001
  | Imbalance    8:        0.000       0.000       0.000       0.000       0.001       0.000       0.000       0.000       0.000       0.000
  | Imbalance    9:        0.000       0.000       0.000       0.000       0.001       0.000       0.000       0.000       0.000       0.001
  | Imbalance   10:        0.000       0.000       0.000       0.000       0.000       0.000       0.000       0.000       0.000       0.000
  | Imbalance   11:        0.000       0.000       0.000       0.000       0.000       0.000       0.000       0.000       0.000       0.002
  | Imbalance   12:        0.000       0.000       0.000       0.000       0.001       0.000       0.000       0.000       0.000       0.000
  | Imbalance   13:        0.000       0.000       0.000       0.000       0.001       0.000       0.000       0.000       0.000       0.001
  | Imbalance   14:        0.000       0.000       0.000       0.000       0.000       0.000       0.000       0.000       0.000       0.000
  | Imbalance   15:        0.000       0.000       0.000       0.000       0.000       0.000       0.000       0.000       0.000       0.002
  | Imbalance   16:        0.000       0.000       0.000       0.000       0.001       0.000       0.000       0.000       0.000       0.000
  | Imbalance   17:        0.000       0.000       0.000       0.000       0.001       0.000       0.000       0.000       0.000       0.001
  | Imbalance   18:        0.000       0.000       0.000       0.000       0.001       0.000       0.000       0.000       0.000       0.000
  | Imbalance   19:        0.000       0.000       0.000       0.000       0.001       0.000       0.000       0.000       0.000       0.001
  | Imbalance   20:        0.000       0.000       0.000       0.000       0.000       0.000       0.000       0.000       0.000       0.000
  | Imbalance   21:        0.000       0.000       0.000       0.000       0.000       0.000       0.000       0.000       0.000       0.000
  | Imbalance   22:        0.000       0.000       0.000       0.000       0.000       0.000       0.000       0.000       0.000       0.000
  | Imbalance   23:        0.000       0.000       0.000       0.000       0.000       0.000       0.000       0.000       0.000       0.001
  | Imbalance   24:        0.000       0.000       0.000       0.000       0.000       0.000       0.000       0.000       0.000       0.000
  | Imbalance   25:        0.000       0.000       0.000       0.000       0.000       0.000       0.000       0.000       0.000       0.000
  | Imbalance   26:        0.000       0.000       0.000       0.000       0.000       0.000       0.000       0.000       0.000       0.000
  | Imbalance   27:        0.000       0.000       0.000       0.000       0.000       0.000       0.000       0.000       0.000       0.001
  | Imbalance   28:        0.000       0.000       0.000       0.000       0.000       0.000       0.000       0.000       0.000       0.000
  | Imbalance   29:        0.000       0.000       0.000       0.000       0.000       0.000       0.000       0.000       0.000       0.000
  | Imbalance   30:        0.000       0.000       0.000       0.000       0.000       0.000       0.000       0.000       0.000       0.000
  | Imbalance   31:        0.000       0.000       0.000       0.000       0.000       0.000       0.000       0.000       0.000       0.001
  | Imbalance   32:        0.000       0.000       0.000       0.000       0.000       0.000       0.000       0.000       0.000       0.000
  | Imbalance   33:        0.000       0.000       0.000       0.000       0.000       0.000       0.000       0.000       0.000       0.000
  | Imbalance   34:        0.000       0.000       0.000       0.000       0.000       0.000       0.000       0.000       0.000       0.000
  | Imbalance   35:        0.000       0.000       0.000       0.000       0.000       0.000       0.000       0.000       0.000       0.000
  | Imbalance   36:        0.000       0.000       0.000       0.000       0.000       0.000       0.000       0.000       0.000       0.000
  | Imbalance   37:        0.000       0.000       0.000       0.000       0.000       0.000       0.000       0.000       0.000       0.000
  | Imbalance   38:        0.000       0.000       0.000       0.000       0.000       0.000       0.000       0.000       0.000       0.000
  | Imbalance   39:        0.000       0.000       0.000       0.000       0.000       0.000       0.000       0.000       0.000       0.000
  | Imbalance   40:        0.000       0.000       0.000       0.000       0.000       0.000       0.000       0.000       0.000       0.000
  | Imbalance   41:        0.000       0.000       0.000       0.000       0.000       0.000       0.000       0.000       0.000       0.000
  | Imbalance   42:        0.000       0.000       0.000       0.000       0.000       0.000       0.000       0.000       0.000       0.000
  | Imbalance   43:        0.000       0.000       0.000       0.000       0.000       0.000       0.000       0.000       0.000       0.000
  | Imbalance   44:        0.000       0.000       0.000       0.000       0.000       0.000       0.000       0.000       0.000       0.000
  | Imbalance   45:        0.000       0.000       0.000       0.000       0.000       0.000       0.000       0.000       0.000       0.000
  | Imbalance   46:        0.000       0.000       0.000       0.000       0.000       0.000       0.000       0.000       0.000       0.000
  | Imbalance   47:        0.000       0.000       0.000       0.000       0.000       0.000       0.000       0.000       0.000       0.000
  | Imbalance   48:        0.000       0.000       0.000       0.000       0.000       0.000       0.000       0.000       0.000       0.000
  | Imbalance   49:        0.000       0.000       0.000       0.000       0.000       0.000       0.000       0.000       0.000       0.000
  | Imbalance   50:        0.000       0.000       0.000       0.000       0.000       0.000       0.000       0.000       0.000       0.000
  | Imbalance   51:        0.000       0.000       0.000       0.000       0.000       0.000       0.000       0.000       0.000       0.000
  | Imbalance   52:        0.000       0.000       0.000       0.000       0.000       0.000       0.000       0.000       0.000       0.000
  | Imbalance   53:        0.000       0.000       0.000       0.000       0.000       0.000       0.000       0.000       0.000       0.000
  | Imbalance   54:        0.000       0.000       0.000       0.000       0.000       0.000       0.000       0.000       0.000       0.000
  | Imbalance   55:        0.000       0.000       0.000       0.000       0.000       0.000       0.000       0.000       0.000       0.000
  | Imbalance   56:        0.000       0.000       0.000       0.000       0.000       0.000       0.000       0.000       0.000       0.000
  | Imbalance   57:        0.000       0.000       0.000       0.000       0.000       0.000       0.000       0.000       0.000       0.000
  | Imbalance   58:        0.000       0.000       0.000       0.000       0.000       0.000       0.000       0.000       0.000       0.000
  | Imbalance   59:        0.000       0.000       0.000       0.000       0.000       0.000       0.000       0.000       0.000       0.000
  | Imbalance   60:        0.000       0.000       0.000       0.000       0.000       0.000       0.000       0.000       0.000       0.000
  | Imbalance   61:        0.000       0.000       0.000       0.000       0.000       0.000       0.000       0.000       0.000       0.000
  | Imbalance   62:        0.000       0.000       0.000       0.000       0.000       0.000       0.000       0.000       0.000       0.000
  | Imbalance   63:        0.000       0.000       0.000       0.000       0.000       0.000       0.000       0.000       0.000       0.000
  Times            DM_x_o3fn   CM_prod_1   CM_prod_2   tmp2_prod        Sync   Imbalance       Other  Total calc
  | Times    0:        0.000       0.001       0.001       0.000       0.001       0.001       0.023       0.025
  | Times    1:        0.000       0.001       0.000       0.000       0.001       0.001       0.023       0.025
  | Times    2:        0.000       0.001       0.001       0.000       0.001       0.000       0.023       0.026
  | Times    3:        0.000       0.001       0.000       0.000       0.001       0.001       0.023       0.026
  | Times    4:        0.000       0.001       0.001       0.000       0.001       0.001       0.023       0.025
  | Times    5:        0.000       0.001       0.000       0.000       0.001       0.001       0.023       0.025
  | Times    6:        0.000       0.001       0.001       0.000       0.001       0.000       0.023       0.025
  | Times    7:        0.000       0.001       0.000       0.000       0.001       0.001       0.023       0.025
  | Times    8:        0.000       0.001       0.001       0.000       0.000       0.001       0.022       0.025
  | Times    9:        0.000       0.000       0.000       0.000       0.000       0.002       0.022       0.026
  | Times   10:        0.000       0.001       0.001       0.000       0.000       0.000       0.022       0.025
  | Times   11:        0.000       0.001       0.000       0.000       0.000       0.002       0.022       0.025
  | Times   12:        0.000       0.001       0.001       0.000       0.000       0.001       0.023       0.025
  | Times   13:        0.000       0.000       0.000       0.000       0.000       0.002       0.023       0.025
  | Times   14:        0.000       0.001       0.001       0.000       0.000       0.000       0.022       0.025
  | Times   15:        0.000       0.001       0.000       0.000       0.000       0.002       0.023       0.025
  | Times   16:        0.000       0.001       0.001       0.000       0.000       0.001       0.022       0.025
  | Times   17:        0.000       0.001       0.000       0.000       0.000       0.002       0.022       0.025
  | Times   18:        0.000       0.001       0.001       0.000       0.000       0.001       0.022       0.025
  | Times   19:        0.000       0.001       0.000       0.000       0.000       0.002       0.022       0.026
  | Times   20:        0.000       0.000       0.000       0.000       0.000       0.001       0.024       0.025
  | Times   21:        0.000       0.000       0.000       0.000       0.000       0.001       0.024       0.025
  | Times   22:        0.000       0.001       0.001       0.000       0.000       0.000       0.023       0.026
  | Times   23:        0.000       0.000       0.000       0.000       0.000       0.001       0.024       0.026
  | Times   24:        0.000       0.000       0.000       0.000       0.000       0.001       0.023       0.025
  | Times   25:        0.000       0.000       0.000       0.000       0.000       0.001       0.023       0.026
  | Times   26:        0.000       0.001       0.001       0.000       0.000       0.000       0.023       0.025
  | Times   27:        0.000       0.001       0.000       0.000       0.000       0.001       0.023       0.026
  | Times   28:        0.000       0.000       0.000       0.000       0.000       0.001       0.023       0.025
  | Times   29:        0.000       0.000       0.000       0.000       0.000       0.001       0.023       0.025
  | Times   30:        0.000       0.001       0.000       0.000       0.000       0.000       0.023       0.025
  | Times   31:        0.000       0.000       0.000       0.000       0.000       0.001       0.023       0.026
  | Times   32:        0.000       0.000       0.000       0.000       0.000       0.001       0.024       0.026
  | Times   33:        0.000       0.000       0.000       0.000       0.000       0.000       0.024       0.026
  | Times   34:        0.000       0.001       0.000       0.000       0.000       0.000       0.024       0.026
  | Times   35:        0.000       0.000       0.000       0.000       0.000       0.000       0.024       0.026
  | Times   36:        0.000       0.000       0.000       0.000       0.000       0.001       0.024       0.026
  | Times   37:        0.000       0.000       0.000       0.000       0.000       0.000       0.024       0.026
  | Times   38:        0.000       0.001       0.000       0.000       0.000       0.000       0.024       0.026
  | Times   39:        0.000       0.000       0.000       0.000       0.000       0.000       0.024       0.026
  | Times   40:        0.000       0.000       0.000       0.000       0.000       0.001       0.024       0.026
  | Times   41:        0.000       0.000       0.000       0.000       0.000       0.000       0.024       0.026
  | Times   42:        0.000       0.001       0.000       0.000       0.000       0.000       0.024       0.026
  | Times   43:        0.000       0.000       0.000       0.000       0.000       0.000       0.024       0.026
  | Times   44:        0.000       0.000       0.000       0.000       0.001       0.001       0.024       0.026
  | Times   45:        0.000       0.000       0.000       0.000       0.001       0.000       0.024       0.026
  | Times   46:        0.000       0.001       0.000       0.000       0.000       0.000       0.024       0.026
  | Times   47:        0.000       0.000       0.000       0.000       0.000       0.000       0.024       0.025
  | Times   48:        0.000       0.000       0.000       0.000       0.000       0.001       0.024       0.026
  | Times   49:        0.000       0.000       0.000       0.000       0.000       0.000       0.024       0.026
  | Times   50:        0.000       0.001       0.000       0.000       0.000       0.000       0.024       0.026
  | Times   51:        0.000       0.000       0.000       0.000       0.000       0.000       0.024       0.026
  | Times   52:        0.000       0.000       0.000       0.000       0.000       0.001       0.024       0.026
  | Times   53:        0.000       0.000       0.000       0.000       0.000       0.000       0.024       0.026
  | Times   54:        0.000       0.001       0.000       0.000       0.000       0.000       0.024       0.026
  | Times   55:        0.000       0.000       0.000       0.000       0.000       0.000       0.024       0.026
  | Times   56:        0.000       0.001       0.000       0.000       0.000       0.001       0.024       0.026
  | Times   57:        0.000       0.000       0.000       0.000       0.000       0.000       0.024       0.025
  | Times   58:        0.000       0.001       0.000       0.000       0.000       0.000       0.024       0.026
  | Times   59:        0.000       0.000       0.000       0.000       0.000       0.000       0.024       0.026
  | Times   60:        0.000       0.000       0.000       0.000       0.000       0.001       0.024       0.026
  | Times   61:        0.000       0.000       0.000       0.000       0.000       0.000       0.024       0.025
  | Times   62:        0.000       0.001       0.000       0.000       0.000       0.000       0.024       0.025
  | Times   63:        0.000       0.000       0.000       0.000       0.000       0.000       0.024       0.025
  | Times  sum:        0.010       0.036       0.016       0.012       0.030       0.039       1.489       1.632

  Decomposition of Other based on code block (only on MPI task 0):
  Times             Block #1    Block #2    Block #3    Block #4    Block #5    Block #6    Block #7    Block #8
  | Times    0:        0.016       0.000       0.000       0.000       0.000       0.000       0.000       0.000

  Times             Block #9   Block #10   Block #11   Block #12   Block #13   Block #14   Block #15   Block #16
  | Times    0:        0.000       0.000       0.000       0.001       0.000       0.004       0.000       0.000

  Times            Block Sum    Expected
  | Times    0:        0.021       0.023
  Time for Fock matrix mixing     0.043

  Updating Kohn-Sham eigenvalues and eigenvectors using ELSI and the ELPA eigensolver.
  Starting ELPA eigensolver
  Finished transformation to standard eigenproblem
  | Time :     0.003 s
  Finished solving standard eigenproblem
  | Time :     0.000 s
  Finished back-transformation of eigenvectors
  | Time :     0.001 s

  Obtaining occupation numbers and electronic chemical potential using ELSI.
  | Note that, for insulating systems, the printed 'chemical potential' value is not uniquely defined.
  | It can be anywhere in the energy gap, as long as it correctly separates occupied and unoccupied states.
  | In systems with a gap, the physically relevant chemical potential is the VBM or HOMO.

  | Chemical potential (Fermi level):    -6.30872410 eV
  Writing Kohn-Sham eigenvalues.

  State    Occupation    Eigenvalue [Ha]    Eigenvalue [eV]
      1       2.00000         -77.879546        -2119.21028
      2       2.00000         -56.600508        -1540.17820
      3       2.00000          -6.829989         -185.85346
      4       2.00000          -4.909205         -133.58627
      5       2.00000          -4.903227         -133.42360
      6       2.00000          -4.903227         -133.42360
      7       2.00000          -4.364288         -118.75833
      8       2.00000          -2.865086          -77.96294
      9       2.00000          -2.855993          -77.71554
     10       2.00000          -2.855993          -77.71554
     11       2.00000          -0.781766          -21.27294
     12       2.00000          -0.426467          -11.60475
     13       2.00000          -0.376833          -10.25415
     14       2.00000          -0.376833          -10.25415
     15       0.00000          -0.086850           -2.36330
     16       0.00000           0.031017            0.84402
     17       0.00000           0.031017            0.84402
     18       0.00000           0.109769            2.98697
     19       0.00000           0.179267            4.87811
     20       0.00000           0.179268            4.87813

  Highest occupied state (VBM) at    -10.25415023 eV
  | Occupation number:      2.00000000

  Lowest unoccupied state (CBM) at    -2.36329797 eV
  | Occupation number:      0.00000000

  Overall HOMO-LUMO gap:      7.89085225 eV.

  Total energy components:
  | Sum of eigenvalues            :        -341.85792621 Ha       -9302.42747434 eV
  | XC energy correction          :         -22.22351845 Ha        -604.73270535 eV
  | XC potential correction       :          44.00274210 Ha        1197.37553425 eV
  | Free-atom electrostatic energy:        -265.56026682 Ha       -7226.26252847 eV
  | Hartree energy correction     :          -0.16564639 Ha          -4.50746771 eV
  | Entropy correction            :          -0.00000000 Ha          -0.00000000 eV
  | ---------------------------
  | Total energy                  :        -585.80461577 Ha      -15940.55464163 eV
  | Total energy, T -> 0          :        -585.80461577 Ha      -15940.55464163 eV  <-- do not rely on this value for anything but (periodic) metals
  | Electronic free energy        :        -585.80461577 Ha      -15940.55464163 eV

  Derived energy quantities:
  | Kinetic energy                :         587.11180045 Ha       15976.12494645 eV
  | Electrostatic energy          :       -1130.86874456 Ha      -30772.50422731 eV
  | Energy correction for multipole
  | error in Hartree potential    :           0.00004812 Ha           0.00130954 eV
  | Sum of eigenvalues per atom                           :       -4651.21373717 eV
  | Total energy (T->0) per atom                          :       -7970.27732082 eV  <-- do not rely on this value for anything but (periodic) metals
  | Electronic free energy per atom                       :       -7970.27732082 eV
  Evaluating new KS density.
  Integration grid: deviation in total charge (<rho> - N_e) =   2.131628E-14

  Self-consistency convergence accuracy:
  | Change of charge density      :  0.1486E+00
  | Change of unmixed KS density  :  0.3295E+02
  | Change of sum of eigenvalues  : -0.4620E+03 eV
  | Change of total energy        : -0.2683E+03 eV


------------------------------------------------------------
  End self-consistency iteration #     1       :  max(cpu_time)    wall_clock(cpu1)
  | Time for this iteration                     :        0.096 s           0.096 s
  | Charge density update                       :        0.001 s           0.001 s
  | Density mixing                              :        0.000 s           0.000 s
  | Hartree multipole update                    :        0.001 s           0.001 s
  | Hartree multipole summation                 :        0.002 s           0.003 s
  | Integration                                 :        0.002 s           0.002 s
  | Fock matrix evaluation                      :        0.084 s           0.075 s
  | Solution of K.-S. eqns.                     :        0.004 s           0.004 s
  | Total energy evaluation                     :        0.000 s           0.000 s

  Partial memory accounting:
  | Current value for overall tracked memory usage:
  |   Minimum:        1.826 MB (on task  2)
  |   Maximum:        2.128 MB (on task 21)
  |   Average:        1.952 MB
  | Peak value for overall tracked memory usage:
  |   Minimum:        2.354 MB (on task  2 after allocating wave)
  |   Maximum:        3.978 MB (on task  0 after allocating wave)
  |   Average:        2.573 MB
  | Largest tracked array allocation so far:
  |   Minimum:        1.383 MB (ovlp3fn2%dat on task  2)
  |   Maximum:        1.621 MB (ovlp3fn2%dat on task  0)
  |   Average:        1.491 MB
  Note:  These values currently only include a subset of arrays which are explicitly tracked.
  The "true" memory usage will be greater.
------------------------------------------------------------

------------------------------------------------------------
          Begin self-consistency iteration #    2

  Date     :  20260724, Time     :  093958.392
------------------------------------------------------------
  Pulay mixing of updated and previous charge densities.
  Available memory per node after mixing [GB]:    984.87
  Renormalizing the density to the exact electron count on the 3D integration grid.
  | Formal number of electrons (from input files) :      28.0000000000
  | Integrated number of electrons on 3D grid     :      28.0000000000
  | Charge integration error                      :       0.0000000000
  | Normalization factor for density and gradient :       1.0000000000

  Evaluating partitioned Hartree potential by multipole expansion.
  | Original multipole sum: apparent total charge =  -0.611254E-14
  | Sum of charges compensated after spline to logarithmic grids =   0.420995E-07
  | Analytical far-field extrapolation by fixed multipoles:
  | Hartree multipole sum: apparent total charge =  -0.602645E-14
  Summing up the Hartree potential.
  Time summed over all CPUs for potential: real work        0.001 s, elapsed        0.002 s
  | RMS charge density error from multipole expansion :   0.270887E-03

  Integrating Hamiltonian matrix: batch-based integration.
  Time summed over all CPUs for integration: real work        0.096 s, elapsed        0.107 s
  Calculating non-local Hartree-Fock exchange by two-center RI (RI-LVL).
  screening_threshold (crit_val) =  0.000000100000
  Exact exchange progress report - outermost block loop i_block: 1 ..       4
  |        1         2         3         4 Total ovlp3fn data transfer [GB]   1.0801839816849679E-003
  Average sparsity of tmp1/2 0.50000000
  Average sparsity of fock_matrix_row 0.02000000
  Full exact exchange energy: weighted long- and short-range EXX    270.649286149363 eV.
  Times            DM_x_o3fn   CM_prod_1   CM_prod_2   tmp2_prod        Sync   Imbalance       Other  Total calc
  | Times    0:        0.000       0.001       0.001       0.000       0.000       0.001       0.025       0.028
  | Times    1:        0.000       0.001       0.000       0.000       0.000       0.001       0.025       0.028
  | Times    2:        0.000       0.001       0.001       0.000       0.000       0.000       0.025       0.028
  | Times    3:        0.000       0.001       0.000       0.000       0.000       0.001       0.025       0.028
  | Times    4:        0.000       0.001       0.000       0.000       0.000       0.001       0.026       0.028
  | Times    5:        0.000       0.001       0.000       0.000       0.000       0.001       0.025       0.028
  | Times    6:        0.000       0.001       0.001       0.000       0.000       0.000       0.025       0.028
  | Times    7:        0.000       0.001       0.000       0.000       0.000       0.001       0.025       0.028
  | Times    8:        0.000       0.000       0.000       0.000       0.000       0.000       0.026       0.028
  | Times    9:        0.000       0.001       0.000       0.000       0.000       0.001       0.026       0.028
  | Times   10:        0.000       0.000       0.000       0.000       0.000       0.000       0.026       0.028
  | Times   11:        0.000       0.000       0.000       0.000       0.000       0.001       0.026       0.028
  | Times   12:        0.000       0.001       0.000       0.000       0.000       0.000       0.026       0.028
  | Times   13:        0.000       0.001       0.000       0.000       0.000       0.001       0.025       0.028
  | Times   14:        0.000       0.001       0.001       0.000       0.000       0.000       0.025       0.028
  | Times   15:        0.000       0.001       0.000       0.000       0.000       0.001       0.025       0.028
  | Times   16:        0.000       0.000       0.000       0.000       0.000       0.000       0.027       0.028
  | Times   17:        0.000       0.000       0.000       0.000       0.000       0.000       0.027       0.028
  | Times   18:        0.000       0.000       0.000       0.000       0.000       0.000       0.027       0.028
  | Times   19:        0.000       0.000       0.000       0.000       0.000       0.000       0.027       0.028
  | Times   20:        0.000       0.001       0.000       0.000       0.000       0.000       0.026       0.028
  | Times   21:        0.000       0.001       0.000       0.000       0.000       0.001       0.026       0.028
  | Times   22:        0.000       0.001       0.001       0.000       0.000       0.000       0.026       0.028
  | Times   23:        0.000       0.001       0.000       0.000       0.000       0.001       0.026       0.028
  | Times   24:        0.000       0.000       0.000       0.000       0.000       0.000       0.026       0.028
  | Times   25:        0.000       0.000       0.000       0.000       0.000       0.001       0.026       0.028
  | Times   26:        0.000       0.000       0.000       0.000       0.000       0.000       0.026       0.028
  | Times   27:        0.000       0.000       0.000       0.000       0.000       0.001       0.026       0.028
  | Times   28:        0.000       0.001       0.000       0.000       0.000       0.000       0.026       0.028
  | Times   29:        0.000       0.001       0.000       0.000       0.000       0.001       0.026       0.028
  | Times   30:        0.000       0.001       0.001       0.000       0.000       0.000       0.025       0.028
  | Times   31:        0.000       0.000       0.000       0.000       0.000       0.001       0.026       0.028
  | Times   32:        0.000       0.001       0.001       0.000       0.000       0.001       0.025       0.028
  | Times   33:        0.000       0.001       0.000       0.000       0.000       0.001       0.025       0.028
  | Times   34:        0.000       0.001       0.001       0.000       0.000       0.000       0.025       0.028
  | Times   35:        0.000       0.001       0.000       0.000       0.000       0.001       0.025       0.028
  | Times   36:        0.000       0.001       0.000       0.000       0.000       0.001       0.026       0.028
  | Times   37:        0.000       0.001       0.000       0.000       0.000       0.000       0.026       0.028
  | Times   38:        0.000       0.001       0.000       0.000       0.000       0.000       0.026       0.028
  | Times   39:        0.000       0.001       0.000       0.000       0.000       0.000       0.026       0.028
  | Times   40:        0.000       0.001       0.000       0.000       0.000       0.001       0.025       0.028
  | Times   41:        0.000       0.001       0.001       0.000       0.000       0.000       0.025       0.028
  | Times   42:        0.000       0.001       0.000       0.000       0.001       0.001       0.025       0.028
  | Times   43:        0.000       0.001       0.001       0.000       0.001       0.000       0.025       0.028
  | Times   44:        0.000       0.001       0.000       0.000       0.000       0.001       0.026       0.028
  | Times   45:        0.000       0.000       0.000       0.000       0.000       0.000       0.026       0.028
  | Times   46:        0.000       0.001       0.000       0.000       0.000       0.000       0.026       0.028
  | Times   47:        0.000       0.001       0.000       0.000       0.000       0.000       0.026       0.028
  | Times   48:        0.000       0.001       0.000       0.000       0.000       0.001       0.025       0.028
  | Times   49:        0.000       0.001       0.001       0.000       0.000       0.000       0.025       0.028
  | Times   50:        0.000       0.001       0.000       0.000       0.001       0.001       0.025       0.028
  | Times   51:        0.000       0.001       0.001       0.000       0.001       0.000       0.025       0.028
  | Times   52:        0.000       0.001       0.000       0.000       0.000       0.001       0.025       0.028
  | Times   53:        0.000       0.001       0.001       0.000       0.000       0.000       0.025       0.028
  | Times   54:        0.000       0.001       0.000       0.000       0.000       0.000       0.025       0.028
  | Times   55:        0.000       0.001       0.001       0.000       0.000       0.000       0.025       0.028
  | Times   56:        0.000       0.001       0.000       0.000       0.000       0.001       0.025       0.028
  | Times   57:        0.000       0.001       0.001       0.000       0.000       0.000       0.025       0.028
  | Times   58:        0.000       0.001       0.000       0.000       0.000       0.001       0.025       0.028
  | Times   59:        0.000       0.001       0.001       0.000       0.000       0.000       0.025       0.028
  | Times   60:        0.000       0.001       0.000       0.000       0.000       0.001       0.026       0.028
  | Times   61:        0.000       0.001       0.000       0.000       0.000       0.000       0.026       0.028
  | Times   62:        0.000       0.001       0.000       0.000       0.000       0.000       0.026       0.028
  | Times   63:        0.000       0.001       0.000       0.000       0.000       0.000       0.026       0.028
  | Times  sum:        0.016       0.039       0.015       0.016       0.025       0.034       1.638       1.783

  Decomposition of Other based on code block (only on MPI task 0):
  Times             Block #1    Block #2    Block #3    Block #4    Block #5    Block #6    Block #7    Block #8
  | Times    0:        0.018       0.000       0.000       0.000       0.000       0.000       0.000       0.000

  Times             Block #9   Block #10   Block #11   Block #12   Block #13   Block #14   Block #15   Block #16
  | Times    0:        0.000       0.000       0.000       0.001       0.000       0.005       0.000       0.000

  Times            Block Sum    Expected
  | Times    0:        0.024       0.025
  Time for Fock matrix mixing     0.000

  Updating Kohn-Sham eigenvalues and eigenvectors using ELSI and the ELPA eigensolver.
  Starting ELPA eigensolver
  Finished transformation to standard eigenproblem
  | Time :     0.000 s
  Finished solving standard eigenproblem
  | Time :     0.001 s
  Finished back-transformation of eigenvectors
  | Time :     0.000 s

  Obtaining occupation numbers and electronic chemical potential using ELSI.
  | Note that, for insulating systems, the printed 'chemical potential' value is not uniquely defined.
  | It can be anywhere in the energy gap, as long as it correctly separates occupied and unoccupied states.
  | In systems with a gap, the physically relevant chemical potential is the VBM or HOMO.

  | Chemical potential (Fermi level):    -6.35482298 eV
  Highest occupied state (VBM) at    -10.36550990 eV
  | Occupation number:      2.00000000

  Lowest unoccupied state (CBM) at    -2.34413605 eV
  | Occupation number:      0.00000000

  Overall HOMO-LUMO gap:      8.02137385 eV.

  Checking to see if s.c.f. parameters should be adjusted.

  Total energy components:
  | Sum of eigenvalues            :        -341.96465539 Ha       -9305.33172325 eV
  | XC energy correction          :         -22.21969780 Ha        -604.62874031 eV
  | XC potential correction       :          43.99724120 Ha        1197.22584734 eV
  | Free-atom electrostatic energy:        -265.56026682 Ha       -7226.26252847 eV
  | Hartree energy correction     :          -0.06499645 Ha          -1.76864348 eV
  | Entropy correction            :          -0.00000000 Ha          -0.00000000 eV
  | ---------------------------
  | Total energy                  :        -585.81237526 Ha      -15940.76578817 eV
  | Total energy, T -> 0          :        -585.81237526 Ha      -15940.76578817 eV  <-- do not rely on this value for anything but (periodic) metals
  | Electronic free energy        :        -585.81237526 Ha      -15940.76578817 eV

  Derived energy quantities:
  | Kinetic energy                :         587.07246635 Ha       15975.05461117 eV
  | Electrostatic energy          :       -1130.84117435 Ha      -30771.75400380 eV
  | Energy correction for multipole
  | error in Hartree potential    :           0.00007006 Ha           0.00190654 eV
  | Sum of eigenvalues per atom                           :       -4652.66586162 eV
  | Total energy (T->0) per atom                          :       -7970.38289408 eV  <-- do not rely on this value for anything but (periodic) metals
  | Electronic free energy per atom                       :       -7970.38289408 eV
  Evaluating new KS density.
  Integration grid: deviation in total charge (<rho> - N_e) =   7.105427E-15

  Self-consistency convergence accuracy:
  | Change of charge density      :  0.1729E+00
  | Change of unmixed KS density  :  0.7692E-01
  | Change of sum of eigenvalues  : -0.2904E+01 eV
  | Change of total energy        : -0.2111E+00 eV


------------------------------------------------------------
  End self-consistency iteration #     2       :  max(cpu_time)    wall_clock(cpu1)
  | Time for this iteration                     :        0.281 s           0.109 s
  | Charge density update                       :        0.001 s           0.002 s
  | Density mixing                              :        0.246 s           0.072 s
  | Hartree multipole update                    :        0.001 s           0.001 s
  | Hartree multipole summation                 :        0.002 s           0.003 s
  | Integration                                 :        0.002 s           0.002 s
  | Fock matrix evaluation                      :        0.028 s           0.028 s
  | Solution of K.-S. eqns.                     :        0.001 s           0.001 s
  | Total energy evaluation                     :        0.000 s           0.000 s

  Partial memory accounting:
  | Current value for overall tracked memory usage:
  |   Minimum:        1.827 MB (on task  2)
  |   Maximum:        2.129 MB (on task 21)
  |   Average:        1.952 MB
  | Peak value for overall tracked memory usage:
  |   Minimum:        2.354 MB (on task  2 after allocating wave)
  |   Maximum:        3.978 MB (on task  0 after allocating wave)
  |   Average:        2.574 MB
  | Largest tracked array allocation so far:
  |   Minimum:        1.383 MB (ovlp3fn2%dat on task  2)
  |   Maximum:        1.621 MB (ovlp3fn2%dat on task  0)
  |   Average:        1.491 MB
  Note:  These values currently only include a subset of arrays which are explicitly tracked.
  The "true" memory usage will be greater.
------------------------------------------------------------

------------------------------------------------------------
          Begin self-consistency iteration #    3

  Date     :  20260724, Time     :  093958.539
------------------------------------------------------------
  Pulay mixing of updated and previous charge densities.
  Available memory per node after mixing [GB]:    984.84
  Renormalizing the density to the exact electron count on the 3D integration grid.
  | Formal number of electrons (from input files) :      28.0000000000
  | Integrated number of electrons on 3D grid     :      28.0000000000
  | Charge integration error                      :       0.0000000000
  | Normalization factor for density and gradient :       1.0000000000

  Evaluating partitioned Hartree potential by multipole expansion.
  | Original multipole sum: apparent total charge =  -0.806806E-14
  | Sum of charges compensated after spline to logarithmic grids =   0.757016E-06
  | Analytical far-field extrapolation by fixed multipoles:
  | Hartree multipole sum: apparent total charge =  -0.816645E-14
  Summing up the Hartree potential.
  Time summed over all CPUs for potential: real work        0.001 s, elapsed        0.002 s
  | RMS charge density error from multipole expansion :   0.202306E-02

  Integrating Hamiltonian matrix: batch-based integration.
  Time summed over all CPUs for integration: real work        0.104 s, elapsed        0.154 s => Consider using load balancing!
  Calculating non-local Hartree-Fock exchange by two-center RI (RI-LVL).
  screening_threshold (crit_val) =  0.000000100000
  Exact exchange progress report - outermost block loop i_block: 1 ..       3
  |        1         2         3 Total ovlp3fn data transfer [GB]   8.0878398148342967E-004
  Average sparsity of tmp1/2 0.50000000
  Average sparsity of fock_matrix_row 0.02000000
  Full exact exchange energy: weighted long- and short-range EXX    270.712416553663 eV.
  Times            DM_x_o3fn   CM_prod_1   CM_prod_2   tmp2_prod        Sync   Imbalance       Other  Total calc
  | Times    0:        0.000       0.001       0.001       0.000       0.000       0.001       0.008       0.011
  | Times    1:        0.000       0.001       0.000       0.000       0.000       0.002       0.008       0.011
  | Times    2:        0.000       0.001       0.001       0.000       0.000       0.000       0.007       0.011
  | Times    3:        0.000       0.001       0.000       0.000       0.000       0.002       0.008       0.011
  | Times    4:        0.000       0.001       0.001       0.000       0.000       0.000       0.008       0.011
  | Times    5:        0.000       0.001       0.000       0.000       0.000       0.002       0.008       0.011
  | Times    6:        0.000       0.001       0.001       0.000       0.000       0.000       0.008       0.012
  | Times    7:        0.000       0.001       0.000       0.000       0.000       0.002       0.008       0.011
  | Times    8:        0.000       0.001       0.000       0.000       0.000       0.000       0.009       0.011
  | Times    9:        0.000       0.000       0.000       0.000       0.000       0.001       0.008       0.011
  | Times   10:        0.000       0.001       0.001       0.000       0.000       0.000       0.008       0.011
  | Times   11:        0.000       0.001       0.000       0.000       0.000       0.001       0.008       0.011
  | Times   12:        0.000       0.001       0.001       0.000       0.000       0.000       0.008       0.011
  | Times   13:        0.000       0.001       0.000       0.000       0.000       0.001       0.008       0.011
  | Times   14:        0.000       0.001       0.001       0.000       0.000       0.001       0.008       0.011
  | Times   15:        0.000       0.001       0.000       0.000       0.000       0.001       0.008       0.011
  | Times   16:        0.000       0.001       0.001       0.000       0.000       0.000       0.008       0.011
  | Times   17:        0.000       0.000       0.000       0.000       0.000       0.001       0.008       0.011
  | Times   18:        0.000       0.001       0.001       0.000       0.000       0.000       0.008       0.011
  | Times   19:        0.000       0.000       0.000       0.000       0.000       0.001       0.008       0.011
  | Times   20:        0.000       0.001       0.001       0.000       0.000       0.000       0.008       0.011
  | Times   21:        0.000       0.001       0.000       0.000       0.000       0.002       0.008       0.011
  | Times   22:        0.000       0.001       0.001       0.000       0.000       0.001       0.008       0.011
  | Times   23:        0.000       0.001       0.000       0.000       0.000       0.001       0.008       0.011
  | Times   24:        0.000       0.001       0.000       0.000       0.000       0.000       0.009       0.011
  | Times   25:        0.000       0.001       0.000       0.000       0.000       0.001       0.009       0.011
  | Times   26:        0.000       0.001       0.001       0.000       0.000       0.000       0.009       0.011
  | Times   27:        0.000       0.001       0.000       0.000       0.000       0.001       0.009       0.011
  | Times   28:        0.000       0.001       0.001       0.000       0.000       0.001       0.008       0.011
  | Times   29:        0.000       0.001       0.000       0.000       0.000       0.002       0.008       0.011
  | Times   30:        0.000       0.001       0.001       0.000       0.000       0.000       0.007       0.011
  | Times   31:        0.000       0.001       0.000       0.000       0.000       0.002       0.008       0.011
  | Times   32:        0.000       0.001       0.000       0.000       0.000       0.001       0.009       0.011
  | Times   33:        0.000       0.001       0.000       0.000       0.000       0.001       0.009       0.011
  | Times   34:        0.000       0.001       0.000       0.000       0.000       0.000       0.009       0.011
  | Times   35:        0.000       0.001       0.000       0.000       0.000       0.000       0.009       0.011
  | Times   36:        0.000       0.001       0.000       0.000       0.001       0.001       0.008       0.011
  | Times   37:        0.000       0.001       0.001       0.000       0.001       0.000       0.008       0.011
  | Times   38:        0.000       0.001       0.000       0.000       0.000       0.000       0.008       0.011
  | Times   39:        0.000       0.001       0.001       0.000       0.000       0.000       0.008       0.011
  | Times   40:        0.000       0.001       0.000       0.000       0.000       0.001       0.009       0.011
  | Times   41:        0.000       0.000       0.000       0.000       0.000       0.000       0.009       0.011
  | Times   42:        0.000       0.001       0.000       0.000       0.000       0.000       0.009       0.011
  | Times   43:        0.000       0.001       0.000       0.000       0.000       0.000       0.009       0.011
  | Times   44:        0.000       0.001       0.000       0.000       0.000       0.001       0.009       0.011
  | Times   45:        0.000       0.001       0.000       0.000       0.000       0.000       0.009       0.011
  | Times   46:        0.000       0.001       0.000       0.000       0.000       0.000       0.009       0.011
  | Times   47:        0.000       0.001       0.000       0.000       0.000       0.000       0.009       0.011
  | Times   48:        0.000       0.001       0.000       0.000       0.000       0.001       0.008       0.011
  | Times   49:        0.000       0.001       0.001       0.000       0.000       0.000       0.008       0.011
  | Times   50:        0.000       0.001       0.000       0.000       0.000       0.001       0.008       0.011
  | Times   51:        0.000       0.001       0.001       0.000       0.000       0.000       0.008       0.011
  | Times   52:        0.000       0.001       0.000       0.000       0.000       0.001       0.008       0.011
  | Times   53:        0.000       0.001       0.001       0.000       0.000       0.000       0.008       0.011
  | Times   54:        0.000       0.001       0.000       0.000       0.000       0.001       0.008       0.011
  | Times   55:        0.000       0.001       0.001       0.000       0.000       0.000       0.008       0.011
  | Times   56:        0.000       0.001       0.000       0.000       0.000       0.001       0.009       0.011
  | Times   57:        0.000       0.001       0.000       0.000       0.000       0.000       0.009       0.011
  | Times   58:        0.000       0.001       0.000       0.000       0.000       0.000       0.009       0.011
  | Times   59:        0.000       0.001       0.000       0.000       0.000       0.000       0.009       0.011
  | Times   60:        0.000       0.001       0.000       0.000       0.000       0.001       0.009       0.011
  | Times   61:        0.000       0.001       0.000       0.000       0.000       0.000       0.009       0.011
  | Times   62:        0.000       0.001       0.000       0.000       0.000       0.000       0.009       0.011
  | Times   63:        0.000       0.001       0.000       0.000       0.000       0.000       0.009       0.011
  | Times  sum:        0.016       0.044       0.020       0.015       0.023       0.043       0.529       0.690

  Decomposition of Other based on code block (only on MPI task 0):
  Times             Block #1    Block #2    Block #3    Block #4    Block #5    Block #6    Block #7    Block #8
  | Times    0:        0.000       0.000       0.000       0.000       0.000       0.000       0.000       0.000

  Times             Block #9   Block #10   Block #11   Block #12   Block #13   Block #14   Block #15   Block #16
  | Times    0:        0.000       0.000       0.000       0.002       0.000       0.004       0.000       0.000

  Times            Block Sum    Expected
  | Times    0:        0.007       0.008
  Time for Fock matrix mixing     0.000

  Updating Kohn-Sham eigenvalues and eigenvectors using ELSI and the ELPA eigensolver.
  Starting ELPA eigensolver
  Finished transformation to standard eigenproblem
  | Time :     0.001 s
  Finished solving standard eigenproblem
  | Time :     0.000 s
  Finished back-transformation of eigenvectors
  | Time :     0.000 s

  Obtaining occupation numbers and electronic chemical potential using ELSI.
  | Note that, for insulating systems, the printed 'chemical potential' value is not uniquely defined.
  | It can be anywhere in the energy gap, as long as it correctly separates occupied and unoccupied states.
  | In systems with a gap, the physically relevant chemical potential is the VBM or HOMO.

  | Chemical potential (Fermi level):    -5.27591512 eV
  Highest occupied state (VBM) at     -7.83495596 eV
  | Occupation number:      2.00000000

  Lowest unoccupied state (CBM) at    -2.71687428 eV
  | Occupation number:      0.00000000

  Overall HOMO-LUMO gap:      5.11808168 eV.

  Total energy components:
  | Sum of eigenvalues            :        -339.50320885 Ha       -9238.35235493 eV
  | XC energy correction          :         -22.34163576 Ha        -607.94684104 eV
  | XC potential correction       :          44.13466890 Ha        1200.96544535 eV
  | Free-atom electrostatic energy:        -265.56026682 Ha       -7226.26252847 eV
  | Hartree energy correction     :          -2.48792473 Ha         -67.69987652 eV
  | Entropy correction            :          -0.00000000 Ha          -0.00000000 eV
  | ---------------------------
  | Total energy                  :        -585.75836726 Ha      -15939.29615561 eV
  | Total energy, T -> 0          :        -585.75836726 Ha      -15939.29615561 eV  <-- do not rely on this value for anything but (periodic) metals
  | Electronic free energy        :        -585.75836726 Ha      -15939.29615561 eV

  Derived energy quantities:
  | Kinetic energy                :         587.77274791 Ha       15994.11024197 eV
  | Electrostatic energy          :       -1131.41435507 Ha      -30787.35104473 eV
  | Energy correction for multipole
  | error in Hartree potential    :          -0.00041537 Ha          -0.01130279 eV
  | Sum of eigenvalues per atom                           :       -4619.17617747 eV
  | Total energy (T->0) per atom                          :       -7969.64807781 eV  <-- do not rely on this value for anything but (periodic) metals
  | Electronic free energy per atom                       :       -7969.64807781 eV
  Evaluating new KS density.
  Integration grid: deviation in total charge (<rho> - N_e) =   7.105427E-15

  Self-consistency convergence accuracy:
  | Change of charge density      :  0.1801E+00
  | Change of unmixed KS density  :  0.4454E-02
  | Change of sum of eigenvalues  :  0.6698E+02 eV
  | Change of total energy        :  0.1470E+01 eV


------------------------------------------------------------
  End self-consistency iteration #     3       :  max(cpu_time)    wall_clock(cpu1)
  | Time for this iteration                     :        0.291 s           0.267 s
  | Charge density update                       :        0.001 s           0.001 s
  | Density mixing                              :        0.270 s           0.246 s
  | Hartree multipole update                    :        0.001 s           0.001 s
  | Hartree multipole summation                 :        0.002 s           0.002 s
  | Integration                                 :        0.003 s           0.003 s
  | Fock matrix evaluation                      :        0.012 s           0.012 s
  | Solution of K.-S. eqns.                     :        0.001 s           0.002 s
  | Total energy evaluation                     :        0.000 s           0.000 s

  Partial memory accounting:
  | Current value for overall tracked memory usage:
  |   Minimum:        1.827 MB (on task  2)
  |   Maximum:        2.129 MB (on task 21)
  |   Average:        1.952 MB
  | Peak value for overall tracked memory usage:
  |   Minimum:        2.354 MB (on task  2 after allocating wave)
  |   Maximum:        3.978 MB (on task  0 after allocating wave)
  |   Average:        2.574 MB
  | Largest tracked array allocation so far:
  |   Minimum:        1.383 MB (ovlp3fn2%dat on task  2)
  |   Maximum:        1.621 MB (ovlp3fn2%dat on task  0)
  |   Average:        1.491 MB
  Note:  These values currently only include a subset of arrays which are explicitly tracked.
  The "true" memory usage will be greater.
------------------------------------------------------------

------------------------------------------------------------
          Begin self-consistency iteration #    4

  Date     :  20260724, Time     :  093958.818
------------------------------------------------------------
  Pulay mixing of updated and previous charge densities.
  Available memory per node after mixing [GB]:    984.84
  Renormalizing the density to the exact electron count on the 3D integration grid.
  | Formal number of electrons (from input files) :      28.0000000000
  | Integrated number of electrons on 3D grid     :      28.0000000000
  | Charge integration error                      :      -0.0000000000
  | Normalization factor for density and gradient :       1.0000000000

  Evaluating partitioned Hartree potential by multipole expansion.
  | Original multipole sum: apparent total charge =  -0.654300E-14
  | Sum of charges compensated after spline to logarithmic grids =   0.498057E-06
  | Analytical far-field extrapolation by fixed multipoles:
  | Hartree multipole sum: apparent total charge =  -0.654300E-14
  Summing up the Hartree potential.
  Time summed over all CPUs for potential: real work        0.001 s, elapsed        0.002 s
  | RMS charge density error from multipole expansion :   0.171627E-02

  Integrating Hamiltonian matrix: batch-based integration.
  Time summed over all CPUs for integration: real work        0.095 s, elapsed        0.106 s
  Calculating non-local Hartree-Fock exchange by two-center RI (RI-LVL).
  screening_threshold (crit_val) =  0.000000100000
  Exact exchange progress report - outermost block loop i_block: 1 ..       3
  |        1         2         3 Total ovlp3fn data transfer [GB]   8.0878398148342967E-004
  Average sparsity of tmp1/2 0.50000000
  Average sparsity of fock_matrix_row 0.02000000
  Full exact exchange energy: weighted long- and short-range EXX    269.020437083108 eV.
  Times            DM_x_o3fn   CM_prod_1   CM_prod_2   tmp2_prod        Sync   Imbalance       Other  Total calc
  | Times    0:        0.000       0.001       0.000       0.000       0.000       0.000       0.007       0.009
  | Times    1:        0.000       0.001       0.000       0.000       0.000       0.001       0.007       0.009
  | Times    2:        0.000       0.001       0.001       0.000       0.000       0.000       0.007       0.009
  | Times    3:        0.000       0.001       0.000       0.000       0.000       0.001       0.007       0.009
  | Times    4:        0.000       0.000       0.000       0.000       0.000       0.000       0.008       0.009
  | Times    5:        0.000       0.001       0.000       0.000       0.000       0.000       0.007       0.009
  | Times    6:        0.000       0.000       0.000       0.000       0.000       0.000       0.008       0.010
  | Times    7:        0.000       0.000       0.000       0.000       0.000       0.001       0.007       0.009
  | Times    8:        0.000       0.001       0.000       0.000       0.000       0.000       0.007       0.009
  | Times    9:        0.000       0.001       0.000       0.000       0.000       0.001       0.007       0.009
  | Times   10:        0.000       0.001       0.001       0.000       0.000       0.000       0.007       0.009
  | Times   11:        0.000       0.001       0.000       0.000       0.000       0.001       0.007       0.009
  | Times   12:        0.000       0.001       0.000       0.000       0.000       0.001       0.007       0.009
  | Times   13:        0.000       0.000       0.000       0.000       0.000       0.001       0.007       0.009
  | Times   14:        0.000       0.001       0.001       0.000       0.000       0.000       0.007       0.009
  | Times   15:        0.000       0.001       0.000       0.000       0.000       0.001       0.007       0.009
  | Times   16:        0.000       0.000       0.000       0.000       0.000       0.000       0.008       0.009
  | Times   17:        0.000       0.001       0.000       0.000       0.000       0.000       0.007       0.009
  | Times   18:        0.000       0.000       0.000       0.000       0.000       0.000       0.007       0.009
  | Times   19:        0.000       0.001       0.000       0.000       0.000       0.000       0.007       0.009
  | Times   20:        0.000       0.000       0.000       0.000       0.000       0.000       0.008       0.009
  | Times   21:        0.000       0.000       0.000       0.000       0.000       0.001       0.008       0.009
  | Times   22:        0.000       0.001       0.000       0.000       0.000       0.000       0.008       0.009
  | Times   23:        0.000       0.000       0.000       0.000       0.000       0.001       0.008       0.009
  | Times   24:        0.000       0.001       0.000       0.000       0.000       0.000       0.007       0.009
  | Times   25:        0.000       0.001       0.000       0.000       0.000       0.001       0.007       0.009
  | Times   26:        0.000       0.001       0.001       0.000       0.000       0.000       0.007       0.009
  | Times   27:        0.000       0.001       0.000       0.000       0.000       0.001       0.007       0.009
  | Times   28:        0.000       0.001       0.000       0.000       0.000       0.000       0.007       0.009
  | Times   29:        0.000       0.001       0.000       0.000       0.000       0.001       0.007       0.009
  | Times   30:        0.000       0.001       0.001       0.000       0.000       0.000       0.007       0.009
  | Times   31:        0.000       0.001       0.000       0.000       0.000       0.001       0.007       0.009
  | Times   32:        0.000       0.000       0.000       0.000       0.000       0.001       0.007       0.009
  | Times   33:        0.000       0.001       0.000       0.000       0.000       0.001       0.007       0.009
  | Times   34:        0.000       0.001       0.001       0.000       0.000       0.000       0.007       0.009
  | Times   35:        0.000       0.001       0.000       0.000       0.000       0.001       0.007       0.009
  | Times   36:        0.000       0.001       0.000       0.000       0.000       0.001       0.007       0.009
  | Times   37:        0.000       0.001       0.000       0.000       0.000       0.000       0.007       0.009
  | Times   38:        0.000       0.001       0.000       0.000       0.000       0.001       0.007       0.009
  | Times   39:        0.000       0.001       0.000       0.000       0.000       0.001       0.007       0.009
  | Times   40:        0.000       0.001       0.000       0.000       0.000       0.001       0.007       0.009
  | Times   41:        0.000       0.001       0.001       0.000       0.000       0.000       0.007       0.009
  | Times   42:        0.000       0.001       0.000       0.000       0.000       0.001       0.007       0.009
  | Times   43:        0.000       0.001       0.001       0.000       0.000       0.000       0.007       0.009
  | Times   44:        0.000       0.001       0.000       0.000       0.000       0.001       0.006       0.009
  | Times   45:        0.000       0.001       0.001       0.000       0.000       0.000       0.007       0.009
  | Times   46:        0.000       0.001       0.000       0.000       0.000       0.001       0.007       0.009
  | Times   47:        0.000       0.001       0.001       0.000       0.000       0.000       0.007       0.009
  | Times   48:        0.000       0.001       0.000       0.000       0.000       0.001       0.007       0.009
  | Times   49:        0.000       0.000       0.000       0.000       0.000       0.000       0.007       0.009
  | Times   50:        0.000       0.001       0.000       0.000       0.000       0.000       0.007       0.009
  | Times   51:        0.000       0.001       0.000       0.000       0.000       0.000       0.007       0.009
  | Times   52:        0.000       0.001       0.000       0.000       0.000       0.001       0.007       0.009
  | Times   53:        0.000       0.001       0.001       0.000       0.000       0.000       0.007       0.009
  | Times   54:        0.000       0.001       0.000       0.000       0.000       0.001       0.007       0.009
  | Times   55:        0.000       0.001       0.001       0.000       0.000       0.000       0.007       0.009
  | Times   56:        0.000       0.001       0.000       0.000       0.000       0.001       0.006       0.009
  | Times   57:        0.000       0.001       0.001       0.000       0.000       0.000       0.006       0.009
  | Times   58:        0.000       0.001       0.000       0.000       0.000       0.001       0.007       0.009
  | Times   59:        0.000       0.001       0.001       0.000       0.000       0.000       0.006       0.009
  | Times   60:        0.000       0.001       0.000       0.000       0.000       0.001       0.007       0.009
  | Times   61:        0.000       0.000       0.000       0.000       0.000       0.000       0.007       0.009
  | Times   62:        0.000       0.001       0.000       0.000       0.000       0.000       0.007       0.009
  | Times   63:        0.000       0.001       0.000       0.000       0.000       0.000       0.007       0.009
  | Times  sum:        0.014       0.041       0.016       0.015       0.022       0.033       0.449       0.589

  Decomposition of Other based on code block (only on MPI task 0):
  Times             Block #1    Block #2    Block #3    Block #4    Block #5    Block #6    Block #7    Block #8
  | Times    0:        0.000       0.000       0.000       0.000       0.000       0.000       0.000       0.000

  Times             Block #9   Block #10   Block #11   Block #12   Block #13   Block #14   Block #15   Block #16
  | Times    0:        0.000       0.000       0.000       0.001       0.000       0.004       0.000       0.000

  Times            Block Sum    Expected
  | Times    0:        0.006       0.007
  Time for Fock matrix mixing     0.000

  Updating Kohn-Sham eigenvalues and eigenvectors using ELSI and the ELPA eigensolver.
  Starting ELPA eigensolver
  Finished transformation to standard eigenproblem
  | Time :     0.000 s
  Finished solving standard eigenproblem
  | Time :     0.001 s
  Finished back-transformation of eigenvectors
  | Time :     0.000 s

  Obtaining occupation numbers and electronic chemical potential using ELSI.
  | Note that, for insulating systems, the printed 'chemical potential' value is not uniquely defined.
  | It can be anywhere in the energy gap, as long as it correctly separates occupied and unoccupied states.
  | In systems with a gap, the physically relevant chemical potential is the VBM or HOMO.

  | Chemical potential (Fermi level):    -5.67135502 eV
  Highest occupied state (VBM) at     -8.68521949 eV
  | Occupation number:      2.00000000

  Lowest unoccupied state (CBM) at    -2.65749055 eV
  | Occupation number:      0.00000000

  Overall HOMO-LUMO gap:      6.02772894 eV.

  Total energy components:
  | Sum of eigenvalues            :        -340.44011423 Ha       -9263.84684749 eV
  | XC energy correction          :         -22.28905211 Ha        -606.51596707 eV
  | XC potential correction       :          44.07553297 Ha        1199.35627480 eV
  | Free-atom electrostatic energy:        -265.56026682 Ha       -7226.26252847 eV
  | Hartree energy correction     :          -1.52716573 Ha         -41.55629390 eV
  | Entropy correction            :          -0.00000000 Ha          -0.00000000 eV
  | ---------------------------
  | Total energy                  :        -585.74106592 Ha      -15938.82536213 eV
  | Total energy, T -> 0          :        -585.74106592 Ha      -15938.82536213 eV  <-- do not rely on this value for anything but (periodic) metals
  | Electronic free energy        :        -585.74106592 Ha      -15938.82536213 eV

  Derived energy quantities:
  | Kinetic energy                :         587.53096485 Ha       15987.53099007 eV
  | Electrostatic energy          :       -1131.18567129 Ha      -30781.12824247 eV
  | Energy correction for multipole
  | error in Hartree potential    :          -0.00012417 Ha          -0.00337892 eV
  | Sum of eigenvalues per atom                           :       -4631.92342375 eV
  | Total energy (T->0) per atom                          :       -7969.41268107 eV  <-- do not rely on this value for anything but (periodic) metals
  | Electronic free energy per atom                       :       -7969.41268107 eV
  Evaluating new KS density.
  Integration grid: deviation in total charge (<rho> - N_e) =   0.000000E+00

  Self-consistency convergence accuracy:
  | Change of charge density      :  0.6026E-01
  | Change of unmixed KS density  :  0.1238E+00
  | Change of sum of eigenvalues  : -0.2549E+02 eV
  | Change of total energy        :  0.4708E+00 eV


------------------------------------------------------------
  End self-consistency iteration #     4       :  max(cpu_time)    wall_clock(cpu1)
  | Time for this iteration                     :        0.267 s           0.268 s
  | Charge density update                       :        0.001 s           0.001 s
  | Density mixing                              :        0.250 s           0.250 s
  | Hartree multipole update                    :        0.001 s           0.001 s
  | Hartree multipole summation                 :        0.002 s           0.002 s
  | Integration                                 :        0.002 s           0.002 s
  | Fock matrix evaluation                      :        0.010 s           0.010 s
  | Solution of K.-S. eqns.                     :        0.001 s           0.001 s
  | Total energy evaluation                     :        0.000 s           0.001 s

  Partial memory accounting:
  | Current value for overall tracked memory usage:
  |   Minimum:        1.827 MB (on task  2)
  |   Maximum:        2.129 MB (on task 21)
  |   Average:        1.952 MB
  | Peak value for overall tracked memory usage:
  |   Minimum:        2.354 MB (on task  2 after allocating wave)
  |   Maximum:        3.978 MB (on task  0 after allocating wave)
  |   Average:        2.574 MB
  | Largest tracked array allocation so far:
  |   Minimum:        1.383 MB (ovlp3fn2%dat on task  2)
  |   Maximum:        1.621 MB (ovlp3fn2%dat on task  0)
  |   Average:        1.491 MB
  Note:  These values currently only include a subset of arrays which are explicitly tracked.
  The "true" memory usage will be greater.
------------------------------------------------------------

------------------------------------------------------------
          Begin self-consistency iteration #    5

  Date     :  20260724, Time     :  093959.101
------------------------------------------------------------
  Pulay mixing of updated and previous charge densities.
  Available memory per node after mixing [GB]:    984.84
  Renormalizing the density to the exact electron count on the 3D integration grid.
  | Formal number of electrons (from input files) :      28.0000000000
  | Integrated number of electrons on 3D grid     :      28.0000000000
  | Charge integration error                      :       0.0000000000
  | Normalization factor for density and gradient :       1.0000000000

  Evaluating partitioned Hartree potential by multipole expansion.
  | Original multipole sum: apparent total charge =  -0.959312E-14
  | Sum of charges compensated after spline to logarithmic grids =   0.618881E-06
  | Analytical far-field extrapolation by fixed multipoles:
  | Hartree multipole sum: apparent total charge =  -0.116593E-13
  Summing up the Hartree potential.
  Time summed over all CPUs for potential: real work        0.001 s, elapsed        0.001 s
  | RMS charge density error from multipole expansion :   0.246877E-02

  Integrating Hamiltonian matrix: batch-based integration.
  Time summed over all CPUs for integration: real work        0.096 s, elapsed        0.107 s
  Calculating non-local Hartree-Fock exchange by two-center RI (RI-LVL).
  screening_threshold (crit_val) =  0.000000100000
  Exact exchange progress report - outermost block loop i_block: 1 ..       3
  |        1         2         3 Total ovlp3fn data transfer [GB]   8.0878398148342967E-004
  Average sparsity of tmp1/2 0.50000000
  Average sparsity of fock_matrix_row 0.02000000
  Full exact exchange energy: weighted long- and short-range EXX    269.600251266848 eV.
  Times            DM_x_o3fn   CM_prod_1   CM_prod_2   tmp2_prod        Sync   Imbalance       Other  Total calc
  | Times    0:        0.000       0.001       0.000       0.000       0.000       0.001       0.035       0.037
  | Times    1:        0.000       0.001       0.000       0.000       0.000       0.001       0.035       0.037
  | Times    2:        0.000       0.001       0.001       0.000       0.000       0.000       0.035       0.037
  | Times    3:        0.000       0.001       0.000       0.000       0.000       0.001       0.035       0.037
  | Times    4:        0.000       0.001       0.000       0.000       0.000       0.001       0.035       0.037
  | Times    5:        0.000       0.001       0.000       0.000       0.000       0.001       0.035       0.037
  | Times    6:        0.000       0.001       0.001       0.000       0.000       0.000       0.036       0.038
  | Times    7:        0.000       0.001       0.000       0.000       0.000       0.001       0.035       0.037
  | Times    8:        0.000       0.001       0.000       0.000       0.000       0.001       0.035       0.037
  | Times    9:        0.000       0.000       0.000       0.000       0.000       0.001       0.035       0.037
  | Times   10:        0.000       0.001       0.001       0.000       0.000       0.000       0.035       0.037
  | Times   11:        0.000       0.001       0.000       0.000       0.000       0.001       0.035       0.037
  | Times   12:        0.000       0.001       0.000       0.000       0.000       0.001       0.035       0.037
  | Times   13:        0.000       0.001       0.000       0.000       0.000       0.001       0.035       0.037
  | Times   14:        0.000       0.001       0.001       0.000       0.000       0.000       0.035       0.037
  | Times   15:        0.000       0.001       0.000       0.000       0.000       0.001       0.035       0.037
  | Times   16:        0.000       0.000       0.000       0.000       0.000       0.000       0.036       0.037
  | Times   17:        0.000       0.000       0.000       0.000       0.000       0.001       0.036       0.037
  | Times   18:        0.000       0.000       0.000       0.000       0.000       0.000       0.036       0.037
  | Times   19:        0.000       0.000       0.000       0.000       0.000       0.001       0.036       0.037
  | Times   20:        0.000       0.001       0.000       0.000       0.000       0.001       0.035       0.037
  | Times   21:        0.000       0.001       0.000       0.000       0.000       0.001       0.035       0.037
  | Times   22:        0.000       0.001       0.001       0.000       0.000       0.000       0.035       0.037
  | Times   23:        0.000       0.001       0.000       0.000       0.000       0.001       0.035       0.037
  | Times   24:        0.000       0.001       0.000       0.000       0.000       0.001       0.035       0.037
  | Times   25:        0.000       0.001       0.000       0.000       0.000       0.001       0.035       0.037
  | Times   26:        0.000       0.001       0.001       0.000       0.000       0.000       0.035       0.037
  | Times   27:        0.000       0.001       0.000       0.000       0.000       0.001       0.035       0.037
  | Times   28:        0.000       0.001       0.000       0.000       0.000       0.001       0.035       0.037
  | Times   29:        0.000       0.001       0.000       0.000       0.000       0.001       0.035       0.037
  | Times   30:        0.000       0.001       0.001       0.000       0.000       0.000       0.035       0.037
  | Times   31:        0.000       0.001       0.000       0.000       0.000       0.001       0.035       0.037
  | Times   32:        0.000       0.001       0.000       0.000       0.000       0.001       0.035       0.037
  | Times   33:        0.000       0.001       0.000       0.000       0.000       0.001       0.035       0.037
  | Times   34:        0.000       0.001       0.000       0.000       0.000       0.000       0.035       0.037
  | Times   35:        0.000       0.001       0.000       0.000       0.000       0.001       0.035       0.037
  | Times   36:        0.000       0.001       0.000       0.000       0.000       0.001       0.035       0.037
  | Times   37:        0.000       0.000       0.000       0.000       0.000       0.000       0.035       0.037
  | Times   38:        0.000       0.001       0.000       0.000       0.000       0.000       0.035       0.037
  | Times   39:        0.000       0.001       0.000       0.000       0.000       0.000       0.035       0.037
  | Times   40:        0.000       0.001       0.000       0.000       0.000       0.001       0.035       0.037
  | Times   41:        0.000       0.000       0.000       0.000       0.000       0.000       0.035       0.037
  | Times   42:        0.000       0.001       0.000       0.000       0.000       0.000       0.035       0.037
  | Times   43:        0.000       0.001       0.000       0.000       0.000       0.000       0.035       0.037
  | Times   44:        0.000       0.001       0.000       0.000       0.000       0.001       0.034       0.037
  | Times   45:        0.000       0.001       0.001       0.000       0.000       0.000       0.035       0.037
  | Times   46:        0.000       0.001       0.000       0.000       0.000       0.001       0.035       0.037
  | Times   47:        0.000       0.001       0.001       0.000       0.000       0.000       0.035       0.037
  | Times   48:        0.000       0.001       0.000       0.000       0.000       0.001       0.035       0.037
  | Times   49:        0.000       0.001       0.000       0.000       0.000       0.000       0.035       0.037
  | Times   50:        0.000       0.001       0.000       0.000       0.000       0.000       0.035       0.037
  | Times   51:        0.000       0.001       0.000       0.000       0.000       0.000       0.035       0.037
  | Times   52:        0.000       0.001       0.000       0.000       0.000       0.001       0.035       0.037
  | Times   53:        0.000       0.001       0.001       0.000       0.000       0.000       0.035       0.037
  | Times   54:        0.000       0.001       0.000       0.000       0.000       0.001       0.035       0.037
  | Times   55:        0.000       0.001       0.001       0.000       0.000       0.000       0.035       0.037
  | Times   56:        0.000       0.001       0.000       0.000       0.000       0.001       0.035       0.037
  | Times   57:        0.000       0.001       0.001       0.000       0.000       0.000       0.035       0.037
  | Times   58:        0.000       0.001       0.000       0.000       0.000       0.001       0.035       0.037
  | Times   59:        0.000       0.001       0.001       0.000       0.000       0.000       0.035       0.037
  | Times   60:        0.000       0.001       0.000       0.000       0.000       0.001       0.035       0.037
  | Times   61:        0.000       0.000       0.000       0.000       0.000       0.000       0.035       0.037
  | Times   62:        0.000       0.001       0.000       0.000       0.000       0.000       0.035       0.037
  | Times   63:        0.000       0.001       0.000       0.000       0.000       0.000       0.035       0.037
  | Times  sum:        0.015       0.039       0.016       0.015       0.022       0.037       2.239       2.383

  Decomposition of Other based on code block (only on MPI task 0):
  Times             Block #1    Block #2    Block #3    Block #4    Block #5    Block #6    Block #7    Block #8
  | Times    0:        0.028       0.000       0.000       0.000       0.000       0.000       0.000       0.000

  Times             Block #9   Block #10   Block #11   Block #12   Block #13   Block #14   Block #15   Block #16
  | Times    0:        0.000       0.000       0.000       0.001       0.000       0.004       0.000       0.000

  Times            Block Sum    Expected
  | Times    0:        0.034       0.035
  Time for Fock matrix mixing     0.000

  Updating Kohn-Sham eigenvalues and eigenvectors using ELSI and the ELPA eigensolver.
  Starting ELPA eigensolver
  Finished transformation to standard eigenproblem
  | Time :     0.001 s
  Finished solving standard eigenproblem
  | Time :     0.000 s
  Finished back-transformation of eigenvectors
  | Time :     0.000 s

  Obtaining occupation numbers and electronic chemical potential using ELSI.
  | Note that, for insulating systems, the printed 'chemical potential' value is not uniquely defined.
  | It can be anywhere in the energy gap, as long as it correctly separates occupied and unoccupied states.
  | In systems with a gap, the physically relevant chemical potential is the VBM or HOMO.

  | Chemical potential (Fermi level):    -5.51114169 eV
  Highest occupied state (VBM) at     -8.32480519 eV
  | Occupation number:      2.00000000

  Lowest unoccupied state (CBM) at    -2.69747819 eV
  | Occupation number:      0.00000000

  Overall HOMO-LUMO gap:      5.62732700 eV.

  Total energy components:
  | Sum of eigenvalues            :        -340.21236634 Ha       -9257.64951207 eV
  | XC energy correction          :         -22.30529272 Ha        -606.95789658 eV
  | XC potential correction       :          44.08568550 Ha        1199.63253906 eV
  | Free-atom electrostatic energy:        -265.56026682 Ha       -7226.26252847 eV
  | Hartree energy correction     :          -1.75191455 Ha         -47.67202047 eV
  | Entropy correction            :          -0.00000000 Ha          -0.00000000 eV
  | ---------------------------
  | Total energy                  :        -585.74415493 Ha      -15938.90941854 eV
  | Total energy, T -> 0          :        -585.74415493 Ha      -15938.90941854 eV  <-- do not rely on this value for anything but (periodic) metals
  | Electronic free energy        :        -585.74415493 Ha      -15938.90941854 eV

  Derived energy quantities:
  | Kinetic energy                :         587.55368790 Ha       15988.14931597 eV
  | Electrostatic energy          :       -1131.21233266 Ha      -30781.85373528 eV
  | Energy correction for multipole
  | error in Hartree potential    :          -0.00001994 Ha          -0.00054264 eV
  | Sum of eigenvalues per atom                           :       -4628.82475604 eV
  | Total energy (T->0) per atom                          :       -7969.45470927 eV  <-- do not rely on this value for anything but (periodic) metals
  | Electronic free energy per atom                       :       -7969.45470927 eV
  Evaluating new KS density.
  Integration grid: deviation in total charge (<rho> - N_e) =   1.065814E-14

  Self-consistency convergence accuracy:
  | Change of charge density      :  0.5848E-01
  | Change of unmixed KS density  :  0.4686E-01
  | Change of sum of eigenvalues  :  0.6197E+01 eV
  | Change of total energy        : -0.8406E-01 eV


------------------------------------------------------------
  End self-consistency iteration #     5       :  max(cpu_time)    wall_clock(cpu1)
  | Time for this iteration                     :        0.291 s           0.291 s
  | Charge density update                       :        0.001 s           0.001 s
  | Density mixing                              :        0.245 s           0.245 s
  | Hartree multipole update                    :        0.001 s           0.001 s
  | Hartree multipole summation                 :        0.002 s           0.002 s
  | Integration                                 :        0.002 s           0.002 s
  | Fock matrix evaluation                      :        0.039 s           0.038 s
  | Solution of K.-S. eqns.                     :        0.001 s           0.002 s
  | Total energy evaluation                     :        0.000 s           0.000 s

  Partial memory accounting:
  | Current value for overall tracked memory usage:
  |   Minimum:        1.827 MB (on task  2)
  |   Maximum:        2.129 MB (on task 21)
  |   Average:        1.953 MB
  | Peak value for overall tracked memory usage:
  |   Minimum:        2.354 MB (on task  2 after allocating wave)
  |   Maximum:        3.978 MB (on task  0 after allocating wave)
  |   Average:        2.574 MB
  | Largest tracked array allocation so far:
  |   Minimum:        1.383 MB (ovlp3fn2%dat on task  2)
  |   Maximum:        1.621 MB (ovlp3fn2%dat on task  0)
  |   Average:        1.491 MB
  Note:  These values currently only include a subset of arrays which are explicitly tracked.
  The "true" memory usage will be greater.
------------------------------------------------------------

------------------------------------------------------------
          Begin self-consistency iteration #    6

  Date     :  20260724, Time     :  093959.405
------------------------------------------------------------
  Pulay mixing of updated and previous charge densities.
  Available memory per node after mixing [GB]:    984.83
  Renormalizing the density to the exact electron count on the 3D integration grid.
  | Formal number of electrons (from input files) :      28.0000000000
  | Integrated number of electrons on 3D grid     :      28.0000000000
  | Charge integration error                      :       0.0000000000
  | Normalization factor for density and gradient :       1.0000000000

  Evaluating partitioned Hartree potential by multipole expansion.
  | Original multipole sum: apparent total charge =  -0.393564E-15
  | Sum of charges compensated after spline to logarithmic grids =   0.695087E-06
  | Analytical far-field extrapolation by fixed multipoles:
  | Hartree multipole sum: apparent total charge =   0.491955E-15
  Summing up the Hartree potential.
  Time summed over all CPUs for potential: real work        0.001 s, elapsed        0.001 s
  | RMS charge density error from multipole expansion :   0.259498E-02

  Integrating Hamiltonian matrix: batch-based integration.
  Time summed over all CPUs for integration: real work        0.099 s, elapsed        0.114 s
  Calculating non-local Hartree-Fock exchange by two-center RI (RI-LVL).
  screening_threshold (crit_val) =  0.000000100000
  Exact exchange progress report - outermost block loop i_block: 1 ..       3
  |        1         2         3 Total ovlp3fn data transfer [GB]   8.0878398148342967E-004
  Average sparsity of tmp1/2 0.50000000
  Average sparsity of fock_matrix_row 0.02000000
  Full exact exchange energy: weighted long- and short-range EXX    269.262375032149 eV.
  Times            DM_x_o3fn   CM_prod_1   CM_prod_2   tmp2_prod        Sync   Imbalance       Other  Total calc
  | Times    0:        0.000       0.001       0.000       0.000       0.000       0.001       0.007       0.009
  | Times    1:        0.000       0.001       0.000       0.000       0.000       0.001       0.007       0.009
  | Times    2:        0.000       0.001       0.001       0.000       0.000       0.000       0.007       0.009
  | Times    3:        0.000       0.001       0.000       0.000       0.000       0.001       0.007       0.009
  | Times    4:        0.000       0.001       0.000       0.000       0.000       0.001       0.007       0.009
  | Times    5:        0.000       0.001       0.000       0.000       0.000       0.001       0.007       0.009
  | Times    6:        0.000       0.001       0.001       0.000       0.000       0.000       0.007       0.010
  | Times    7:        0.000       0.001       0.000       0.000       0.000       0.001       0.007       0.009
  | Times    8:        0.000       0.001       0.000       0.000       0.000       0.000       0.007       0.009
  | Times    9:        0.000       0.001       0.000       0.000       0.000       0.001       0.007       0.009
  | Times   10:        0.000       0.001       0.001       0.000       0.000       0.000       0.007       0.009
  | Times   11:        0.000       0.001       0.000       0.000       0.000       0.001       0.007       0.009
  | Times   12:        0.000       0.000       0.000       0.000       0.000       0.000       0.008       0.009
  | Times   13:        0.000       0.000       0.000       0.000       0.000       0.001       0.007       0.009
  | Times   14:        0.000       0.001       0.000       0.000       0.000       0.000       0.007       0.009
  | Times   15:        0.000       0.001       0.000       0.000       0.000       0.000       0.007       0.009
  | Times   16:        0.000       0.001       0.000       0.000       0.000       0.000       0.007       0.009
  | Times   17:        0.000       0.001       0.000       0.000       0.000       0.001       0.007       0.009
  | Times   18:        0.000       0.001       0.001       0.000       0.000       0.000       0.007       0.009
  | Times   19:        0.000       0.001       0.000       0.000       0.000       0.001       0.007       0.009
  | Times   20:        0.000       0.001       0.000       0.000       0.000       0.000       0.007       0.009
  | Times   21:        0.000       0.001       0.000       0.000       0.000       0.001       0.007       0.009
  | Times   22:        0.000       0.001       0.001       0.000       0.000       0.000       0.007       0.009
  | Times   23:        0.000       0.001       0.000       0.000       0.000       0.001       0.007       0.009
  | Times   24:        0.000       0.001       0.000       0.000       0.000       0.000       0.007       0.009
  | Times   25:        0.000       0.001       0.000       0.000       0.000       0.001       0.007       0.009
  | Times   26:        0.000       0.001       0.001       0.000       0.000       0.000       0.007       0.009
  | Times   27:        0.000       0.001       0.000       0.000       0.000       0.001       0.007       0.009
  | Times   28:        0.000       0.001       0.000       0.000       0.000       0.001       0.007       0.009
  | Times   29:        0.000       0.001       0.000       0.000       0.000       0.001       0.007       0.009
  | Times   30:        0.000       0.001       0.001       0.000       0.000       0.000       0.007       0.009
  | Times   31:        0.000       0.001       0.000       0.000       0.000       0.001       0.007       0.009
  | Times   32:        0.000       0.001       0.000       0.000       0.000       0.000       0.007       0.009
  | Times   33:        0.000       0.001       0.000       0.000       0.000       0.001       0.007       0.009
  | Times   34:        0.000       0.001       0.000       0.000       0.000       0.000       0.007       0.009
  | Times   35:        0.000       0.001       0.000       0.000       0.000       0.001       0.007       0.009
  | Times   36:        0.000       0.001       0.000       0.000       0.000       0.001       0.007       0.009
  | Times   37:        0.000       0.000       0.000       0.000       0.000       0.000       0.007       0.009
  | Times   38:        0.000       0.001       0.000       0.000       0.000       0.000       0.007       0.009
  | Times   39:        0.000       0.001       0.000       0.000       0.000       0.000       0.007       0.009
  | Times   40:        0.000       0.001       0.000       0.000       0.000       0.001       0.007       0.009
  | Times   41:        0.000       0.001       0.001       0.000       0.000       0.000       0.007       0.009
  | Times   42:        0.000       0.001       0.000       0.000       0.000       0.001       0.007       0.009
  | Times   43:        0.000       0.001       0.001       0.000       0.000       0.000       0.007       0.009
  | Times   44:        0.000       0.001       0.000       0.000       0.000       0.001       0.007       0.009
  | Times   45:        0.000       0.001       0.000       0.000       0.000       0.000       0.007       0.009
  | Times   46:        0.000       0.001       0.000       0.000       0.000       0.000       0.007       0.009
  | Times   47:        0.000       0.001       0.000       0.000       0.000       0.000       0.007       0.009
  | Times   48:        0.000       0.001       0.000       0.000       0.000       0.001       0.007       0.009
  | Times   49:        0.000       0.001       0.001       0.000       0.000       0.000       0.007       0.009
  | Times   50:        0.000       0.001       0.000       0.000       0.000       0.001       0.007       0.009
  | Times   51:        0.000       0.001       0.001       0.000       0.000       0.000       0.007       0.009
  | Times   52:        0.000       0.001       0.000       0.000       0.000       0.001       0.007       0.009
  | Times   53:        0.000       0.001       0.000       0.000       0.000       0.000       0.007       0.009
  | Times   54:        0.000       0.001       0.000       0.000       0.000       0.000       0.007       0.009
  | Times   55:        0.000       0.001       0.000       0.000       0.000       0.000       0.007       0.009
  | Times   56:        0.000       0.001       0.000       0.000       0.000       0.001       0.007       0.009
  | Times   57:        0.000       0.001       0.001       0.000       0.000       0.000       0.007       0.009
  | Times   58:        0.000       0.001       0.000       0.000       0.000       0.000       0.007       0.009
  | Times   59:        0.000       0.001       0.001       0.000       0.000       0.000       0.007       0.009
  | Times   60:        0.000       0.001       0.000       0.000       0.000       0.001       0.007       0.009
  | Times   61:        0.000       0.000       0.000       0.000       0.000       0.000       0.007       0.009
  | Times   62:        0.000       0.001       0.000       0.000       0.000       0.000       0.007       0.009
  | Times   63:        0.000       0.001       0.000       0.000       0.000       0.000       0.007       0.009
  | Times  sum:        0.015       0.042       0.016       0.016       0.021       0.032       0.450       0.591

  Decomposition of Other based on code block (only on MPI task 0):
  Times             Block #1    Block #2    Block #3    Block #4    Block #5    Block #6    Block #7    Block #8
  | Times    0:        0.000       0.000       0.000       0.000       0.000       0.000       0.000       0.000

  Times             Block #9   Block #10   Block #11   Block #12   Block #13   Block #14   Block #15   Block #16
  | Times    0:        0.000       0.000       0.000       0.001       0.000       0.004       0.000       0.000

  Times            Block Sum    Expected
  | Times    0:        0.006       0.007
  Time for Fock matrix mixing     0.000

  Updating Kohn-Sham eigenvalues and eigenvectors using ELSI and the ELPA eigensolver.
  Starting ELPA eigensolver
  Finished transformation to standard eigenproblem
  | Time :     0.000 s
  Finished solving standard eigenproblem
  | Time :     0.001 s
  Finished back-transformation of eigenvectors
  | Time :     0.000 s

  Obtaining occupation numbers and electronic chemical potential using ELSI.
  | Note that, for insulating systems, the printed 'chemical potential' value is not uniquely defined.
  | It can be anywhere in the energy gap, as long as it correctly separates occupied and unoccupied states.
  | In systems with a gap, the physically relevant chemical potential is the VBM or HOMO.

  | Chemical potential (Fermi level):    -5.44175269 eV
  Highest occupied state (VBM) at     -8.22053451 eV
  | Occupation number:      2.00000000

  Lowest unoccupied state (CBM) at    -2.66297087 eV
  | Occupation number:      0.00000000

  Overall HOMO-LUMO gap:      5.55756364 eV.

  Total energy components:
  | Sum of eigenvalues            :        -340.07852699 Ha       -9254.00755823 eV
  | XC energy correction          :         -22.31660316 Ha        -607.26566923 eV
  | XC potential correction       :          44.09852591 Ha        1199.98194442 eV
  | Free-atom electrostatic energy:        -265.56026682 Ha       -7226.26252847 eV
  | Hartree energy correction     :          -1.89379496 Ha         -51.53278283 eV
  | Entropy correction            :          -0.00000000 Ha          -0.00000000 eV
  | ---------------------------
  | Total energy                  :        -585.75066603 Ha      -15939.08659434 eV
  | Total energy, T -> 0          :        -585.75066603 Ha      -15939.08659434 eV  <-- do not rely on this value for anything but (periodic) metals
  | Electronic free energy        :        -585.75066603 Ha      -15939.08659434 eV

  Derived energy quantities:
  | Kinetic energy                :         587.66881501 Ha       15991.28208389 eV
  | Electrostatic energy          :       -1131.32672052 Ha      -30784.96638730 eV
  | Energy correction for multipole
  | error in Hartree potential    :          -0.00003822 Ha          -0.00104009 eV
  | Sum of eigenvalues per atom                           :       -4627.00377911 eV
  | Total energy (T->0) per atom                          :       -7969.54329717 eV  <-- do not rely on this value for anything but (periodic) metals
  | Electronic free energy per atom                       :       -7969.54329717 eV
  Evaluating new KS density.
  Integration grid: deviation in total charge (<rho> - N_e) =   0.000000E+00

  Self-consistency convergence accuracy:
  | Change of charge density      :  0.2383E-01
  | Change of unmixed KS density  :  0.2928E-01
  | Change of sum of eigenvalues  :  0.3642E+01 eV
  | Change of total energy        : -0.1772E+00 eV


------------------------------------------------------------
  End self-consistency iteration #     6       :  max(cpu_time)    wall_clock(cpu1)
  | Time for this iteration                     :        0.295 s           0.295 s
  | Charge density update                       :        0.001 s           0.001 s
  | Density mixing                              :        0.277 s           0.277 s
  | Hartree multipole update                    :        0.001 s           0.001 s
  | Hartree multipole summation                 :        0.002 s           0.002 s
  | Integration                                 :        0.002 s           0.002 s
  | Fock matrix evaluation                      :        0.010 s           0.010 s
  | Solution of K.-S. eqns.                     :        0.001 s           0.001 s
  | Total energy evaluation                     :        0.000 s           0.000 s

  Partial memory accounting:
  | Current value for overall tracked memory usage:
  |   Minimum:        1.827 MB (on task  2)
  |   Maximum:        2.129 MB (on task 21)
  |   Average:        1.953 MB
  | Peak value for overall tracked memory usage:
  |   Minimum:        2.354 MB (on task  2 after allocating wave)
  |   Maximum:        3.978 MB (on task  0 after allocating wave)
  |   Average:        2.574 MB
  | Largest tracked array allocation so far:
  |   Minimum:        1.383 MB (ovlp3fn2%dat on task  2)
  |   Maximum:        1.621 MB (ovlp3fn2%dat on task  0)
  |   Average:        1.491 MB
  Note:  These values currently only include a subset of arrays which are explicitly tracked.
  The "true" memory usage will be greater.
------------------------------------------------------------

------------------------------------------------------------
          Begin self-consistency iteration #    7

  Date     :  20260724, Time     :  093959.833
------------------------------------------------------------
  Pulay mixing of updated and previous charge densities.
  Available memory per node after mixing [GB]:    984.83
  Renormalizing the density to the exact electron count on the 3D integration grid.
  | Formal number of electrons (from input files) :      28.0000000000
  | Integrated number of electrons on 3D grid     :      28.0000000000
  | Charge integration error                      :       0.0000000000
  | Normalization factor for density and gradient :       1.0000000000

  Evaluating partitioned Hartree potential by multipole expansion.
  | Original multipole sum: apparent total charge =  -0.993749E-14
  | Sum of charges compensated after spline to logarithmic grids =   0.785274E-06
  | Analytical far-field extrapolation by fixed multipoles:
  | Hartree multipole sum: apparent total charge =  -0.104786E-13
  Summing up the Hartree potential.
  Time summed over all CPUs for potential: real work        0.001 s, elapsed        0.002 s
  | RMS charge density error from multipole expansion :   0.276547E-02

  Integrating Hamiltonian matrix: batch-based integration.
  Time summed over all CPUs for integration: real work        0.097 s, elapsed        0.116 s
  Calculating non-local Hartree-Fock exchange by two-center RI (RI-LVL).
  screening_threshold (crit_val) =  0.000000100000
  Exact exchange progress report - outermost block loop i_block: 1 ..       3
  |        1         2         3 Total ovlp3fn data transfer [GB]   8.0878398148342967E-004
  Average sparsity of tmp1/2 0.50000000
  Average sparsity of fock_matrix_row 0.02000000
  Full exact exchange energy: weighted long- and short-range EXX    269.097639245830 eV.
  Times            DM_x_o3fn   CM_prod_1   CM_prod_2   tmp2_prod        Sync   Imbalance       Other  Total calc
  | Times    0:        0.000       0.001       0.000       0.000       0.000       0.000       0.007       0.010
  | Times    1:        0.000       0.001       0.000       0.000       0.000       0.001       0.007       0.010
  | Times    2:        0.000       0.001       0.001       0.000       0.000       0.000       0.007       0.010
  | Times    3:        0.000       0.001       0.000       0.000       0.000       0.001       0.007       0.010
  | Times    4:        0.000       0.001       0.000       0.000       0.000       0.000       0.007       0.010
  | Times    5:        0.000       0.001       0.000       0.000       0.000       0.001       0.007       0.010
  | Times    6:        0.000       0.001       0.001       0.000       0.000       0.000       0.008       0.010
  | Times    7:        0.000       0.001       0.000       0.000       0.000       0.001       0.007       0.010
  | Times    8:        0.000       0.001       0.000       0.000       0.000       0.000       0.007       0.010
  | Times    9:        0.000       0.001       0.000       0.000       0.000       0.001       0.007       0.010
  | Times   10:        0.000       0.001       0.001       0.000       0.000       0.000       0.007       0.010
  | Times   11:        0.000       0.001       0.000       0.000       0.000       0.001       0.007       0.010
  | Times   12:        0.000       0.000       0.000       0.000       0.000       0.000       0.008       0.010
  | Times   13:        0.000       0.001       0.000       0.000       0.000       0.000       0.008       0.010
  | Times   14:        0.000       0.000       0.000       0.000       0.000       0.000       0.008       0.010
  | Times   15:        0.000       0.000       0.000       0.000       0.000       0.001       0.008       0.010
  | Times   16:        0.000       0.001       0.000       0.000       0.000       0.000       0.007       0.010
  | Times   17:        0.000       0.001       0.000       0.000       0.000       0.001       0.007       0.010
  | Times   18:        0.000       0.001       0.001       0.000       0.000       0.000       0.007       0.010
  | Times   19:        0.000       0.001       0.000       0.000       0.000       0.001       0.007       0.010
  | Times   20:        0.000       0.001       0.000       0.000       0.000       0.000       0.007       0.010
  | Times   21:        0.000       0.001       0.000       0.000       0.000       0.001       0.007       0.010
  | Times   22:        0.000       0.001       0.001       0.000       0.000       0.000       0.007       0.010
  | Times   23:        0.000       0.001       0.000       0.000       0.000       0.001       0.007       0.010
  | Times   24:        0.000       0.001       0.001       0.001       0.000       0.000       0.007       0.010
  | Times   25:        0.000       0.001       0.000       0.000       0.000       0.001       0.007       0.010
  | Times   26:        0.000       0.001       0.001       0.000       0.000       0.001       0.007       0.010
  | Times   27:        0.000       0.001       0.000       0.000       0.000       0.001       0.007       0.010
  | Times   28:        0.000       0.001       0.000       0.000       0.000       0.001       0.007       0.010
  | Times   29:        0.000       0.001       0.000       0.000       0.000       0.001       0.007       0.010
  | Times   30:        0.000       0.001       0.001       0.000       0.000       0.000       0.007       0.010
  | Times   31:        0.000       0.001       0.000       0.000       0.000       0.001       0.007       0.010
  | Times   32:        0.000       0.001       0.000       0.000       0.000       0.001       0.008       0.010
  | Times   33:        0.000       0.001       0.000       0.000       0.000       0.001       0.008       0.010
  | Times   34:        0.000       0.001       0.000       0.000       0.000       0.000       0.008       0.010
  | Times   35:        0.000       0.001       0.000       0.000       0.000       0.001       0.008       0.010
  | Times   36:        0.000       0.001       0.000       0.000       0.000       0.001       0.007       0.010
  | Times   37:        0.000       0.000       0.000       0.000       0.000       0.000       0.008       0.010
  | Times   38:        0.000       0.001       0.000       0.000       0.000       0.000       0.008       0.010
  | Times   39:        0.000       0.001       0.000       0.000       0.000       0.000       0.008       0.010
  | Times   40:        0.000       0.001       0.000       0.000       0.000       0.001       0.007       0.010
  | Times   41:        0.000       0.001       0.001       0.000       0.000       0.000       0.007       0.010
  | Times   42:        0.000       0.001       0.000       0.000       0.000       0.001       0.007       0.010
  | Times   43:        0.000       0.001       0.001       0.000       0.000       0.000       0.007       0.010
  | Times   44:        0.000       0.001       0.000       0.000       0.000       0.001       0.007       0.010
  | Times   45:        0.000       0.000       0.000       0.000       0.000       0.000       0.008       0.010
  | Times   46:        0.000       0.001       0.000       0.000       0.000       0.000       0.008       0.010
  | Times   47:        0.000       0.001       0.000       0.000       0.000       0.000       0.008       0.010
  | Times   48:        0.000       0.001       0.000       0.000       0.000       0.001       0.008       0.010
  | Times   49:        0.000       0.000       0.000       0.000       0.000       0.000       0.008       0.010
  | Times   50:        0.000       0.001       0.000       0.000       0.000       0.000       0.008       0.010
  | Times   51:        0.000       0.001       0.000       0.000       0.000       0.000       0.008       0.010
  | Times   52:        0.000       0.001       0.000       0.000       0.000       0.001       0.007       0.010
  | Times   53:        0.000       0.001       0.001       0.000       0.000       0.000       0.007       0.010
  | Times   54:        0.000       0.001       0.000       0.000       0.000       0.001       0.007       0.010
  | Times   55:        0.000       0.001       0.001       0.000       0.000       0.000       0.007       0.010
  | Times   56:        0.000       0.001       0.000       0.000       0.000       0.001       0.007       0.010
  | Times   57:        0.000       0.001       0.001       0.000       0.000       0.000       0.007       0.010
  | Times   58:        0.000       0.001       0.000       0.000       0.000       0.000       0.007       0.010
  | Times   59:        0.000       0.001       0.001       0.000       0.000       0.000       0.007       0.010
  | Times   60:        0.000       0.001       0.000       0.000       0.000       0.001       0.008       0.010
  | Times   61:        0.000       0.001       0.000       0.000       0.000       0.000       0.008       0.010
  | Times   62:        0.000       0.001       0.000       0.000       0.000       0.000       0.008       0.010
  | Times   63:        0.000       0.001       0.000       0.000       0.000       0.000       0.008       0.010
  | Times  sum:        0.015       0.040       0.016       0.016       0.021       0.034       0.473       0.615

  Decomposition of Other based on code block (only on MPI task 0):
  Times             Block #1    Block #2    Block #3    Block #4    Block #5    Block #6    Block #7    Block #8
  | Times    0:        0.000       0.000       0.000       0.000       0.000       0.000       0.000       0.000

  Times             Block #9   Block #10   Block #11   Block #12   Block #13   Block #14   Block #15   Block #16
  | Times    0:        0.000       0.000       0.000       0.001       0.000       0.005       0.000       0.000

  Times            Block Sum    Expected
  | Times    0:        0.006       0.007
  Time for Fock matrix mixing     0.000

  Updating Kohn-Sham eigenvalues and eigenvectors using ELSI and the ELPA eigensolver.
  Starting ELPA eigensolver
  Finished transformation to standard eigenproblem
  | Time :     0.000 s
  Finished solving standard eigenproblem
  | Time :     0.001 s
  Finished back-transformation of eigenvectors
  | Time :     0.000 s

  Obtaining occupation numbers and electronic chemical potential using ELSI.
  | Note that, for insulating systems, the printed 'chemical potential' value is not uniquely defined.
  | It can be anywhere in the energy gap, as long as it correctly separates occupied and unoccupied states.
  | In systems with a gap, the physically relevant chemical potential is the VBM or HOMO.

  | Chemical potential (Fermi level):    -5.38696175 eV
  Highest occupied state (VBM) at     -8.19313961 eV
  | Occupation number:      2.00000000

  Lowest unoccupied state (CBM) at    -2.58078388 eV
  | Occupation number:      0.00000000

  Overall HOMO-LUMO gap:      5.61235572 eV.

  Total energy components:
  | Sum of eigenvalues            :        -340.02471336 Ha       -9252.54321485 eV
  | XC energy correction          :         -22.32261948 Ha        -607.42938159 eV
  | XC potential correction       :          44.10719737 Ha        1200.21790678 eV
  | Free-atom electrostatic energy:        -265.56026682 Ha       -7226.26252847 eV
  | Hartree energy correction     :          -1.95752329 Ha         -53.26691904 eV
  | Entropy correction            :          -0.00000000 Ha          -0.00000000 eV
  | ---------------------------
  | Total energy                  :        -585.75792559 Ha      -15939.28413717 eV
  | Total energy, T -> 0          :        -585.75792559 Ha      -15939.28413717 eV  <-- do not rely on this value for anything but (periodic) metals
  | Electronic free energy        :        -585.75792559 Ha      -15939.28413717 eV

  Derived energy quantities:
  | Kinetic energy                :         587.77882569 Ha       15994.27562684 eV
  | Electrostatic energy          :       -1131.43715740 Ha      -30787.97152748 eV
  | Energy correction for multipole
  | error in Hartree potential    :          -0.00002776 Ha          -0.00075531 eV
  | Sum of eigenvalues per atom                           :       -4626.27160742 eV
  | Total energy (T->0) per atom                          :       -7969.64206859 eV  <-- do not rely on this value for anything but (periodic) metals
  | Electronic free energy per atom                       :       -7969.64206859 eV
  Evaluating new KS density.
  Integration grid: deviation in total charge (<rho> - N_e) =   1.776357E-14

  Self-consistency convergence accuracy:
  | Change of charge density      :  0.1134E-01
  | Change of unmixed KS density  :  0.1635E-01
  | Change of sum of eigenvalues  :  0.1464E+01 eV
  | Change of total energy        : -0.1975E+00 eV


------------------------------------------------------------
  End self-consistency iteration #     7       :  max(cpu_time)    wall_clock(cpu1)
  | Time for this iteration                     :        0.273 s           0.155 s
  | Charge density update                       :        0.001 s           0.001 s
  | Density mixing                              :        0.256 s           0.137 s
  | Hartree multipole update                    :        0.001 s           0.001 s
  | Hartree multipole summation                 :        0.002 s           0.002 s
  | Integration                                 :        0.002 s           0.002 s
  | Fock matrix evaluation                      :        0.010 s           0.010 s
  | Solution of K.-S. eqns.                     :        0.002 s           0.002 s
  | Total energy evaluation                     :        0.000 s           0.000 s

  Partial memory accounting:
  | Current value for overall tracked memory usage:
  |   Minimum:        1.827 MB (on task  2)
  |   Maximum:        2.129 MB (on task 21)
  |   Average:        1.953 MB
  | Peak value for overall tracked memory usage:
  |   Minimum:        2.354 MB (on task  2 after allocating wave)
  |   Maximum:        3.978 MB (on task  0 after allocating wave)
  |   Average:        2.574 MB
  | Largest tracked array allocation so far:
  |   Minimum:        1.383 MB (ovlp3fn2%dat on task  2)
  |   Maximum:        1.621 MB (ovlp3fn2%dat on task  0)
  |   Average:        1.491 MB
  Note:  These values currently only include a subset of arrays which are explicitly tracked.
  The "true" memory usage will be greater.
------------------------------------------------------------

------------------------------------------------------------
          Begin self-consistency iteration #    8

  Date     :  20260724, Time     :  094000.171
------------------------------------------------------------
  Pulay mixing of updated and previous charge densities.
  Available memory per node after mixing [GB]:    984.79
  Renormalizing the density to the exact electron count on the 3D integration grid.
  | Formal number of electrons (from input files) :      28.0000000000
  | Integrated number of electrons on 3D grid     :      28.0000000000
  | Charge integration error                      :       0.0000000000
  | Normalization factor for density and gradient :       1.0000000000

  Evaluating partitioned Hartree potential by multipole expansion.
  | Original multipole sum: apparent total charge =  -0.383725E-14
  | Sum of charges compensated after spline to logarithmic grids =   0.828940E-06
  | Analytical far-field extrapolation by fixed multipoles:
  | Hartree multipole sum: apparent total charge =  -0.388644E-14
  Summing up the Hartree potential.
  Time summed over all CPUs for potential: real work        0.001 s, elapsed        0.002 s
  | RMS charge density error from multipole expansion :   0.264238E-02

  Integrating Hamiltonian matrix: batch-based integration.
  Time summed over all CPUs for integration: real work        0.098 s, elapsed        0.114 s
  Calculating non-local Hartree-Fock exchange by two-center RI (RI-LVL).
  screening_threshold (crit_val) =  0.000000100000
  Exact exchange progress report - outermost block loop i_block: 1 ..       3
  |        1         2         3 Total ovlp3fn data transfer [GB]   8.0878398148342967E-004
  Average sparsity of tmp1/2 0.50000000
  Average sparsity of fock_matrix_row 0.02000000
  Full exact exchange energy: weighted long- and short-range EXX    268.979004873021 eV.
  Times            DM_x_o3fn   CM_prod_1   CM_prod_2   tmp2_prod        Sync   Imbalance       Other  Total calc
  | Times    0:        0.000       0.001       0.000       0.000       0.000       0.000       0.009       0.012
  | Times    1:        0.000       0.001       0.000       0.000       0.000       0.001       0.009       0.012
  | Times    2:        0.000       0.001       0.001       0.000       0.000       0.000       0.009       0.012
  | Times    3:        0.000       0.001       0.000       0.000       0.000       0.001       0.009       0.012
  | Times    4:        0.000       0.001       0.000       0.000       0.000       0.000       0.009       0.012
  | Times    5:        0.000       0.001       0.000       0.000       0.000       0.001       0.009       0.012
  | Times    6:        0.000       0.001       0.001       0.000       0.000       0.000       0.010       0.012
  | Times    7:        0.000       0.001       0.000       0.000       0.000       0.001       0.009       0.012
  | Times    8:        0.000       0.001       0.001       0.000       0.000       0.001       0.008       0.012
  | Times    9:        0.000       0.001       0.000       0.000       0.000       0.002       0.008       0.012
  | Times   10:        0.000       0.001       0.001       0.000       0.000       0.000       0.008       0.012
  | Times   11:        0.000       0.001       0.000       0.000       0.000       0.001       0.008       0.012
  | Times   12:        0.000       0.001       0.000       0.000       0.000       0.000       0.009       0.012
  | Times   13:        0.000       0.001       0.000       0.000       0.000       0.001       0.009       0.012
  | Times   14:        0.000       0.001       0.001       0.000       0.000       0.000       0.009       0.012
  | Times   15:        0.000       0.001       0.000       0.000       0.000       0.001       0.009       0.012
  | Times   16:        0.000       0.001       0.000       0.000       0.000       0.000       0.009       0.012
  | Times   17:        0.000       0.001       0.000       0.000       0.000       0.001       0.009       0.012
  | Times   18:        0.000       0.001       0.001       0.000       0.000       0.000       0.009       0.012
  | Times   19:        0.000       0.001       0.000       0.000       0.000       0.001       0.009       0.012
  | Times   20:        0.000       0.001       0.000       0.000       0.000       0.000       0.009       0.012
  | Times   21:        0.000       0.001       0.000       0.000       0.000       0.001       0.009       0.012
  | Times   22:        0.000       0.001       0.001       0.000       0.000       0.000       0.009       0.012
  | Times   23:        0.000       0.001       0.000       0.000       0.000       0.001       0.009       0.012
  | Times   24:        0.000       0.000       0.000       0.000       0.000       0.000       0.010       0.012
  | Times   25:        0.000       0.000       0.000       0.000       0.000       0.001       0.010       0.012
  | Times   26:        0.000       0.001       0.000       0.000       0.000       0.000       0.010       0.012
  | Times   27:        0.000       0.000       0.000       0.000       0.000       0.001       0.010       0.012
  | Times   28:        0.000       0.001       0.000       0.000       0.000       0.000       0.009       0.012
  | Times   29:        0.000       0.001       0.000       0.000       0.000       0.001       0.009       0.012
  | Times   30:        0.000       0.001       0.001       0.000       0.000       0.000       0.009       0.012
  | Times   31:        0.000       0.001       0.000       0.000       0.000       0.001       0.009       0.012
  | Times   32:        0.000       0.001       0.000       0.000       0.000       0.001       0.010       0.012
  | Times   33:        0.000       0.001       0.000       0.000       0.000       0.001       0.010       0.012
  | Times   34:        0.000       0.001       0.000       0.000       0.000       0.000       0.010       0.012
  | Times   35:        0.000       0.001       0.000       0.000       0.000       0.001       0.010       0.012
  | Times   36:        0.000       0.001       0.000       0.000       0.000       0.001       0.009       0.012
  | Times   37:        0.000       0.001       0.000       0.000       0.000       0.000       0.010       0.012
  | Times   38:        0.000       0.001       0.000       0.000       0.000       0.000       0.010       0.012
  | Times   39:        0.000       0.001       0.000       0.000       0.000       0.000       0.010       0.012
  | Times   40:        0.000       0.001       0.000       0.000       0.000       0.001       0.009       0.012
  | Times   41:        0.000       0.001       0.001       0.000       0.000       0.000       0.009       0.012
  | Times   42:        0.000       0.001       0.000       0.000       0.000       0.001       0.009       0.012
  | Times   43:        0.000       0.001       0.001       0.000       0.000       0.000       0.009       0.012
  | Times   44:        0.000       0.001       0.000       0.000       0.000       0.001       0.009       0.012
  | Times   45:        0.000       0.001       0.000       0.000       0.000       0.000       0.009       0.012
  | Times   46:        0.000       0.001       0.000       0.000       0.000       0.000       0.010       0.012
  | Times   47:        0.000       0.001       0.000       0.000       0.000       0.000       0.010       0.012
  | Times   48:        0.000       0.001       0.000       0.000       0.000       0.001       0.010       0.012
  | Times   49:        0.000       0.001       0.000       0.000       0.000       0.000       0.010       0.012
  | Times   50:        0.000       0.001       0.000       0.000       0.000       0.000       0.010       0.012
  | Times   51:        0.000       0.001       0.000       0.000       0.000       0.000       0.010       0.012
  | Times   52:        0.000       0.001       0.000       0.000       0.000       0.001       0.009       0.012
  | Times   53:        0.000       0.001       0.001       0.000       0.000       0.000       0.009       0.012
  | Times   54:        0.000       0.001       0.000       0.000       0.000       0.001       0.009       0.012
  | Times   55:        0.000       0.001       0.001       0.000       0.000       0.000       0.009       0.012
  | Times   56:        0.000       0.001       0.000       0.000       0.000       0.001       0.009       0.012
  | Times   57:        0.000       0.001       0.001       0.000       0.000       0.000       0.009       0.012
  | Times   58:        0.000       0.001       0.000       0.000       0.000       0.001       0.009       0.012
  | Times   59:        0.000       0.001       0.001       0.000       0.000       0.000       0.009       0.012
  | Times   60:        0.000       0.001       0.000       0.000       0.000       0.001       0.010       0.012
  | Times   61:        0.000       0.001       0.000       0.000       0.000       0.000       0.010       0.012
  | Times   62:        0.000       0.001       0.000       0.000       0.000       0.000       0.010       0.012
  | Times   63:        0.000       0.001       0.000       0.000       0.000       0.000       0.010       0.012
  | Times  sum:        0.016       0.041       0.017       0.016       0.020       0.035       0.599       0.743

  Decomposition of Other based on code block (only on MPI task 0):
  Times             Block #1    Block #2    Block #3    Block #4    Block #5    Block #6    Block #7    Block #8
  | Times    0:        0.000       0.000       0.000       0.000       0.000       0.000       0.000       0.000

  Times             Block #9   Block #10   Block #11   Block #12   Block #13   Block #14   Block #15   Block #16
  | Times    0:        0.000       0.000       0.000       0.003       0.000       0.005       0.000       0.000

  Times            Block Sum    Expected
  | Times    0:        0.008       0.009
  Time for Fock matrix mixing     0.000

  Updating Kohn-Sham eigenvalues and eigenvectors using ELSI and the ELPA eigensolver.
  Starting ELPA eigensolver
  Finished transformation to standard eigenproblem
  | Time :     0.000 s
  Finished solving standard eigenproblem
  | Time :     0.001 s
  Finished back-transformation of eigenvectors
  | Time :     0.000 s

  Obtaining occupation numbers and electronic chemical potential using ELSI.
  | Note that, for insulating systems, the printed 'chemical potential' value is not uniquely defined.
  | It can be anywhere in the energy gap, as long as it correctly separates occupied and unoccupied states.
  | In systems with a gap, the physically relevant chemical potential is the VBM or HOMO.

  | Chemical potential (Fermi level):    -5.37789547 eV
  Highest occupied state (VBM) at     -8.23583122 eV
  | Occupation number:      2.00000000

  Lowest unoccupied state (CBM) at    -2.51995971 eV
  | Occupation number:      0.00000000

  Overall HOMO-LUMO gap:      5.71587151 eV.

  Total energy components:
  | Sum of eigenvalues            :        -339.93915089 Ha       -9250.21494155 eV
  | XC energy correction          :         -22.32788471 Ha        -607.57265601 eV
  | XC potential correction       :          44.11315317 Ha        1200.37997230 eV
  | Free-atom electrostatic energy:        -265.56026682 Ha       -7226.26252847 eV
  | Hartree energy correction     :          -2.03965982 Ha         -55.50196765 eV
  | Entropy correction            :          -0.00000000 Ha          -0.00000000 eV
  | ---------------------------
  | Total energy                  :        -585.75380909 Ha      -15939.17212138 eV
  | Total energy, T -> 0          :        -585.75380909 Ha      -15939.17212138 eV  <-- do not rely on this value for anything but (periodic) metals
  | Electronic free energy        :        -585.75380909 Ha      -15939.17212138 eV

  Derived energy quantities:
  | Kinetic energy                :         587.84825518 Ha       15996.16489937 eV
  | Electrostatic energy          :       -1131.49929262 Ha      -30789.66231309 eV
  | Energy correction for multipole
  | error in Hartree potential    :          -0.00017734 Ha          -0.00482579 eV
  | Sum of eigenvalues per atom                           :       -4625.10747078 eV
  | Total energy (T->0) per atom                          :       -7969.58606069 eV  <-- do not rely on this value for anything but (periodic) metals
  | Electronic free energy per atom                       :       -7969.58606069 eV
  Evaluating new KS density.
  Integration grid: deviation in total charge (<rho> - N_e) =  -3.552714E-15

  Self-consistency convergence accuracy:
  | Change of charge density      :  0.1582E-01
  | Change of unmixed KS density  :  0.1556E-01
  | Change of sum of eigenvalues  :  0.2328E+01 eV
  | Change of total energy        :  0.1120E+00 eV


------------------------------------------------------------
  End self-consistency iteration #     8       :  max(cpu_time)    wall_clock(cpu1)
  | Time for this iteration                     :        0.269 s           0.105 s
  | Charge density update                       :        0.001 s           0.001 s
  | Density mixing                              :        0.248 s           0.084 s
  | Hartree multipole update                    :        0.001 s           0.001 s
  | Hartree multipole summation                 :        0.002 s           0.002 s
  | Integration                                 :        0.002 s           0.002 s
  | Fock matrix evaluation                      :        0.012 s           0.013 s
  | Solution of K.-S. eqns.                     :        0.002 s           0.001 s
  | Total energy evaluation                     :        0.000 s           0.001 s

  Partial memory accounting:
  | Current value for overall tracked memory usage:
  |   Minimum:        1.827 MB (on task  2)
  |   Maximum:        2.129 MB (on task 21)
  |   Average:        1.953 MB
  | Peak value for overall tracked memory usage:
  |   Minimum:        2.354 MB (on task  2 after allocating wave)
  |   Maximum:        3.978 MB (on task  0 after allocating wave)
  |   Average:        2.574 MB
  | Largest tracked array allocation so far:
  |   Minimum:        1.383 MB (ovlp3fn2%dat on task  2)
  |   Maximum:        1.621 MB (ovlp3fn2%dat on task  0)
  |   Average:        1.491 MB
  Note:  These values currently only include a subset of arrays which are explicitly tracked.
  The "true" memory usage will be greater.
------------------------------------------------------------

------------------------------------------------------------
          Begin self-consistency iteration #    9

  Date     :  20260724, Time     :  094000.330
------------------------------------------------------------
  Pulay mixing of updated and previous charge densities.
  Available memory per node after mixing [GB]:    984.79
  Renormalizing the density to the exact electron count on the 3D integration grid.
  | Formal number of electrons (from input files) :      28.0000000000
  | Integrated number of electrons on 3D grid     :      28.0000000000
  | Charge integration error                      :       0.0000000000
  | Normalization factor for density and gradient :       1.0000000000

  Evaluating partitioned Hartree potential by multipole expansion.
  | Original multipole sum: apparent total charge =  -0.560828E-14
  | Sum of charges compensated after spline to logarithmic grids =   0.854219E-06
  | Analytical far-field extrapolation by fixed multipoles:
  | Hartree multipole sum: apparent total charge =  -0.541150E-14
  Summing up the Hartree potential.
  Time summed over all CPUs for potential: real work        0.001 s, elapsed        0.002 s
  | RMS charge density error from multipole expansion :   0.258262E-02

  Integrating Hamiltonian matrix: batch-based integration.
  Time summed over all CPUs for integration: real work        0.097 s, elapsed        0.107 s
  Calculating non-local Hartree-Fock exchange by two-center RI (RI-LVL).
  screening_threshold (crit_val) =  0.000000100000
  Exact exchange progress report - outermost block loop i_block: 1 ..       3
  |        1         2         3 Total ovlp3fn data transfer [GB]   8.0878398148342967E-004
  Average sparsity of tmp1/2 0.50000000
  Average sparsity of fock_matrix_row 0.02000000
  Full exact exchange energy: weighted long- and short-range EXX    269.035424886330 eV.
  Times            DM_x_o3fn   CM_prod_1   CM_prod_2   tmp2_prod        Sync   Imbalance       Other  Total calc
  | Times    0:        0.000       0.001       0.000       0.000       0.000       0.000       0.008       0.010
  | Times    1:        0.000       0.001       0.000       0.000       0.000       0.001       0.008       0.010
  | Times    2:        0.000       0.001       0.001       0.000       0.000       0.000       0.008       0.010
  | Times    3:        0.000       0.001       0.000       0.000       0.000       0.001       0.008       0.010
  | Times    4:        0.000       0.001       0.000       0.000       0.000       0.000       0.008       0.010
  | Times    5:        0.000       0.001       0.000       0.000       0.000       0.001       0.008       0.010
  | Times    6:        0.000       0.001       0.001       0.000       0.000       0.000       0.008       0.011
  | Times    7:        0.000       0.001       0.000       0.000       0.000       0.001       0.008       0.010
  | Times    8:        0.000       0.000       0.000       0.000       0.000       0.000       0.009       0.010
  | Times    9:        0.000       0.001       0.000       0.000       0.000       0.000       0.009       0.010
  | Times   10:        0.000       0.000       0.000       0.000       0.000       0.000       0.009       0.010
  | Times   11:        0.000       0.000       0.000       0.000       0.000       0.001       0.009       0.010
  | Times   12:        0.000       0.001       0.000       0.000       0.000       0.000       0.008       0.010
  | Times   13:        0.000       0.000       0.000       0.000       0.000       0.001       0.008       0.010
  | Times   14:        0.000       0.001       0.001       0.000       0.000       0.000       0.008       0.010
  | Times   15:        0.000       0.001       0.000       0.000       0.000       0.001       0.008       0.010
  | Times   16:        0.000       0.001       0.000       0.000       0.000       0.000       0.008       0.010
  | Times   17:        0.000       0.001       0.000       0.000       0.000       0.001       0.008       0.010
  | Times   18:        0.000       0.001       0.001       0.000       0.000       0.000       0.008       0.010
  | Times   19:        0.000       0.001       0.000       0.000       0.000       0.001       0.008       0.010
  | Times   20:        0.000       0.001       0.000       0.000       0.000       0.000       0.008       0.010
  | Times   21:        0.000       0.001       0.000       0.000       0.000       0.001       0.008       0.010
  | Times   22:        0.000       0.001       0.001       0.000       0.000       0.000       0.008       0.010
  | Times   23:        0.000       0.001       0.000       0.000       0.000       0.001       0.008       0.010
  | Times   24:        0.000       0.001       0.000       0.000       0.000       0.000       0.009       0.010
  | Times   25:        0.000       0.001       0.000       0.000       0.000       0.001       0.009       0.010
  | Times   26:        0.000       0.001       0.001       0.000       0.000       0.000       0.008       0.010
  | Times   27:        0.000       0.001       0.000       0.000       0.000       0.001       0.008       0.010
  | Times   28:        0.000       0.001       0.000       0.000       0.000       0.000       0.008       0.010
  | Times   29:        0.000       0.001       0.000       0.000       0.000       0.001       0.008       0.010
  | Times   30:        0.000       0.001       0.001       0.000       0.000       0.000       0.008       0.010
  | Times   31:        0.000       0.001       0.000       0.000       0.000       0.001       0.008       0.010
  | Times   32:        0.000       0.001       0.000       0.000       0.000       0.001       0.009       0.010
  | Times   33:        0.000       0.001       0.000       0.000       0.000       0.001       0.009       0.010
  | Times   34:        0.000       0.001       0.000       0.000       0.000       0.000       0.008       0.010
  | Times   35:        0.000       0.001       0.000       0.000       0.000       0.001       0.008       0.010
  | Times   36:        0.000       0.001       0.000       0.000       0.000       0.001       0.008       0.010
  | Times   37:        0.000       0.001       0.001       0.000       0.000       0.000       0.008       0.010
  | Times   38:        0.000       0.001       0.000       0.000       0.000       0.001       0.008       0.010
  | Times   39:        0.000       0.001       0.001       0.000       0.000       0.000       0.008       0.010
  | Times   40:        0.000       0.001       0.000       0.000       0.000       0.001       0.008       0.010
  | Times   41:        0.000       0.001       0.000       0.000       0.000       0.000       0.008       0.010
  | Times   42:        0.000       0.001       0.000       0.000       0.000       0.000       0.009       0.010
  | Times   43:        0.000       0.001       0.000       0.000       0.000       0.000       0.008       0.010
  | Times   44:        0.000       0.001       0.000       0.000       0.000       0.001       0.008       0.010
  | Times   45:        0.000       0.001       0.000       0.000       0.000       0.000       0.008       0.010
  | Times   46:        0.000       0.001       0.000       0.000       0.000       0.000       0.008       0.010
  | Times   47:        0.000       0.001       0.000       0.000       0.000       0.000       0.008       0.010
  | Times   48:        0.000       0.001       0.000       0.000       0.000       0.001       0.008       0.010
  | Times   49:        0.000       0.001       0.001       0.000       0.000       0.000       0.008       0.010
  | Times   50:        0.000       0.001       0.000       0.000       0.000       0.001       0.008       0.010
  | Times   51:        0.000       0.001       0.001       0.000       0.000       0.000       0.008       0.010
  | Times   52:        0.000       0.001       0.000       0.000       0.000       0.001       0.008       0.010
  | Times   53:        0.000       0.000       0.000       0.000       0.000       0.000       0.009       0.010
  | Times   54:        0.000       0.001       0.000       0.000       0.000       0.000       0.009       0.010
  | Times   55:        0.000       0.001       0.000       0.000       0.000       0.000       0.009       0.010
  | Times   56:        0.000       0.001       0.000       0.000       0.000       0.001       0.008       0.010
  | Times   57:        0.000       0.001       0.001       0.000       0.000       0.000       0.008       0.010
  | Times   58:        0.000       0.001       0.000       0.000       0.000       0.000       0.008       0.010
  | Times   59:        0.000       0.001       0.001       0.000       0.000       0.000       0.008       0.010
  | Times   60:        0.000       0.001       0.000       0.000       0.000       0.001       0.008       0.010
  | Times   61:        0.000       0.000       0.000       0.000       0.000       0.000       0.009       0.010
  | Times   62:        0.000       0.001       0.000       0.000       0.000       0.000       0.009       0.010
  | Times   63:        0.000       0.001       0.000       0.000       0.000       0.000       0.009       0.010
  | Times  sum:        0.015       0.040       0.016       0.016       0.020       0.031       0.528       0.666

  Decomposition of Other based on code block (only on MPI task 0):
  Times             Block #1    Block #2    Block #3    Block #4    Block #5    Block #6    Block #7    Block #8
  | Times    0:        0.000       0.000       0.000       0.000       0.000       0.000       0.000       0.000

  Times             Block #9   Block #10   Block #11   Block #12   Block #13   Block #14   Block #15   Block #16
  | Times    0:        0.000       0.000       0.000       0.002       0.000       0.005       0.000       0.000

  Times            Block Sum    Expected
  | Times    0:        0.007       0.008
  Time for Fock matrix mixing     0.000

  Updating Kohn-Sham eigenvalues and eigenvectors using ELSI and the ELPA eigensolver.
  Starting ELPA eigensolver
  Finished transformation to standard eigenproblem
  | Time :     0.000 s
  Finished solving standard eigenproblem
  | Time :     0.001 s
  Finished back-transformation of eigenvectors
  | Time :     0.000 s

  Obtaining occupation numbers and electronic chemical potential using ELSI.
  | Note that, for insulating systems, the printed 'chemical potential' value is not uniquely defined.
  | It can be anywhere in the energy gap, as long as it correctly separates occupied and unoccupied states.
  | In systems with a gap, the physically relevant chemical potential is the VBM or HOMO.

  | Chemical potential (Fermi level):    -5.39587327 eV
  Highest occupied state (VBM) at     -8.31035813 eV
  | Occupation number:      2.00000000

  Lowest unoccupied state (CBM) at    -2.48138840 eV
  | Occupation number:      0.00000000

  Overall HOMO-LUMO gap:      5.82896973 eV.

  Total energy components:
  | Sum of eigenvalues            :        -339.95076820 Ha       -9250.53106467 eV
  | XC energy correction          :         -22.32807366 Ha        -607.57779744 eV
  | XC potential correction       :          44.11394058 Ha        1200.40139902 eV
  | Free-atom electrostatic energy:        -265.56026682 Ha       -7226.26252847 eV
  | Hartree energy correction     :          -2.02745654 Ha         -55.16989936 eV
  | Entropy correction            :          -0.00000000 Ha          -0.00000000 eV
  | ---------------------------
  | Total energy                  :        -585.75262464 Ha      -15939.13989092 eV
  | Total energy, T -> 0          :        -585.75262464 Ha      -15939.13989092 eV  <-- do not rely on this value for anything but (periodic) metals
  | Electronic free energy        :        -585.75262464 Ha      -15939.13989092 eV

  Derived energy quantities:
  | Kinetic energy                :         587.88290479 Ha       15997.10776323 eV
  | Electrostatic energy          :       -1131.53170875 Ha      -30790.54440081 eV
  | Energy correction for multipole
  | error in Hartree potential    :          -0.00023670 Ha          -0.00644084 eV
  | Sum of eigenvalues per atom                           :       -4625.26553233 eV
  | Total energy (T->0) per atom                          :       -7969.56994546 eV  <-- do not rely on this value for anything but (periodic) metals
  | Electronic free energy per atom                       :       -7969.56994546 eV
  Evaluating new KS density.
  Integration grid: deviation in total charge (<rho> - N_e) =   7.105427E-15

  Self-consistency convergence accuracy:
  | Change of charge density      :  0.6874E-02
  | Change of unmixed KS density  :  0.5869E-02
  | Change of sum of eigenvalues  : -0.3161E+00 eV
  | Change of total energy        :  0.3223E-01 eV


------------------------------------------------------------
  End self-consistency iteration #     9       :  max(cpu_time)    wall_clock(cpu1)
  | Time for this iteration                     :        0.273 s           0.234 s
  | Charge density update                       :        0.001 s           0.001 s
  | Density mixing                              :        0.255 s           0.216 s
  | Hartree multipole update                    :        0.001 s           0.001 s
  | Hartree multipole summation                 :        0.002 s           0.002 s
  | Integration                                 :        0.002 s           0.001 s
  | Fock matrix evaluation                      :        0.011 s           0.011 s
  | Solution of K.-S. eqns.                     :        0.001 s           0.001 s
  | Total energy evaluation                     :        0.000 s           0.000 s

  Partial memory accounting:
  | Current value for overall tracked memory usage:
  |   Minimum:        1.827 MB (on task  2)
  |   Maximum:        2.129 MB (on task 21)
  |   Average:        1.953 MB
  | Peak value for overall tracked memory usage:
  |   Minimum:        2.354 MB (on task  2 after allocating wave)
  |   Maximum:        3.978 MB (on task  0 after allocating wave)
  |   Average:        2.574 MB
  | Largest tracked array allocation so far:
  |   Minimum:        1.383 MB (ovlp3fn2%dat on task  2)
  |   Maximum:        1.621 MB (ovlp3fn2%dat on task  0)
  |   Average:        1.491 MB
  Note:  These values currently only include a subset of arrays which are explicitly tracked.
  The "true" memory usage will be greater.
------------------------------------------------------------

------------------------------------------------------------
          Begin self-consistency iteration #   10

  Date     :  20260724, Time     :  094000.639
------------------------------------------------------------
  Pulay mixing of updated and previous charge densities.
  Available memory per node after mixing [GB]:    984.79
  Renormalizing the density to the exact electron count on the 3D integration grid.
  | Formal number of electrons (from input files) :      28.0000000000
  | Integrated number of electrons on 3D grid     :      28.0000000000
  | Charge integration error                      :       0.0000000000
  | Normalization factor for density and gradient :       1.0000000000

  Evaluating partitioned Hartree potential by multipole expansion.
  | Original multipole sum: apparent total charge =  -0.590346E-14
  | Sum of charges compensated after spline to logarithmic grids =   0.837743E-06
  | Analytical far-field extrapolation by fixed multipoles:
  | Hartree multipole sum: apparent total charge =  -0.526392E-14
  Summing up the Hartree potential.
  Time summed over all CPUs for potential: real work        0.001 s, elapsed        0.001 s
  | RMS charge density error from multipole expansion :   0.259133E-02

  Integrating Hamiltonian matrix: batch-based integration.
  Time summed over all CPUs for integration: real work        0.097 s, elapsed        0.109 s
  Calculating non-local Hartree-Fock exchange by two-center RI (RI-LVL).
  screening_threshold (crit_val) =  0.000000100000
  Exact exchange progress report - outermost block loop i_block: 1 ..       3
  |        1         2         3 Total ovlp3fn data transfer [GB]   8.0878398148342967E-004
  Average sparsity of tmp1/2 0.50000000
  Average sparsity of fock_matrix_row 0.02000000
  Full exact exchange energy: weighted long- and short-range EXX    269.079499178403 eV.
  Times            DM_x_o3fn   CM_prod_1   CM_prod_2   tmp2_prod        Sync   Imbalance       Other  Total calc
  | Times    0:        0.000       0.001       0.000       0.000       0.000       0.000       0.007       0.010
  | Times    1:        0.000       0.001       0.000       0.000       0.000       0.001       0.007       0.010
  | Times    2:        0.000       0.001       0.001       0.000       0.000       0.000       0.007       0.010
  | Times    3:        0.000       0.001       0.000       0.000       0.000       0.001       0.007       0.010
  | Times    4:        0.000       0.001       0.000       0.000       0.000       0.000       0.007       0.010
  | Times    5:        0.000       0.001       0.000       0.000       0.000       0.001       0.007       0.010
  | Times    6:        0.000       0.001       0.001       0.000       0.000       0.000       0.008       0.010
  | Times    7:        0.000       0.001       0.000       0.000       0.000       0.001       0.007       0.010
  | Times    8:        0.000       0.001       0.000       0.000       0.000       0.000       0.007       0.010
  | Times    9:        0.000       0.001       0.000       0.000       0.000       0.001       0.007       0.010
  | Times   10:        0.000       0.001       0.001       0.000       0.000       0.000       0.007       0.010
  | Times   11:        0.000       0.001       0.000       0.000       0.000       0.001       0.007       0.010
  | Times   12:        0.000       0.000       0.000       0.000       0.000       0.000       0.008       0.010
  | Times   13:        0.000       0.000       0.000       0.000       0.000       0.001       0.008       0.010
  | Times   14:        0.000       0.000       0.000       0.000       0.000       0.000       0.008       0.010
  | Times   15:        0.000       0.000       0.000       0.000       0.000       0.001       0.008       0.010
  | Times   16:        0.000       0.001       0.000       0.000       0.000       0.000       0.008       0.010
  | Times   17:        0.000       0.001       0.000       0.000       0.000       0.001       0.007       0.010
  | Times   18:        0.000       0.001       0.001       0.000       0.000       0.000       0.007       0.010
  | Times   19:        0.000       0.001       0.000       0.000       0.000       0.001       0.007       0.010
  | Times   20:        0.000       0.001       0.000       0.000       0.000       0.000       0.007       0.010
  | Times   21:        0.000       0.001       0.000       0.000       0.000       0.001       0.007       0.010
  | Times   22:        0.000       0.001       0.001       0.000       0.000       0.000       0.007       0.010
  | Times   23:        0.000       0.001       0.000       0.000       0.000       0.001       0.007       0.010
  | Times   24:        0.000       0.001       0.000       0.000       0.000       0.000       0.008       0.010
  | Times   25:        0.000       0.001       0.000       0.000       0.000       0.001       0.008       0.010
  | Times   26:        0.000       0.001       0.001       0.000       0.000       0.000       0.008       0.010
  | Times   27:        0.000       0.001       0.000       0.000       0.000       0.001       0.008       0.010
  | Times   28:        0.000       0.001       0.000       0.000       0.000       0.000       0.007       0.010
  | Times   29:        0.000       0.001       0.000       0.000       0.000       0.001       0.007       0.010
  | Times   30:        0.000       0.001       0.001       0.000       0.000       0.000       0.007       0.010
  | Times   31:        0.000       0.001       0.000       0.000       0.000       0.001       0.007       0.010
  | Times   32:        0.000       0.001       0.000       0.000       0.000       0.001       0.008       0.010
  | Times   33:        0.000       0.001       0.000       0.000       0.000       0.001       0.008       0.010
  | Times   34:        0.000       0.001       0.000       0.000       0.000       0.000       0.008       0.010
  | Times   35:        0.000       0.001       0.000       0.000       0.000       0.001       0.008       0.010
  | Times   36:        0.000       0.001       0.000       0.000       0.000       0.001       0.007       0.010
  | Times   37:        0.000       0.001       0.001       0.000       0.000       0.000       0.007       0.010
  | Times   38:        0.000       0.001       0.000       0.000       0.000       0.001       0.007       0.010
  | Times   39:        0.000       0.001       0.001       0.000       0.000       0.000       0.007       0.010
  | Times   40:        0.000       0.001       0.000       0.000       0.000       0.001       0.008       0.010
  | Times   41:        0.000       0.001       0.000       0.000       0.000       0.000       0.008       0.010
  | Times   42:        0.000       0.001       0.000       0.000       0.000       0.000       0.008       0.010
  | Times   43:        0.000       0.001       0.000       0.000       0.000       0.000       0.008       0.010
  | Times   44:        0.000       0.001       0.000       0.000       0.000       0.001       0.007       0.010
  | Times   45:        0.000       0.001       0.000       0.000       0.000       0.000       0.008       0.010
  | Times   46:        0.000       0.001       0.000       0.000       0.000       0.000       0.008       0.010
  | Times   47:        0.000       0.001       0.000       0.000       0.000       0.000       0.008       0.010
  | Times   48:        0.000       0.001       0.000       0.000       0.000       0.001       0.007       0.010
  | Times   49:        0.000       0.001       0.001       0.000       0.000       0.000       0.007       0.010
  | Times   50:        0.000       0.001       0.000       0.000       0.000       0.001       0.007       0.010
  | Times   51:        0.000       0.001       0.001       0.000       0.000       0.000       0.007       0.010
  | Times   52:        0.000       0.001       0.000       0.000       0.000       0.001       0.008       0.010
  | Times   53:        0.000       0.001       0.000       0.000       0.000       0.000       0.008       0.010
  | Times   54:        0.000       0.001       0.000       0.000       0.000       0.000       0.008       0.010
  | Times   55:        0.000       0.001       0.000       0.000       0.000       0.000       0.008       0.010
  | Times   56:        0.000       0.001       0.000       0.000       0.000       0.001       0.007       0.010
  | Times   57:        0.000       0.001       0.001       0.000       0.000       0.000       0.007       0.010
  | Times   58:        0.000       0.001       0.000       0.000       0.000       0.000       0.008       0.010
  | Times   59:        0.000       0.001       0.001       0.000       0.000       0.000       0.007       0.010
  | Times   60:        0.000       0.001       0.000       0.000       0.000       0.001       0.008       0.010
  | Times   61:        0.000       0.000       0.000       0.000       0.000       0.000       0.008       0.010
  | Times   62:        0.000       0.001       0.000       0.000       0.000       0.000       0.008       0.010
  | Times   63:        0.000       0.001       0.000       0.000       0.000       0.000       0.008       0.010
  | Times  sum:        0.015       0.040       0.016       0.016       0.020       0.032       0.481       0.619

  Decomposition of Other based on code block (only on MPI task 0):
  Times             Block #1    Block #2    Block #3    Block #4    Block #5    Block #6    Block #7    Block #8
  | Times    0:        0.000       0.000       0.000       0.000       0.000       0.000       0.000       0.000

  Times             Block #9   Block #10   Block #11   Block #12   Block #13   Block #14   Block #15   Block #16
  | Times    0:        0.000       0.000       0.000       0.002       0.000       0.005       0.000       0.000

  Times            Block Sum    Expected
  | Times    0:        0.007       0.007
  Time for Fock matrix mixing     0.000

  Updating Kohn-Sham eigenvalues and eigenvectors using ELSI and the ELPA eigensolver.
  Starting ELPA eigensolver
  Finished transformation to standard eigenproblem
  | Time :     0.000 s
  Finished solving standard eigenproblem
  | Time :     0.001 s
  Finished back-transformation of eigenvectors
  | Time :     0.000 s

  Obtaining occupation numbers and electronic chemical potential using ELSI.
  | Note that, for insulating systems, the printed 'chemical potential' value is not uniquely defined.
  | It can be anywhere in the energy gap, as long as it correctly separates occupied and unoccupied states.
  | In systems with a gap, the physically relevant chemical potential is the VBM or HOMO.

  | Chemical potential (Fermi level):    -5.41986257 eV
  Highest occupied state (VBM) at     -8.34019305 eV
  | Occupation number:      2.00000000

  Lowest unoccupied state (CBM) at    -2.49953209 eV
  | Occupation number:      0.00000000

  Overall HOMO-LUMO gap:      5.84066096 eV.

  Total energy components:
  | Sum of eigenvalues            :        -340.02809841 Ha       -9252.63532677 eV
  | XC energy correction          :         -22.32347345 Ha        -607.45261951 eV
  | XC potential correction       :          44.10801368 Ha        1200.24011966 eV
  | Free-atom electrostatic energy:        -265.56026682 Ha       -7226.26252847 eV
  | Hartree energy correction     :          -1.94856649 Ha         -53.02319186 eV
  | Entropy correction            :          -0.00000000 Ha          -0.00000000 eV
  | ---------------------------
  | Total energy                  :        -585.75239150 Ha      -15939.13354695 eV
  | Total energy, T -> 0          :        -585.75239150 Ha      -15939.13354695 eV  <-- do not rely on this value for anything but (periodic) metals
  | Electronic free energy        :        -585.75239150 Ha      -15939.13354695 eV

  Derived energy quantities:
  | Kinetic energy                :         587.82796199 Ha       15995.61269355 eV
  | Electrostatic energy          :       -1131.48038232 Ha      -30789.14773764 eV
  | Energy correction for multipole
  | error in Hartree potential    :          -0.00024339 Ha          -0.00662300 eV
  | Sum of eigenvalues per atom                           :       -4626.31766338 eV
  | Total energy (T->0) per atom                          :       -7969.56677348 eV  <-- do not rely on this value for anything but (periodic) metals
  | Electronic free energy per atom                       :       -7969.56677348 eV
  Evaluating new KS density.
  Integration grid: deviation in total charge (<rho> - N_e) =   3.552714E-15

  Self-consistency convergence accuracy:
  | Change of charge density      :  0.3689E-02
  | Change of unmixed KS density  :  0.4301E-02
  | Change of sum of eigenvalues  : -0.2104E+01 eV
  | Change of total energy        :  0.6344E-02 eV


------------------------------------------------------------
  End self-consistency iteration #    10       :  max(cpu_time)    wall_clock(cpu1)
  | Time for this iteration                     :        0.272 s           0.216 s
  | Charge density update                       :        0.001 s           0.001 s
  | Density mixing                              :        0.257 s           0.199 s
  | Hartree multipole update                    :        0.001 s           0.001 s
  | Hartree multipole summation                 :        0.002 s           0.002 s
  | Integration                                 :        0.002 s           0.001 s
  | Fock matrix evaluation                      :        0.011 s           0.011 s
  | Solution of K.-S. eqns.                     :        0.001 s           0.001 s
  | Total energy evaluation                     :        0.000 s           0.000 s

  Partial memory accounting:
  | Current value for overall tracked memory usage:
  |   Minimum:        1.827 MB (on task  2)
  |   Maximum:        2.129 MB (on task 21)
  |   Average:        1.953 MB
  | Peak value for overall tracked memory usage:
  |   Minimum:        2.354 MB (on task  2 after allocating wave)
  |   Maximum:        3.978 MB (on task  0 after allocating wave)
  |   Average:        2.574 MB
  | Largest tracked array allocation so far:
  |   Minimum:        1.383 MB (ovlp3fn2%dat on task  2)
  |   Maximum:        1.621 MB (ovlp3fn2%dat on task  0)
  |   Average:        1.491 MB
  Note:  These values currently only include a subset of arrays which are explicitly tracked.
  The "true" memory usage will be greater.
------------------------------------------------------------

------------------------------------------------------------
          Begin self-consistency iteration #   11

  Date     :  20260724, Time     :  094001.016
------------------------------------------------------------
  Pulay mixing of updated and previous charge densities.
  Available memory per node after mixing [GB]:    984.79
  Renormalizing the density to the exact electron count on the 3D integration grid.
  | Formal number of electrons (from input files) :      28.0000000000
  | Integrated number of electrons on 3D grid     :      28.0000000000
  | Charge integration error                      :       0.0000000000
  | Normalization factor for density and gradient :       1.0000000000

  Evaluating partitioned Hartree potential by multipole expansion.
  | Original multipole sum: apparent total charge =  -0.836323E-14
  | Sum of charges compensated after spline to logarithmic grids =   0.844678E-06
  | Analytical far-field extrapolation by fixed multipoles:
  | Hartree multipole sum: apparent total charge =  -0.806806E-14
  Summing up the Hartree potential.
  Time summed over all CPUs for potential: real work        0.001 s, elapsed        0.001 s
  | RMS charge density error from multipole expansion :   0.261329E-02

  Integrating Hamiltonian matrix: batch-based integration.
  Time summed over all CPUs for integration: real work        0.096 s, elapsed        0.107 s
  Calculating non-local Hartree-Fock exchange by two-center RI (RI-LVL).
  screening_threshold (crit_val) =  0.000000100000
  Exact exchange progress report - outermost block loop i_block: 1 ..       3
  |        1         2         3 Total ovlp3fn data transfer [GB]   8.0878398148342967E-004
  Average sparsity of tmp1/2 0.50000000
  Average sparsity of fock_matrix_row 0.02000000
  Full exact exchange energy: weighted long- and short-range EXX    269.096566852740 eV.
  Times            DM_x_o3fn   CM_prod_1   CM_prod_2   tmp2_prod        Sync   Imbalance       Other  Total calc
  | Times    0:        0.000       0.001       0.000       0.000       0.000       0.000       0.007       0.009
  | Times    1:        0.000       0.001       0.000       0.000       0.000       0.001       0.007       0.009
  | Times    2:        0.000       0.001       0.001       0.000       0.000       0.000       0.007       0.009
  | Times    3:        0.000       0.001       0.000       0.000       0.000       0.001       0.007       0.009
  | Times    4:        0.000       0.001       0.000       0.000       0.000       0.000       0.007       0.009
  | Times    5:        0.000       0.001       0.000       0.000       0.000       0.001       0.007       0.009
  | Times    6:        0.000       0.001       0.001       0.000       0.000       0.000       0.007       0.009
  | Times    7:        0.000       0.001       0.000       0.000       0.000       0.001       0.007       0.009
  | Times    8:        0.000       0.001       0.000       0.000       0.000       0.001       0.007       0.009
  | Times    9:        0.000       0.001       0.000       0.000       0.000       0.001       0.007       0.009
  | Times   10:        0.000       0.001       0.001       0.000       0.000       0.000       0.007       0.009
  | Times   11:        0.000       0.001       0.000       0.000       0.000       0.001       0.007       0.009
  | Times   12:        0.000       0.000       0.000       0.000       0.000       0.000       0.007       0.009
  | Times   13:        0.000       0.000       0.000       0.000       0.000       0.001       0.007       0.009
  | Times   14:        0.000       0.001       0.000       0.000       0.000       0.000       0.007       0.009
  | Times   15:        0.000       0.000       0.000       0.000       0.000       0.001       0.007       0.009
  | Times   16:        0.000       0.001       0.000       0.000       0.000       0.000       0.007       0.009
  | Times   17:        0.000       0.001       0.000       0.000       0.000       0.001       0.007       0.009
  | Times   18:        0.000       0.001       0.001       0.000       0.000       0.000       0.007       0.009
  | Times   19:        0.000       0.001       0.000       0.000       0.000       0.001       0.007       0.009
  | Times   20:        0.000       0.001       0.000       0.000       0.000       0.000       0.007       0.009
  | Times   21:        0.000       0.001       0.000       0.000       0.000       0.001       0.007       0.009
  | Times   22:        0.000       0.001       0.001       0.000       0.000       0.000       0.007       0.009
  | Times   23:        0.000       0.001       0.000       0.000       0.000       0.001       0.007       0.009
  | Times   24:        0.000       0.001       0.001       0.000       0.000       0.001       0.007       0.009
  | Times   25:        0.000       0.001       0.000       0.000       0.000       0.001       0.007       0.009
  | Times   26:        0.000       0.001       0.001       0.000       0.000       0.000       0.006       0.009
  | Times   27:        0.000       0.001       0.000       0.000       0.000       0.001       0.007       0.009
  | Times   28:        0.000       0.000       0.000       0.000       0.000       0.000       0.008       0.009
  | Times   29:        0.000       0.000       0.000       0.000       0.000       0.001       0.007       0.009
  | Times   30:        0.000       0.000       0.000       0.000       0.000       0.000       0.007       0.009
  | Times   31:        0.000       0.000       0.000       0.000       0.000       0.001       0.007       0.009
  | Times   32:        0.000       0.001       0.000       0.000       0.000       0.001       0.007       0.009
  | Times   33:        0.000       0.001       0.000       0.000       0.000       0.001       0.007       0.009
  | Times   34:        0.000       0.001       0.000       0.000       0.000       0.000       0.007       0.009
  | Times   35:        0.000       0.001       0.000       0.000       0.000       0.001       0.007       0.009
  | Times   36:        0.000       0.001       0.000       0.000       0.000       0.001       0.007       0.009
  | Times   37:        0.000       0.001       0.000       0.000       0.000       0.000       0.007       0.009
  | Times   38:        0.000       0.001       0.000       0.000       0.000       0.000       0.007       0.009
  | Times   39:        0.000       0.001       0.000       0.000       0.000       0.000       0.007       0.009
  | Times   40:        0.000       0.001       0.000       0.000       0.000       0.001       0.007       0.009
  | Times   41:        0.000       0.001       0.000       0.000       0.000       0.000       0.007       0.009
  | Times   42:        0.000       0.001       0.000       0.000       0.000       0.000       0.007       0.009
  | Times   43:        0.000       0.001       0.000       0.000       0.000       0.000       0.007       0.009
  | Times   44:        0.000       0.001       0.000       0.000       0.000       0.001       0.007       0.009
  | Times   45:        0.000       0.001       0.000       0.000       0.000       0.000       0.007       0.009
  | Times   46:        0.000       0.001       0.000       0.000       0.000       0.000       0.007       0.009
  | Times   47:        0.000       0.001       0.000       0.000       0.000       0.000       0.007       0.009
  | Times   48:        0.000       0.001       0.000       0.000       0.000       0.001       0.007       0.009
  | Times   49:        0.000       0.001       0.001       0.000       0.000       0.000       0.007       0.009
  | Times   50:        0.000       0.001       0.000       0.000       0.000       0.000       0.007       0.009
  | Times   51:        0.000       0.001       0.001       0.000       0.000       0.000       0.007       0.009
  | Times   52:        0.000       0.001       0.000       0.000       0.000       0.001       0.007       0.009
  | Times   53:        0.000       0.001       0.000       0.000       0.000       0.000       0.007       0.009
  | Times   54:        0.000       0.001       0.000       0.000       0.000       0.000       0.007       0.009
  | Times   55:        0.000       0.001       0.000       0.000       0.000       0.000       0.007       0.009
  | Times   56:        0.000       0.001       0.000       0.000       0.000       0.001       0.007       0.009
  | Times   57:        0.000       0.001       0.001       0.000       0.000       0.000       0.007       0.009
  | Times   58:        0.000       0.001       0.000       0.000       0.000       0.000       0.007       0.009
  | Times   59:        0.000       0.001       0.001       0.000       0.000       0.000       0.007       0.009
  | Times   60:        0.000       0.001       0.000       0.000       0.000       0.001       0.007       0.009
  | Times   61:        0.000       0.001       0.000       0.000       0.000       0.000       0.007       0.009
  | Times   62:        0.000       0.001       0.000       0.000       0.000       0.000       0.007       0.009
  | Times   63:        0.000       0.001       0.000       0.000       0.000       0.000       0.007       0.009
  | Times  sum:        0.015       0.040       0.016       0.016       0.020       0.031       0.447       0.585

  Decomposition of Other based on code block (only on MPI task 0):
  Times             Block #1    Block #2    Block #3    Block #4    Block #5    Block #6    Block #7    Block #8
  | Times    0:        0.000       0.000       0.000       0.000       0.000       0.000       0.000       0.000

  Times             Block #9   Block #10   Block #11   Block #12   Block #13   Block #14   Block #15   Block #16
  | Times    0:        0.000       0.000       0.000       0.001       0.000       0.005       0.000       0.000

  Times            Block Sum    Expected
  | Times    0:        0.006       0.007
  Time for Fock matrix mixing     0.000

  Updating Kohn-Sham eigenvalues and eigenvectors using ELSI and the ELPA eigensolver.
  Starting ELPA eigensolver
  Finished transformation to standard eigenproblem
  | Time :     0.000 s
  Finished solving standard eigenproblem
  | Time :     0.001 s
  Finished back-transformation of eigenvectors
  | Time :     0.000 s

  Obtaining occupation numbers and electronic chemical potential using ELSI.
  | Note that, for insulating systems, the printed 'chemical potential' value is not uniquely defined.
  | It can be anywhere in the energy gap, as long as it correctly separates occupied and unoccupied states.
  | In systems with a gap, the physically relevant chemical potential is the VBM or HOMO.

  | Chemical potential (Fermi level):    -5.40996008 eV
  Highest occupied state (VBM) at     -8.32188202 eV
  | Occupation number:      2.00000000

  Lowest unoccupied state (CBM) at    -2.49803813 eV
  | Occupation number:      0.00000000

  Overall HOMO-LUMO gap:      5.82384389 eV.

  Total energy components:
  | Sum of eigenvalues            :        -340.02183137 Ha       -9252.46479192 eV
  | XC energy correction          :         -22.32350618 Ha        -607.45351011 eV
  | XC potential correction       :          44.10805635 Ha        1200.24128078 eV
  | Free-atom electrostatic energy:        -265.56026682 Ha       -7226.26252847 eV
  | Hartree energy correction     :          -1.95524630 Ha         -53.20495877 eV
  | Entropy correction            :          -0.00000000 Ha          -0.00000000 eV
  | ---------------------------
  | Total energy                  :        -585.75279433 Ha      -15939.14450848 eV
  | Total energy, T -> 0          :        -585.75279433 Ha      -15939.14450848 eV  <-- do not rely on this value for anything but (periodic) metals
  | Electronic free energy        :        -585.75279433 Ha      -15939.14450848 eV

  Derived energy quantities:
  | Kinetic energy                :         587.82030429 Ha       15995.40431693 eV
  | Electrostatic energy          :       -1131.47312671 Ha      -30788.95030230 eV
  | Energy correction for multipole
  | error in Hartree potential    :          -0.00025544 Ha          -0.00695090 eV
  | Sum of eigenvalues per atom                           :       -4626.23239596 eV
  | Total energy (T->0) per atom                          :       -7969.57225424 eV  <-- do not rely on this value for anything but (periodic) metals
  | Electronic free energy per atom                       :       -7969.57225424 eV
  Evaluating new KS density.
  Integration grid: deviation in total charge (<rho> - N_e) =   0.000000E+00

  Self-consistency convergence accuracy:
  | Change of charge density      :  0.2333E-02
  | Change of unmixed KS density  :  0.1551E-02
  | Change of sum of eigenvalues  :  0.1705E+00 eV
  | Change of total energy        : -0.1096E-01 eV


------------------------------------------------------------
  End self-consistency iteration #    11       :  max(cpu_time)    wall_clock(cpu1)
  | Time for this iteration                     :        0.271 s           0.129 s
  | Charge density update                       :        0.001 s           0.001 s
  | Density mixing                              :        0.257 s           0.113 s
  | Hartree multipole update                    :        0.001 s           0.001 s
  | Hartree multipole summation                 :        0.002 s           0.001 s
  | Integration                                 :        0.002 s           0.002 s
  | Fock matrix evaluation                      :        0.010 s           0.010 s
  | Solution of K.-S. eqns.                     :        0.001 s           0.001 s
  | Total energy evaluation                     :        0.000 s           0.000 s

  Partial memory accounting:
  | Current value for overall tracked memory usage:
  |   Minimum:        1.827 MB (on task  2)
  |   Maximum:        2.129 MB (on task 21)
  |   Average:        1.953 MB
  | Peak value for overall tracked memory usage:
  |   Minimum:        2.354 MB (on task  2 after allocating wave)
  |   Maximum:        3.978 MB (on task  0 after allocating wave)
  |   Average:        2.574 MB
  | Largest tracked array allocation so far:
  |   Minimum:        1.383 MB (ovlp3fn2%dat on task  2)
  |   Maximum:        1.621 MB (ovlp3fn2%dat on task  0)
  |   Average:        1.491 MB
  Note:  These values currently only include a subset of arrays which are explicitly tracked.
  The "true" memory usage will be greater.
------------------------------------------------------------

------------------------------------------------------------
          Begin self-consistency iteration #   12

  Date     :  20260724, Time     :  094001.213
------------------------------------------------------------
  Pulay mixing of updated and previous charge densities.
  Available memory per node after mixing [GB]:    984.79
  Renormalizing the density to the exact electron count on the 3D integration grid.
  | Formal number of electrons (from input files) :      28.0000000000
  | Integrated number of electrons on 3D grid     :      28.0000000000
  | Charge integration error                      :       0.0000000000
  | Normalization factor for density and gradient :       1.0000000000

  Evaluating partitioned Hartree potential by multipole expansion.
  | Original multipole sum: apparent total charge =  -0.708415E-14
  | Sum of charges compensated after spline to logarithmic grids =   0.847160E-06
  | Analytical far-field extrapolation by fixed multipoles:
  | Hartree multipole sum: apparent total charge =  -0.698576E-14
  Summing up the Hartree potential.
  Time summed over all CPUs for potential: real work        0.001 s, elapsed        0.002 s
  | RMS charge density error from multipole expansion :   0.261211E-02

  Integrating Hamiltonian matrix: batch-based integration.
  Time summed over all CPUs for integration: real work        0.096 s, elapsed        0.106 s
  Calculating non-local Hartree-Fock exchange by two-center RI (RI-LVL).
  screening_threshold (crit_val) =  0.000000100000
  Exact exchange progress report - outermost block loop i_block: 1 ..       3
  |        1         2         3 Total ovlp3fn data transfer [GB]   8.0878398148342967E-004
  Average sparsity of tmp1/2 0.50000000
  Average sparsity of fock_matrix_row 0.02000000
  Full exact exchange energy: weighted long- and short-range EXX    269.084538437124 eV.
  Times            DM_x_o3fn   CM_prod_1   CM_prod_2   tmp2_prod        Sync   Imbalance       Other  Total calc
  | Times    0:        0.000       0.001       0.000       0.000       0.000       0.000       0.007       0.009
  | Times    1:        0.000       0.001       0.000       0.000       0.000       0.001       0.007       0.009
  | Times    2:        0.000       0.001       0.001       0.000       0.000       0.000       0.007       0.009
  | Times    3:        0.000       0.001       0.000       0.000       0.000       0.000       0.007       0.009
  | Times    4:        0.000       0.001       0.000       0.000       0.000       0.000       0.007       0.009
  | Times    5:        0.000       0.001       0.000       0.000       0.000       0.000       0.007       0.009
  | Times    6:        0.000       0.001       0.001       0.000       0.000       0.000       0.007       0.010
  | Times    7:        0.000       0.001       0.000       0.000       0.000       0.001       0.007       0.009
  | Times    8:        0.000       0.001       0.000       0.000       0.000       0.000       0.007       0.009
  | Times    9:        0.000       0.001       0.000       0.000       0.000       0.000       0.007       0.009
  | Times   10:        0.000       0.001       0.001       0.000       0.000       0.000       0.007       0.009
  | Times   11:        0.000       0.001       0.000       0.000       0.000       0.001       0.007       0.009
  | Times   12:        0.000       0.000       0.000       0.000       0.000       0.000       0.008       0.009
  | Times   13:        0.000       0.001       0.000       0.000       0.000       0.000       0.008       0.009
  | Times   14:        0.000       0.000       0.000       0.000       0.000       0.000       0.008       0.009
  | Times   15:        0.000       0.000       0.000       0.000       0.000       0.001       0.008       0.009
  | Times   16:        0.000       0.001       0.000       0.000       0.000       0.000       0.007       0.009
  | Times   17:        0.000       0.001       0.000       0.000       0.000       0.000       0.007       0.009
  | Times   18:        0.000       0.001       0.001       0.000       0.000       0.000       0.007       0.009
  | Times   19:        0.000       0.001       0.000       0.000       0.000       0.000       0.007       0.009
  | Times   20:        0.000       0.001       0.000       0.000       0.000       0.000       0.007       0.009
  | Times   21:        0.000       0.001       0.000       0.000       0.000       0.001       0.007       0.009
  | Times   22:        0.000       0.001       0.001       0.000       0.000       0.000       0.007       0.009
  | Times   23:        0.000       0.001       0.000       0.000       0.000       0.001       0.007       0.009
  | Times   24:        0.000       0.001       0.000       0.000       0.000       0.000       0.008       0.009
  | Times   25:        0.000       0.001       0.000       0.000       0.000       0.001       0.007       0.009
  | Times   26:        0.000       0.001       0.001       0.000       0.000       0.000       0.007       0.009
  | Times   27:        0.000       0.001       0.000       0.000       0.000       0.001       0.007       0.009
  | Times   28:        0.000       0.001       0.000       0.000       0.000       0.001       0.007       0.009
  | Times   29:        0.000       0.001       0.000       0.000       0.000       0.001       0.007       0.009
  | Times   30:        0.000       0.001       0.001       0.000       0.000       0.000       0.007       0.009
  | Times   31:        0.000       0.001       0.000       0.000       0.000       0.001       0.007       0.009
  | Times   32:        0.000       0.001       0.000       0.000       0.000       0.001       0.007       0.009
  | Times   33:        0.000       0.001       0.000       0.000       0.000       0.001       0.007       0.009
  | Times   34:        0.000       0.001       0.000       0.000       0.000       0.000       0.007       0.009
  | Times   35:        0.000       0.001       0.000       0.000       0.000       0.001       0.007       0.009
  | Times   36:        0.000       0.001       0.000       0.000       0.000       0.001       0.007       0.009
  | Times   37:        0.000       0.000       0.000       0.000       0.000       0.000       0.007       0.009
  | Times   38:        0.000       0.001       0.000       0.000       0.000       0.000       0.007       0.009
  | Times   39:        0.000       0.001       0.000       0.000       0.000       0.000       0.007       0.009
  | Times   40:        0.000       0.001       0.000       0.000       0.000       0.001       0.007       0.009
  | Times   41:        0.000       0.001       0.000       0.000       0.000       0.000       0.007       0.009
  | Times   42:        0.000       0.001       0.000       0.000       0.000       0.000       0.007       0.009
  | Times   43:        0.000       0.001       0.000       0.000       0.000       0.000       0.007       0.009
  | Times   44:        0.000       0.001       0.000       0.000       0.000       0.001       0.007       0.009
  | Times   45:        0.000       0.001       0.000       0.000       0.000       0.000       0.007       0.009
  | Times   46:        0.000       0.001       0.000       0.000       0.000       0.000       0.007       0.009
  | Times   47:        0.000       0.001       0.000       0.000       0.000       0.000       0.007       0.009
  | Times   48:        0.000       0.001       0.000       0.000       0.000       0.001       0.007       0.009
  | Times   49:        0.000       0.001       0.001       0.000       0.000       0.000       0.007       0.009
  | Times   50:        0.000       0.001       0.000       0.000       0.000       0.000       0.007       0.009
  | Times   51:        0.000       0.001       0.001       0.000       0.000       0.000       0.007       0.009
  | Times   52:        0.000       0.001       0.000       0.000       0.000       0.001       0.007       0.009
  | Times   53:        0.000       0.000       0.000       0.000       0.000       0.000       0.007       0.009
  | Times   54:        0.000       0.001       0.000       0.000       0.000       0.000       0.008       0.009
  | Times   55:        0.000       0.001       0.000       0.000       0.000       0.000       0.008       0.009
  | Times   56:        0.000       0.001       0.000       0.000       0.000       0.001       0.007       0.009
  | Times   57:        0.000       0.001       0.001       0.000       0.000       0.000       0.007       0.009
  | Times   58:        0.000       0.001       0.000       0.000       0.000       0.000       0.007       0.009
  | Times   59:        0.000       0.001       0.001       0.000       0.000       0.000       0.007       0.009
  | Times   60:        0.000       0.001       0.000       0.000       0.000       0.001       0.007       0.009
  | Times   61:        0.000       0.000       0.000       0.000       0.000       0.000       0.008       0.009
  | Times   62:        0.000       0.001       0.000       0.000       0.000       0.000       0.008       0.009
  | Times   63:        0.000       0.001       0.000       0.000       0.000       0.000       0.008       0.009
  | Times  sum:        0.015       0.041       0.016       0.016       0.020       0.031       0.464       0.602

  Decomposition of Other based on code block (only on MPI task 0):
  Times             Block #1    Block #2    Block #3    Block #4    Block #5    Block #6    Block #7    Block #8
  | Times    0:        0.000       0.000       0.000       0.000       0.000       0.000       0.000       0.000

  Times             Block #9   Block #10   Block #11   Block #12   Block #13   Block #14   Block #15   Block #16
  | Times    0:        0.000       0.000       0.000       0.002       0.000       0.004       0.000       0.000

  Times            Block Sum    Expected
  | Times    0:        0.007       0.007
  Time for Fock matrix mixing     0.000

  Updating Kohn-Sham eigenvalues and eigenvectors using ELSI and the ELPA eigensolver.
  Starting ELPA eigensolver
  Finished transformation to standard eigenproblem
  | Time :     0.000 s
  Finished solving standard eigenproblem
  | Time :     0.001 s
  Finished back-transformation of eigenvectors
  | Time :     0.000 s

  Obtaining occupation numbers and electronic chemical potential using ELSI.
  | Note that, for insulating systems, the printed 'chemical potential' value is not uniquely defined.
  | It can be anywhere in the energy gap, as long as it correctly separates occupied and unoccupied states.
  | In systems with a gap, the physically relevant chemical potential is the VBM or HOMO.

  | Chemical potential (Fermi level):    -5.41227295 eV
  Highest occupied state (VBM) at     -8.32607845 eV
  | Occupation number:      2.00000000

  Lowest unoccupied state (CBM) at    -2.49846745 eV
  | Occupation number:      0.00000000

  Overall HOMO-LUMO gap:      5.82761101 eV.

  Total energy components:
  | Sum of eigenvalues            :        -340.02682337 Ha       -9252.60063111 eV
  | XC energy correction          :         -22.32297723 Ha        -607.43911655 eV
  | XC potential correction       :          44.10820141 Ha        1200.24522821 eV
  | Free-atom electrostatic energy:        -265.56026682 Ha       -7226.26252847 eV
  | Hartree energy correction     :          -1.95136440 Ha         -53.09932707 eV
  | Entropy correction            :          -0.00000000 Ha          -0.00000000 eV
  | ---------------------------
  | Total energy                  :        -585.75323042 Ha      -15939.15637500 eV
  | Total energy, T -> 0          :        -585.75323042 Ha      -15939.15637500 eV  <-- do not rely on this value for anything but (periodic) metals
  | Electronic free energy        :        -585.75323042 Ha      -15939.15637500 eV

  Derived energy quantities:
  | Kinetic energy                :         587.82184014 Ha       15995.44610966 eV
  | Electrostatic energy          :       -1131.47440617 Ha      -30788.98511833 eV
  | Energy correction for multipole
  | error in Hartree potential    :          -0.00027594 Ha          -0.00750863 eV
  | Sum of eigenvalues per atom                           :       -4626.30031556 eV
  | Total energy (T->0) per atom                          :       -7969.57818750 eV  <-- do not rely on this value for anything but (periodic) metals
  | Electronic free energy per atom                       :       -7969.57818750 eV
  Evaluating new KS density.
  Integration grid: deviation in total charge (<rho> - N_e) =  -7.105427E-15

  Self-consistency convergence accuracy:
  | Change of charge density      :  0.8561E-03
  | Change of unmixed KS density  :  0.1489E-02
  | Change of sum of eigenvalues  : -0.1358E+00 eV
  | Change of total energy        : -0.1187E-01 eV


------------------------------------------------------------
  End self-consistency iteration #    12       :  max(cpu_time)    wall_clock(cpu1)
  | Time for this iteration                     :        0.271 s           0.223 s
  | Charge density update                       :        0.001 s           0.002 s
  | Density mixing                              :        0.256 s           0.205 s
  | Hartree multipole update                    :        0.001 s           0.001 s
  | Hartree multipole summation                 :        0.002 s           0.002 s
  | Integration                                 :        0.002 s           0.002 s
  | Fock matrix evaluation                      :        0.010 s           0.010 s
  | Solution of K.-S. eqns.                     :        0.001 s           0.001 s
  | Total energy evaluation                     :        0.000 s           0.000 s

  Partial memory accounting:
  | Current value for overall tracked memory usage:
  |   Minimum:        1.827 MB (on task  2)
  |   Maximum:        2.129 MB (on task 21)
  |   Average:        1.953 MB
  | Peak value for overall tracked memory usage:
  |   Minimum:        2.354 MB (on task  2 after allocating wave)
  |   Maximum:        3.978 MB (on task  0 after allocating wave)
  |   Average:        2.574 MB
  | Largest tracked array allocation so far:
  |   Minimum:        1.383 MB (ovlp3fn2%dat on task  2)
  |   Maximum:        1.621 MB (ovlp3fn2%dat on task  0)
  |   Average:        1.491 MB
  Note:  These values currently only include a subset of arrays which are explicitly tracked.
  The "true" memory usage will be greater.
------------------------------------------------------------

------------------------------------------------------------
          Begin self-consistency iteration #   13

  Date     :  20260724, Time     :  094001.449
------------------------------------------------------------
  Pulay mixing of updated and previous charge densities.
  Available memory per node after mixing [GB]:    984.79
  Renormalizing the density to the exact electron count on the 3D integration grid.
  | Formal number of electrons (from input files) :      28.0000000000
  | Integrated number of electrons on 3D grid     :      28.0000000000
  | Charge integration error                      :      -0.0000000000
  | Normalization factor for density and gradient :       1.0000000000

  Evaluating partitioned Hartree potential by multipole expansion.
  | Original multipole sum: apparent total charge =  -0.124957E-13
  | Sum of charges compensated after spline to logarithmic grids =   0.848073E-06
  | Analytical far-field extrapolation by fixed multipoles:
  | Hartree multipole sum: apparent total charge =  -0.129876E-13
  Summing up the Hartree potential.
  Time summed over all CPUs for potential: real work        0.001 s, elapsed        0.002 s
  | RMS charge density error from multipole expansion :   0.261415E-02

  Integrating Hamiltonian matrix: batch-based integration.
  Time summed over all CPUs for integration: real work        0.096 s, elapsed        0.120 s
  Calculating non-local Hartree-Fock exchange by two-center RI (RI-LVL).
  screening_threshold (crit_val) =  0.000000100000
  Exact exchange progress report - outermost block loop i_block: 1 ..       3
  |        1         2         3 Total ovlp3fn data transfer [GB]   8.0878398148342967E-004
  Average sparsity of tmp1/2 0.50000000
  Average sparsity of fock_matrix_row 0.02000000
  Full exact exchange energy: weighted long- and short-range EXX    269.089577525926 eV.
  Times            DM_x_o3fn   CM_prod_1   CM_prod_2   tmp2_prod        Sync   Imbalance       Other  Total calc
  | Times    0:        0.000       0.001       0.000       0.000       0.000       0.000       0.010       0.012
  | Times    1:        0.000       0.001       0.000       0.000       0.000       0.001       0.010       0.012
  | Times    2:        0.000       0.001       0.001       0.000       0.000       0.000       0.010       0.012
  | Times    3:        0.000       0.001       0.000       0.000       0.000       0.001       0.010       0.012
  | Times    4:        0.000       0.001       0.000       0.000       0.000       0.000       0.010       0.012
  | Times    5:        0.000       0.001       0.000       0.000       0.000       0.001       0.010       0.012
  | Times    6:        0.000       0.001       0.001       0.000       0.000       0.000       0.011       0.013
  | Times    7:        0.000       0.001       0.000       0.000       0.000       0.001       0.010       0.012
  | Times    8:        0.000       0.001       0.000       0.000       0.000       0.000       0.010       0.012
  | Times    9:        0.000       0.001       0.000       0.000       0.000       0.001       0.010       0.012
  | Times   10:        0.000       0.001       0.001       0.000       0.000       0.000       0.010       0.012
  | Times   11:        0.000       0.001       0.000       0.000       0.000       0.001       0.010       0.012
  | Times   12:        0.000       0.000       0.000       0.000       0.000       0.000       0.011       0.012
  | Times   13:        0.000       0.001       0.000       0.000       0.000       0.000       0.011       0.012
  | Times   14:        0.000       0.000       0.000       0.000       0.000       0.000       0.011       0.012
  | Times   15:        0.000       0.000       0.000       0.000       0.000       0.001       0.011       0.012
  | Times   16:        0.000       0.001       0.000       0.000       0.000       0.000       0.010       0.012
  | Times   17:        0.000       0.001       0.000       0.000       0.000       0.001       0.010       0.012
  | Times   18:        0.000       0.001       0.001       0.000       0.000       0.000       0.010       0.012
  | Times   19:        0.000       0.001       0.000       0.000       0.000       0.001       0.010       0.012
  | Times   20:        0.000       0.001       0.000       0.000       0.000       0.000       0.010       0.012
  | Times   21:        0.000       0.001       0.000       0.000       0.000       0.001       0.010       0.012
  | Times   22:        0.000       0.001       0.001       0.000       0.000       0.000       0.010       0.012
  | Times   23:        0.000       0.001       0.000       0.000       0.000       0.001       0.010       0.012
  | Times   24:        0.000       0.001       0.000       0.000       0.000       0.000       0.011       0.012
  | Times   25:        0.000       0.001       0.000       0.000       0.000       0.001       0.011       0.012
  | Times   26:        0.000       0.001       0.001       0.000       0.000       0.000       0.010       0.012
  | Times   27:        0.000       0.001       0.000       0.000       0.000       0.001       0.010       0.012
  | Times   28:        0.000       0.001       0.000       0.000       0.000       0.001       0.010       0.012
  | Times   29:        0.000       0.001       0.000       0.000       0.000       0.001       0.010       0.012
  | Times   30:        0.000       0.001       0.001       0.000       0.000       0.000       0.010       0.012
  | Times   31:        0.000       0.001       0.000       0.000       0.000       0.001       0.010       0.012
  | Times   32:        0.000       0.001       0.000       0.000       0.000       0.001       0.011       0.012
  | Times   33:        0.000       0.001       0.000       0.000       0.000       0.001       0.011       0.012
  | Times   34:        0.000       0.001       0.000       0.000       0.000       0.000       0.010       0.012
  | Times   35:        0.000       0.001       0.000       0.000       0.000       0.001       0.010       0.012
  | Times   36:        0.000       0.001       0.000       0.000       0.000       0.001       0.010       0.012
  | Times   37:        0.000       0.001       0.001       0.000       0.000       0.000       0.010       0.012
  | Times   38:        0.000       0.001       0.000       0.000       0.000       0.000       0.010       0.012
  | Times   39:        0.000       0.001       0.001       0.000       0.000       0.000       0.010       0.012
  | Times   40:        0.000       0.001       0.000       0.000       0.000       0.001       0.010       0.012
  | Times   41:        0.000       0.001       0.000       0.000       0.000       0.000       0.010       0.012
  | Times   42:        0.000       0.001       0.000       0.000       0.000       0.000       0.010       0.012
  | Times   43:        0.000       0.001       0.000       0.000       0.000       0.000       0.010       0.012
  | Times   44:        0.000       0.001       0.000       0.000       0.000       0.001       0.010       0.012
  | Times   45:        0.000       0.000       0.000       0.000       0.000       0.000       0.010       0.012
  | Times   46:        0.000       0.001       0.000       0.000       0.000       0.000       0.010       0.012
  | Times   47:        0.000       0.001       0.000       0.000       0.000       0.000       0.010       0.012
  | Times   48:        0.000       0.001       0.000       0.000       0.000       0.001       0.010       0.012
  | Times   49:        0.000       0.001       0.001       0.000       0.000       0.000       0.010       0.012
  | Times   50:        0.000       0.001       0.000       0.000       0.000       0.001       0.010       0.012
  | Times   51:        0.000       0.001       0.001       0.000       0.000       0.000       0.010       0.012
  | Times   52:        0.000       0.001       0.000       0.000       0.000       0.001       0.010       0.012
  | Times   53:        0.000       0.001       0.000       0.000       0.000       0.000       0.011       0.012
  | Times   54:        0.000       0.001       0.000       0.000       0.000       0.000       0.011       0.012
  | Times   55:        0.000       0.001       0.000       0.000       0.000       0.000       0.011       0.012
  | Times   56:        0.000       0.001       0.000       0.000       0.000       0.001       0.010       0.012
  | Times   57:        0.000       0.001       0.001       0.000       0.000       0.000       0.010       0.012
  | Times   58:        0.000       0.001       0.000       0.000       0.000       0.001       0.010       0.012
  | Times   59:        0.000       0.001       0.001       0.000       0.000       0.000       0.010       0.012
  | Times   60:        0.000       0.001       0.000       0.000       0.000       0.001       0.010       0.012
  | Times   61:        0.000       0.001       0.000       0.000       0.000       0.000       0.010       0.012
  | Times   62:        0.000       0.001       0.000       0.000       0.000       0.000       0.011       0.012
  | Times   63:        0.000       0.001       0.000       0.000       0.000       0.000       0.011       0.012
  | Times  sum:        0.015       0.039       0.015       0.016       0.019       0.033       0.656       0.794

  Decomposition of Other based on code block (only on MPI task 0):
  Times             Block #1    Block #2    Block #3    Block #4    Block #5    Block #6    Block #7    Block #8
  | Times    0:        0.000       0.000       0.000       0.000       0.000       0.000       0.000       0.000

  Times             Block #9   Block #10   Block #11   Block #12   Block #13   Block #14   Block #15   Block #16
  | Times    0:        0.000       0.000       0.000       0.004       0.000       0.005       0.000       0.000

  Times            Block Sum    Expected
  | Times    0:        0.010       0.010
  Time for Fock matrix mixing     0.000

  Updating Kohn-Sham eigenvalues and eigenvectors using ELSI and the ELPA eigensolver.
  Starting ELPA eigensolver
  Finished transformation to standard eigenproblem
  | Time :     0.000 s
  Finished solving standard eigenproblem
  | Time :     0.001 s
  Finished back-transformation of eigenvectors
  | Time :     0.000 s

  Obtaining occupation numbers and electronic chemical potential using ELSI.
  | Note that, for insulating systems, the printed 'chemical potential' value is not uniquely defined.
  | It can be anywhere in the energy gap, as long as it correctly separates occupied and unoccupied states.
  | In systems with a gap, the physically relevant chemical potential is the VBM or HOMO.

  | Chemical potential (Fermi level):    -5.41041797 eV
  Highest occupied state (VBM) at     -8.32209500 eV
  | Occupation number:      2.00000000

  Lowest unoccupied state (CBM) at    -2.49874094 eV
  | Occupation number:      0.00000000

  Overall HOMO-LUMO gap:      5.82335407 eV.

  Total energy components:
  | Sum of eigenvalues            :        -340.02332704 Ha       -9252.50549106 eV
  | XC energy correction          :         -22.32309894 Ha        -607.44242859 eV
  | XC potential correction       :          44.10840394 Ha        1200.25073940 eV
  | Free-atom electrostatic energy:        -265.56026682 Ha       -7226.26252847 eV
  | Hartree energy correction     :          -1.95500964 Ha         -53.19851901 eV
  | Entropy correction            :          -0.00000000 Ha          -0.00000000 eV
  | ---------------------------
  | Total energy                  :        -585.75329850 Ha      -15939.15822774 eV
  | Total energy, T -> 0          :        -585.75329850 Ha      -15939.15822774 eV  <-- do not rely on this value for anything but (periodic) metals
  | Electronic free energy        :        -585.75329850 Ha      -15939.15822774 eV

  Derived energy quantities:
  | Kinetic energy                :         587.82215457 Ha       15995.45466567 eV
  | Electrostatic energy          :       -1131.47463526 Ha      -30788.99135219 eV
  | Energy correction for multipole
  | error in Hartree potential    :          -0.00027902 Ha          -0.00759266 eV
  | Sum of eigenvalues per atom                           :       -4626.25274553 eV
  | Total energy (T->0) per atom                          :       -7969.57911387 eV  <-- do not rely on this value for anything but (periodic) metals
  | Electronic free energy per atom                       :       -7969.57911387 eV
  Evaluating new KS density.
  Integration grid: deviation in total charge (<rho> - N_e) =   7.105427E-15

  Self-consistency convergence accuracy:
  | Change of charge density      :  0.3157E-03
  | Change of unmixed KS density  :  0.1022E-02
  | Change of sum of eigenvalues  :  0.9514E-01 eV
  | Change of total energy        : -0.1853E-02 eV


------------------------------------------------------------
  End self-consistency iteration #    13       :  max(cpu_time)    wall_clock(cpu1)
  | Time for this iteration                     :        0.274 s           0.275 s
  | Charge density update                       :        0.001 s           0.001 s
  | Density mixing                              :        0.254 s           0.253 s
  | Hartree multipole update                    :        0.001 s           0.001 s
  | Hartree multipole summation                 :        0.002 s           0.002 s
  | Integration                                 :        0.002 s           0.002 s
  | Fock matrix evaluation                      :        0.013 s           0.014 s
  | Solution of K.-S. eqns.                     :        0.001 s           0.001 s
  | Total energy evaluation                     :        0.000 s           0.000 s

  Partial memory accounting:
  | Current value for overall tracked memory usage:
  |   Minimum:        1.827 MB (on task  2)
  |   Maximum:        2.129 MB (on task 21)
  |   Average:        1.953 MB
  | Peak value for overall tracked memory usage:
  |   Minimum:        2.354 MB (on task  2 after allocating wave)
  |   Maximum:        3.978 MB (on task  0 after allocating wave)
  |   Average:        2.574 MB
  | Largest tracked array allocation so far:
  |   Minimum:        1.383 MB (ovlp3fn2%dat on task  2)
  |   Maximum:        1.621 MB (ovlp3fn2%dat on task  0)
  |   Average:        1.491 MB
  Note:  These values currently only include a subset of arrays which are explicitly tracked.
  The "true" memory usage will be greater.
------------------------------------------------------------

------------------------------------------------------------
          Begin self-consistency iteration #   14

  Date     :  20260724, Time     :  094001.763
------------------------------------------------------------
  Pulay mixing of updated and previous charge densities.
  Available memory per node after mixing [GB]:    984.78
  Renormalizing the density to the exact electron count on the 3D integration grid.
  | Formal number of electrons (from input files) :      28.0000000000
  | Integrated number of electrons on 3D grid     :      28.0000000000
  | Charge integration error                      :       0.0000000000
  | Normalization factor for density and gradient :       1.0000000000

  Evaluating partitioned Hartree potential by multipole expansion.
  | Original multipole sum: apparent total charge =   0.408322E-14
  | Sum of charges compensated after spline to logarithmic grids =   0.848845E-06
  | Analytical far-field extrapolation by fixed multipoles:
  | Hartree multipole sum: apparent total charge =   0.418162E-14
  Summing up the Hartree potential.
  Time summed over all CPUs for potential: real work        0.001 s, elapsed        0.002 s
  | RMS charge density error from multipole expansion :   0.261242E-02

  Integrating Hamiltonian matrix: batch-based integration.
  Time summed over all CPUs for integration: real work        0.097 s, elapsed        0.108 s
  Calculating non-local Hartree-Fock exchange by two-center RI (RI-LVL).
  screening_threshold (crit_val) =  0.000000100000
  Exact exchange progress report - outermost block loop i_block: 1 ..       3
  |        1         2         3 Total ovlp3fn data transfer [GB]   8.0878398148342967E-004
  Average sparsity of tmp1/2 0.50000000
  Average sparsity of fock_matrix_row 0.02000000
  Full exact exchange energy: weighted long- and short-range EXX    269.088154186880 eV.
  Times            DM_x_o3fn   CM_prod_1   CM_prod_2   tmp2_prod        Sync   Imbalance       Other  Total calc
  | Times    0:        0.000       0.001       0.000       0.000       0.000       0.000       0.007       0.009
  | Times    1:        0.000       0.001       0.000       0.000       0.000       0.000       0.007       0.009
  | Times    2:        0.000       0.001       0.001       0.000       0.000       0.000       0.006       0.009
  | Times    3:        0.000       0.001       0.000       0.000       0.000       0.000       0.007       0.009
  | Times    4:        0.000       0.001       0.000       0.000       0.000       0.000       0.007       0.009
  | Times    5:        0.000       0.001       0.000       0.000       0.000       0.000       0.007       0.009
  | Times    6:        0.000       0.001       0.001       0.000       0.000       0.000       0.007       0.009
  | Times    7:        0.000       0.001       0.000       0.000       0.000       0.001       0.007       0.009
  | Times    8:        0.000       0.001       0.000       0.000       0.000       0.000       0.007       0.009
  | Times    9:        0.000       0.001       0.000       0.000       0.000       0.000       0.007       0.009
  | Times   10:        0.000       0.001       0.001       0.000       0.000       0.000       0.007       0.009
  | Times   11:        0.000       0.001       0.000       0.000       0.000       0.001       0.007       0.009
  | Times   12:        0.000       0.001       0.000       0.000       0.000       0.000       0.007       0.009
  | Times   13:        0.000       0.001       0.000       0.000       0.000       0.001       0.007       0.009
  | Times   14:        0.000       0.001       0.001       0.000       0.000       0.000       0.007       0.009
  | Times   15:        0.000       0.001       0.000       0.000       0.000       0.001       0.007       0.009
  | Times   16:        0.000       0.000       0.000       0.000       0.000       0.000       0.007       0.009
  | Times   17:        0.000       0.000       0.000       0.000       0.000       0.001       0.007       0.009
  | Times   18:        0.000       0.000       0.000       0.000       0.000       0.000       0.007       0.009
  | Times   19:        0.000       0.000       0.000       0.000       0.000       0.001       0.007       0.009
  | Times   20:        0.000       0.001       0.000       0.000       0.000       0.000       0.007       0.009
  | Times   21:        0.000       0.001       0.000       0.000       0.000       0.001       0.007       0.009
  | Times   22:        0.000       0.001       0.001       0.000       0.000       0.000       0.007       0.009
  | Times   23:        0.000       0.001       0.000       0.000       0.000       0.001       0.007       0.009
  | Times   24:        0.000       0.001       0.001       0.000       0.000       0.001       0.007       0.009
  | Times   25:        0.000       0.001       0.000       0.000       0.000       0.001       0.007       0.009
  | Times   26:        0.000       0.001       0.001       0.000       0.000       0.000       0.006       0.009
  | Times   27:        0.000       0.001       0.000       0.000       0.000       0.001       0.006       0.009
  | Times   28:        0.000       0.000       0.000       0.000       0.000       0.000       0.007       0.009
  | Times   29:        0.000       0.001       0.000       0.000       0.000       0.000       0.007       0.009
  | Times   30:        0.000       0.000       0.000       0.000       0.000       0.000       0.007       0.009
  | Times   31:        0.000       0.000       0.000       0.000       0.000       0.001       0.007       0.009
  | Times   32:        0.000       0.001       0.000       0.000       0.000       0.001       0.007       0.009
  | Times   33:        0.000       0.001       0.000       0.000       0.000       0.001       0.007       0.009
  | Times   34:        0.000       0.001       0.000       0.000       0.000       0.000       0.007       0.009
  | Times   35:        0.000       0.001       0.000       0.000       0.000       0.001       0.007       0.009
  | Times   36:        0.000       0.001       0.000       0.000       0.000       0.001       0.007       0.009
  | Times   37:        0.000       0.001       0.000       0.000       0.000       0.000       0.007       0.009
  | Times   38:        0.000       0.001       0.000       0.000       0.000       0.000       0.007       0.009
  | Times   39:        0.000       0.001       0.000       0.000       0.000       0.000       0.007       0.009
  | Times   40:        0.000       0.001       0.000       0.000       0.000       0.001       0.007       0.009
  | Times   41:        0.000       0.000       0.000       0.000       0.000       0.000       0.007       0.009
  | Times   42:        0.000       0.001       0.000       0.000       0.000       0.000       0.007       0.009
  | Times   43:        0.000       0.001       0.000       0.000       0.000       0.000       0.007       0.009
  | Times   44:        0.000       0.001       0.000       0.000       0.000       0.001       0.006       0.009
  | Times   45:        0.000       0.001       0.001       0.000       0.000       0.000       0.006       0.009
  | Times   46:        0.000       0.001       0.000       0.000       0.000       0.001       0.007       0.009
  | Times   47:        0.000       0.001       0.001       0.000       0.000       0.000       0.006       0.009
  | Times   48:        0.000       0.001       0.000       0.000       0.000       0.001       0.007       0.009
  | Times   49:        0.000       0.001       0.000       0.000       0.000       0.000       0.007       0.009
  | Times   50:        0.000       0.001       0.000       0.000       0.000       0.000       0.007       0.009
  | Times   51:        0.000       0.001       0.000       0.000       0.000       0.000       0.007       0.009
  | Times   52:        0.000       0.001       0.000       0.000       0.000       0.001       0.006       0.009
  | Times   53:        0.000       0.001       0.001       0.000       0.000       0.000       0.007       0.009
  | Times   54:        0.000       0.001       0.000       0.000       0.000       0.001       0.007       0.009
  | Times   55:        0.000       0.001       0.001       0.000       0.000       0.000       0.007       0.009
  | Times   56:        0.000       0.001       0.000       0.000       0.000       0.001       0.007       0.009
  | Times   57:        0.000       0.001       0.000       0.000       0.000       0.000       0.007       0.009
  | Times   58:        0.000       0.001       0.000       0.000       0.000       0.000       0.007       0.009
  | Times   59:        0.000       0.001       0.000       0.000       0.000       0.000       0.007       0.009
  | Times   60:        0.000       0.001       0.000       0.000       0.000       0.001       0.007       0.009
  | Times   61:        0.000       0.001       0.000       0.000       0.000       0.000       0.007       0.009
  | Times   62:        0.000       0.001       0.000       0.000       0.000       0.000       0.007       0.009
  | Times   63:        0.000       0.001       0.000       0.000       0.000       0.000       0.007       0.009
  | Times  sum:        0.016       0.041       0.016       0.016       0.019       0.032       0.438       0.576

  Decomposition of Other based on code block (only on MPI task 0):
  Times             Block #1    Block #2    Block #3    Block #4    Block #5    Block #6    Block #7    Block #8
  | Times    0:        0.000       0.000       0.000       0.000       0.000       0.000       0.000       0.000

  Times             Block #9   Block #10   Block #11   Block #12   Block #13   Block #14   Block #15   Block #16
  | Times    0:        0.000       0.000       0.000       0.001       0.000       0.005       0.000       0.000

  Times            Block Sum    Expected
  | Times    0:        0.006       0.007
  Time for Fock matrix mixing     0.000

  Updating Kohn-Sham eigenvalues and eigenvectors using ELSI and the ELPA eigensolver.
  Starting ELPA eigensolver
  Finished transformation to standard eigenproblem
  | Time :     0.001 s
  Finished solving standard eigenproblem
  | Time :     0.000 s
  Finished back-transformation of eigenvectors
  | Time :     0.000 s

  Obtaining occupation numbers and electronic chemical potential using ELSI.
  | Note that, for insulating systems, the printed 'chemical potential' value is not uniquely defined.
  | It can be anywhere in the energy gap, as long as it correctly separates occupied and unoccupied states.
  | In systems with a gap, the physically relevant chemical potential is the VBM or HOMO.

  | Chemical potential (Fermi level):    -5.41095313 eV
  Highest occupied state (VBM) at     -8.32391043 eV
  | Occupation number:      2.00000000

  Lowest unoccupied state (CBM) at    -2.49799583 eV
  | Occupation number:      0.00000000

  Overall HOMO-LUMO gap:      5.82591460 eV.

  Total energy components:
  | Sum of eigenvalues            :        -340.02516001 Ha       -9252.55536862 eV
  | XC energy correction          :         -22.32304057 Ha        -607.44084006 eV
  | XC potential correction       :          44.10829298 Ha        1200.24771981 eV
  | Free-atom electrostatic energy:        -265.56026682 Ha       -7226.26252847 eV
  | Hartree energy correction     :          -1.95309824 Ha         -53.14650708 eV
  | Entropy correction            :          -0.00000000 Ha          -0.00000000 eV
  | ---------------------------
  | Total energy                  :        -585.75327266 Ha      -15939.15752442 eV
  | Total energy, T -> 0          :        -585.75327266 Ha      -15939.15752442 eV  <-- do not rely on this value for anything but (periodic) metals
  | Electronic free energy        :        -585.75327266 Ha      -15939.15752442 eV

  Derived energy quantities:
  | Kinetic energy                :         587.82213909 Ha       15995.45424452 eV
  | Electrostatic energy          :       -1131.47469322 Ha      -30788.99292926 eV
  | Energy correction for multipole
  | error in Hartree potential    :          -0.00027887 Ha          -0.00758837 eV
  | Sum of eigenvalues per atom                           :       -4626.27768431 eV
  | Total energy (T->0) per atom                          :       -7969.57876221 eV  <-- do not rely on this value for anything but (periodic) metals
  | Electronic free energy per atom                       :       -7969.57876221 eV
  Evaluating new KS density.
  Integration grid: deviation in total charge (<rho> - N_e) =   1.776357E-14

  Self-consistency convergence accuracy:
  | Change of charge density      :  0.1119E-03
  | Change of unmixed KS density  :  0.1681E-03
  | Change of sum of eigenvalues  : -0.4988E-01 eV
  | Change of total energy        :  0.7033E-03 eV


------------------------------------------------------------
  End self-consistency iteration #    14       :  max(cpu_time)    wall_clock(cpu1)
  | Time for this iteration                     :        0.271 s           0.244 s
  | Charge density update                       :        0.001 s           0.001 s
  | Density mixing                              :        0.254 s           0.227 s
  | Hartree multipole update                    :        0.001 s           0.001 s
  | Hartree multipole summation                 :        0.002 s           0.002 s
  | Integration                                 :        0.002 s           0.001 s
  | Fock matrix evaluation                      :        0.010 s           0.010 s
  | Solution of K.-S. eqns.                     :        0.001 s           0.002 s
  | Total energy evaluation                     :        0.000 s           0.000 s

  Partial memory accounting:
  | Current value for overall tracked memory usage:
  |   Minimum:        1.827 MB (on task  2)
  |   Maximum:        2.129 MB (on task 21)
  |   Average:        1.953 MB
  | Peak value for overall tracked memory usage:
  |   Minimum:        2.354 MB (on task  2 after allocating wave)
  |   Maximum:        3.978 MB (on task  0 after allocating wave)
  |   Average:        2.574 MB
  | Largest tracked array allocation so far:
  |   Minimum:        1.383 MB (ovlp3fn2%dat on task  2)
  |   Maximum:        1.621 MB (ovlp3fn2%dat on task  0)
  |   Average:        1.491 MB
  Note:  These values currently only include a subset of arrays which are explicitly tracked.
  The "true" memory usage will be greater.
------------------------------------------------------------

------------------------------------------------------------
          Begin self-consistency iteration #   15

  Date     :  20260724, Time     :  094002.221
------------------------------------------------------------
  Pulay mixing of updated and previous charge densities.
  Available memory per node after mixing [GB]:    984.78
  Renormalizing the density to the exact electron count on the 3D integration grid.
  | Formal number of electrons (from input files) :      28.0000000000
  | Integrated number of electrons on 3D grid     :      28.0000000000
  | Charge integration error                      :      -0.0000000000
  | Normalization factor for density and gradient :       1.0000000000

  Evaluating partitioned Hartree potential by multipole expansion.
  | Original multipole sum: apparent total charge =  -0.585426E-14
  | Sum of charges compensated after spline to logarithmic grids =   0.848810E-06
  | Analytical far-field extrapolation by fixed multipoles:
  | Hartree multipole sum: apparent total charge =  -0.536231E-14
  Summing up the Hartree potential.
  Time summed over all CPUs for potential: real work        0.001 s, elapsed        0.001 s
  | RMS charge density error from multipole expansion :   0.261147E-02

  Integrating Hamiltonian matrix: batch-based integration.
  Time summed over all CPUs for integration: real work        0.096 s, elapsed        0.106 s
  Calculating non-local Hartree-Fock exchange by two-center RI (RI-LVL).
  screening_threshold (crit_val) =  0.000000100000
  Exact exchange progress report - outermost block loop i_block: 1 ..       3
  |        1         2         3 Total ovlp3fn data transfer [GB]   8.0878398148342967E-004
  Average sparsity of tmp1/2 0.50000000
  Average sparsity of fock_matrix_row 0.02000000
  Full exact exchange energy: weighted long- and short-range EXX    269.088306214548 eV.
  Times            DM_x_o3fn   CM_prod_1   CM_prod_2   tmp2_prod        Sync   Imbalance       Other  Total calc
  | Times    0:        0.000       0.001       0.000       0.000       0.000       0.000       0.007       0.009
  | Times    1:        0.000       0.001       0.000       0.000       0.000       0.001       0.006       0.009
  | Times    2:        0.000       0.001       0.001       0.000       0.000       0.000       0.006       0.009
  | Times    3:        0.000       0.001       0.000       0.000       0.000       0.001       0.006       0.009
  | Times    4:        0.000       0.001       0.000       0.000       0.000       0.000       0.007       0.009
  | Times    5:        0.000       0.001       0.000       0.000       0.000       0.001       0.006       0.009
  | Times    6:        0.000       0.001       0.001       0.000       0.000       0.000       0.007       0.009
  | Times    7:        0.000       0.001       0.000       0.000       0.000       0.001       0.006       0.009
  | Times    8:        0.000       0.001       0.000       0.000       0.000       0.000       0.007       0.009
  | Times    9:        0.000       0.001       0.000       0.000       0.000       0.001       0.006       0.009
  | Times   10:        0.000       0.001       0.001       0.000       0.000       0.000       0.006       0.009
  | Times   11:        0.000       0.001       0.000       0.000       0.000       0.001       0.006       0.009
  | Times   12:        0.000       0.000       0.000       0.000       0.000       0.000       0.007       0.009
  | Times   13:        0.000       0.000       0.000       0.000       0.000       0.001       0.007       0.009
  | Times   14:        0.000       0.001       0.000       0.000       0.000       0.000       0.007       0.009
  | Times   15:        0.000       0.000       0.000       0.000       0.000       0.001       0.007       0.009
  | Times   16:        0.000       0.001       0.000       0.000       0.000       0.000       0.007       0.009
  | Times   17:        0.000       0.001       0.000       0.000       0.000       0.001       0.007       0.009
  | Times   18:        0.000       0.001       0.001       0.000       0.000       0.000       0.006       0.009
  | Times   19:        0.000       0.001       0.000       0.000       0.000       0.001       0.007       0.009
  | Times   20:        0.000       0.001       0.000       0.000       0.000       0.000       0.007       0.009
  | Times   21:        0.000       0.001       0.000       0.000       0.000       0.001       0.007       0.009
  | Times   22:        0.000       0.001       0.001       0.000       0.000       0.000       0.006       0.009
  | Times   23:        0.000       0.001       0.000       0.000       0.000       0.001       0.006       0.009
  | Times   24:        0.000       0.001       0.001       0.000       0.000       0.001       0.006       0.009
  | Times   25:        0.000       0.001       0.000       0.000       0.000       0.001       0.006       0.009
  | Times   26:        0.000       0.001       0.001       0.000       0.000       0.000       0.006       0.009
  | Times   27:        0.000       0.001       0.000       0.000       0.000       0.001       0.006       0.009
  | Times   28:        0.000       0.000       0.000       0.000       0.000       0.000       0.007       0.009
  | Times   29:        0.000       0.001       0.000       0.000       0.000       0.000       0.007       0.009
  | Times   30:        0.000       0.001       0.000       0.000       0.000       0.000       0.007       0.009
  | Times   31:        0.000       0.000       0.000       0.000       0.000       0.001       0.007       0.009
  | Times   32:        0.000       0.001       0.000       0.000       0.000       0.001       0.006       0.009
  | Times   33:        0.000       0.001       0.000       0.000       0.000       0.001       0.006       0.009
  | Times   34:        0.000       0.001       0.000       0.000       0.000       0.000       0.006       0.009
  | Times   35:        0.000       0.001       0.000       0.000       0.000       0.001       0.006       0.009
  | Times   36:        0.000       0.001       0.000       0.000       0.000       0.001       0.007       0.009
  | Times   37:        0.000       0.001       0.000       0.000       0.000       0.000       0.007       0.009
  | Times   38:        0.000       0.001       0.000       0.000       0.000       0.000       0.007       0.009
  | Times   39:        0.000       0.001       0.000       0.000       0.000       0.000       0.007       0.009
  | Times   40:        0.000       0.001       0.000       0.000       0.000       0.001       0.007       0.009
  | Times   41:        0.000       0.001       0.000       0.000       0.000       0.000       0.007       0.009
  | Times   42:        0.000       0.001       0.000       0.000       0.000       0.000       0.007       0.009
  | Times   43:        0.000       0.001       0.000       0.000       0.000       0.000       0.007       0.009
  | Times   44:        0.000       0.001       0.000       0.000       0.000       0.001       0.006       0.009
  | Times   45:        0.000       0.001       0.001       0.000       0.000       0.000       0.006       0.009
  | Times   46:        0.000       0.001       0.000       0.000       0.000       0.001       0.006       0.009
  | Times   47:        0.000       0.001       0.001       0.000       0.000       0.000       0.006       0.009
  | Times   48:        0.000       0.001       0.000       0.000       0.000       0.001       0.007       0.009
  | Times   49:        0.000       0.001       0.000       0.000       0.000       0.000       0.007       0.009
  | Times   50:        0.000       0.001       0.000       0.000       0.000       0.000       0.007       0.009
  | Times   51:        0.000       0.001       0.000       0.000       0.000       0.000       0.007       0.009
  | Times   52:        0.000       0.001       0.000       0.000       0.000       0.001       0.007       0.009
  | Times   53:        0.000       0.001       0.000       0.000       0.000       0.000       0.007       0.009
  | Times   54:        0.000       0.001       0.000       0.000       0.000       0.000       0.007       0.009
  | Times   55:        0.000       0.001       0.000       0.000       0.000       0.000       0.007       0.009
  | Times   56:        0.000       0.001       0.000       0.000       0.000       0.001       0.006       0.009
  | Times   57:        0.000       0.001       0.001       0.000       0.000       0.000       0.006       0.009
  | Times   58:        0.000       0.001       0.000       0.000       0.000       0.001       0.007       0.009
  | Times   59:        0.000       0.001       0.001       0.000       0.000       0.000       0.006       0.009
  | Times   60:        0.000       0.001       0.000       0.000       0.000       0.001       0.007       0.009
  | Times   61:        0.000       0.001       0.000       0.000       0.000       0.000       0.007       0.009
  | Times   62:        0.000       0.001       0.000       0.000       0.000       0.000       0.007       0.009
  | Times   63:        0.000       0.001       0.000       0.000       0.000       0.000       0.007       0.009
  | Times  sum:        0.015       0.040       0.016       0.016       0.019       0.033       0.425       0.565

  Decomposition of Other based on code block (only on MPI task 0):
  Times             Block #1    Block #2    Block #3    Block #4    Block #5    Block #6    Block #7    Block #8
  | Times    0:        0.000       0.000       0.000       0.000       0.000       0.000       0.000       0.000

  Times             Block #9   Block #10   Block #11   Block #12   Block #13   Block #14   Block #15   Block #16
  | Times    0:        0.000       0.000       0.000       0.001       0.000       0.004       0.000       0.000

  Times            Block Sum    Expected
  | Times    0:        0.006       0.007
  Time for Fock matrix mixing     0.000

  Updating Kohn-Sham eigenvalues and eigenvectors using ELSI and the ELPA eigensolver.
  Starting ELPA eigensolver
  Finished transformation to standard eigenproblem
  | Time :     0.000 s
  Finished solving standard eigenproblem
  | Time :     0.001 s
  Finished back-transformation of eigenvectors
  | Time :     0.000 s

  Obtaining occupation numbers and electronic chemical potential using ELSI.
  | Note that, for insulating systems, the printed 'chemical potential' value is not uniquely defined.
  | It can be anywhere in the energy gap, as long as it correctly separates occupied and unoccupied states.
  | In systems with a gap, the physically relevant chemical potential is the VBM or HOMO.

  | Chemical potential (Fermi level):    -5.41086417 eV
  Highest occupied state (VBM) at     -8.32333489 eV
  | Occupation number:      2.00000000

  Lowest unoccupied state (CBM) at    -2.49839345 eV
  | Occupation number:      0.00000000

  Overall HOMO-LUMO gap:      5.82494144 eV.

  Total energy components:
  | Sum of eigenvalues            :        -340.02488925 Ha       -9252.54800082 eV
  | XC energy correction          :         -22.32306836 Ha        -607.44159630 eV
  | XC potential correction       :          44.10828410 Ha        1200.24747838 eV
  | Free-atom electrostatic energy:        -265.56026682 Ha       -7226.26252847 eV
  | Hartree energy correction     :          -1.95331083 Ha         -53.15229216 eV
  | Entropy correction            :          -0.00000000 Ha          -0.00000000 eV
  | ---------------------------
  | Total energy                  :        -585.75325116 Ha      -15939.15693938 eV
  | Total energy, T -> 0          :        -585.75325116 Ha      -15939.15693938 eV  <-- do not rely on this value for anything but (periodic) metals
  | Electronic free energy        :        -585.75325116 Ha      -15939.15693938 eV

  Derived energy quantities:
  | Kinetic energy                :         587.82196004 Ha       15995.44937225 eV
  | Electrostatic energy          :       -1131.47453652 Ha      -30788.98866525 eV
  | Energy correction for multipole
  | error in Hartree potential    :          -0.00027822 Ha          -0.00757071 eV
  | Sum of eigenvalues per atom                           :       -4626.27400041 eV
  | Total energy (T->0) per atom                          :       -7969.57846969 eV  <-- do not rely on this value for anything but (periodic) metals
  | Electronic free energy per atom                       :       -7969.57846969 eV
  Evaluating new KS density.
  Integration grid: deviation in total charge (<rho> - N_e) =   7.105427E-15

  Self-consistency convergence accuracy:
  | Change of charge density      :  0.7228E-04
  | Change of unmixed KS density  :  0.1821E-03
  | Change of sum of eigenvalues  :  0.7368E-02 eV
  | Change of total energy        :  0.5850E-03 eV


------------------------------------------------------------
  End self-consistency iteration #    15       :  max(cpu_time)    wall_clock(cpu1)
  | Time for this iteration                     :        0.268 s           0.068 s
  | Charge density update                       :        0.001 s           0.001 s
  | Density mixing                              :        0.253 s           0.051 s
  | Hartree multipole update                    :        0.001 s           0.001 s
  | Hartree multipole summation                 :        0.002 s           0.002 s
  | Integration                                 :        0.002 s           0.002 s
  | Fock matrix evaluation                      :        0.010 s           0.010 s
  | Solution of K.-S. eqns.                     :        0.001 s           0.001 s
  | Total energy evaluation                     :        0.000 s           0.000 s

  Partial memory accounting:
  | Current value for overall tracked memory usage:
  |   Minimum:        1.827 MB (on task  2)
  |   Maximum:        2.129 MB (on task 21)
  |   Average:        1.953 MB
  | Peak value for overall tracked memory usage:
  |   Minimum:        2.354 MB (on task  2 after allocating wave)
  |   Maximum:        3.978 MB (on task  0 after allocating wave)
  |   Average:        2.574 MB
  | Largest tracked array allocation so far:
  |   Minimum:        1.383 MB (ovlp3fn2%dat on task  2)
  |   Maximum:        1.621 MB (ovlp3fn2%dat on task  0)
  |   Average:        1.491 MB
  Note:  These values currently only include a subset of arrays which are explicitly tracked.
  The "true" memory usage will be greater.
------------------------------------------------------------

------------------------------------------------------------
          Begin self-consistency iteration #   16

  Date     :  20260724, Time     :  094002.399
------------------------------------------------------------
  Pulay mixing of updated and previous charge densities.
  Available memory per node after mixing [GB]:    984.78
  Renormalizing the density to the exact electron count on the 3D integration grid.
  | Formal number of electrons (from input files) :      28.0000000000
  | Integrated number of electrons on 3D grid     :      28.0000000000
  | Charge integration error                      :       0.0000000000
  | Normalization factor for density and gradient :       1.0000000000

  Evaluating partitioned Hartree potential by multipole expansion.
  | Original multipole sum: apparent total charge =  -0.108230E-13
  | Sum of charges compensated after spline to logarithmic grids =   0.848683E-06
  | Analytical far-field extrapolation by fixed multipoles:
  | Hartree multipole sum: apparent total charge =  -0.106262E-13
  Summing up the Hartree potential.
  Time summed over all CPUs for potential: real work        0.001 s, elapsed        0.001 s
  | RMS charge density error from multipole expansion :   0.261085E-02

  Integrating Hamiltonian matrix: batch-based integration.
  Time summed over all CPUs for integration: real work        0.097 s, elapsed        0.108 s
  Calculating non-local Hartree-Fock exchange by two-center RI (RI-LVL).
  screening_threshold (crit_val) =  0.000000100000
  Exact exchange progress report - outermost block loop i_block: 1 ..       3
  |        1         2         3 Total ovlp3fn data transfer [GB]   8.0878398148342967E-004
  Average sparsity of tmp1/2 0.50000000
  Average sparsity of fock_matrix_row 0.02000000
  Full exact exchange energy: weighted long- and short-range EXX    269.087916101019 eV.
  Times            DM_x_o3fn   CM_prod_1   CM_prod_2   tmp2_prod        Sync   Imbalance       Other  Total calc
  | Times    0:        0.000       0.001       0.000       0.000       0.000       0.000       0.006       0.009
  | Times    1:        0.000       0.001       0.000       0.000       0.000       0.001       0.006       0.009
  | Times    2:        0.000       0.001       0.001       0.000       0.000       0.000       0.006       0.009
  | Times    3:        0.000       0.001       0.000       0.000       0.000       0.001       0.006       0.009
  | Times    4:        0.000       0.001       0.000       0.000       0.000       0.000       0.006       0.009
  | Times    5:        0.000       0.001       0.000       0.000       0.000       0.001       0.006       0.009
  | Times    6:        0.000       0.001       0.001       0.000       0.000       0.000       0.006       0.009
  | Times    7:        0.000       0.001       0.000       0.000       0.000       0.001       0.006       0.009
  | Times    8:        0.000       0.001       0.000       0.000       0.000       0.001       0.006       0.009
  | Times    9:        0.000       0.001       0.000       0.000       0.000       0.001       0.006       0.009
  | Times   10:        0.000       0.001       0.001       0.000       0.000       0.000       0.006       0.009
  | Times   11:        0.000       0.001       0.000       0.000       0.000       0.001       0.006       0.009
  | Times   12:        0.000       0.001       0.000       0.000       0.000       0.000       0.006       0.009
  | Times   13:        0.000       0.001       0.000       0.000       0.000       0.001       0.006       0.009
  | Times   14:        0.000       0.001       0.001       0.000       0.000       0.000       0.006       0.009
  | Times   15:        0.000       0.001       0.000       0.000       0.000       0.001       0.006       0.009
  | Times   16:        0.000       0.000       0.000       0.000       0.000       0.000       0.007       0.009
  | Times   17:        0.000       0.000       0.000       0.000       0.000       0.001       0.007       0.009
  | Times   18:        0.000       0.000       0.000       0.000       0.000       0.000       0.007       0.009
  | Times   19:        0.000       0.000       0.000       0.000       0.000       0.001       0.007       0.009
  | Times   20:        0.000       0.001       0.000       0.000       0.000       0.001       0.006       0.009
  | Times   21:        0.000       0.001       0.000       0.000       0.000       0.001       0.006       0.009
  | Times   22:        0.000       0.001       0.001       0.000       0.000       0.000       0.006       0.009
  | Times   23:        0.000       0.001       0.000       0.000       0.000       0.001       0.006       0.009
  | Times   24:        0.000       0.001       0.001       0.000       0.000       0.001       0.006       0.009
  | Times   25:        0.000       0.001       0.000       0.000       0.000       0.001       0.006       0.009
  | Times   26:        0.000       0.001       0.001       0.000       0.000       0.000       0.006       0.009
  | Times   27:        0.000       0.001       0.000       0.000       0.000       0.001       0.006       0.009
  | Times   28:        0.000       0.000       0.000       0.000       0.000       0.000       0.007       0.009
  | Times   29:        0.000       0.001       0.000       0.000       0.000       0.000       0.007       0.009
  | Times   30:        0.000       0.000       0.000       0.000       0.000       0.000       0.007       0.009
  | Times   31:        0.000       0.000       0.000       0.000       0.000       0.001       0.007       0.009
  | Times   32:        0.000       0.001       0.000       0.000       0.000       0.001       0.006       0.009
  | Times   33:        0.000       0.001       0.000       0.000       0.000       0.001       0.006       0.009
  | Times   34:        0.000       0.001       0.000       0.000       0.000       0.000       0.006       0.009
  | Times   35:        0.000       0.001       0.000       0.000       0.000       0.001       0.006       0.009
  | Times   36:        0.000       0.001       0.000       0.000       0.000       0.001       0.006       0.009
  | Times   37:        0.000       0.001       0.000       0.000       0.000       0.000       0.007       0.009
  | Times   38:        0.000       0.001       0.000       0.000       0.000       0.000       0.007       0.009
  | Times   39:        0.000       0.001       0.000       0.000       0.000       0.000       0.007       0.009
  | Times   40:        0.000       0.001       0.000       0.000       0.000       0.001       0.006       0.009
  | Times   41:        0.000       0.000       0.000       0.000       0.000       0.000       0.007       0.009
  | Times   42:        0.000       0.001       0.000       0.000       0.000       0.000       0.007       0.009
  | Times   43:        0.000       0.001       0.000       0.000       0.000       0.000       0.007       0.009
  | Times   44:        0.000       0.001       0.000       0.000       0.000       0.001       0.006       0.009
  | Times   45:        0.000       0.001       0.001       0.000       0.000       0.000       0.006       0.009
  | Times   46:        0.000       0.001       0.000       0.000       0.000       0.001       0.006       0.009
  | Times   47:        0.000       0.001       0.001       0.000       0.000       0.000       0.006       0.009
  | Times   48:        0.000       0.001       0.000       0.000       0.000       0.001       0.006       0.009
  | Times   49:        0.000       0.000       0.000       0.000       0.000       0.000       0.007       0.009
  | Times   50:        0.000       0.001       0.000       0.000       0.000       0.000       0.007       0.009
  | Times   51:        0.000       0.001       0.000       0.000       0.000       0.000       0.007       0.009
  | Times   52:        0.000       0.001       0.000       0.000       0.000       0.001       0.006       0.009
  | Times   53:        0.000       0.001       0.001       0.000       0.000       0.000       0.006       0.009
  | Times   54:        0.000       0.001       0.000       0.000       0.000       0.000       0.006       0.009
  | Times   55:        0.000       0.001       0.001       0.000       0.000       0.000       0.006       0.009
  | Times   56:        0.000       0.001       0.000       0.000       0.000       0.001       0.007       0.009
  | Times   57:        0.000       0.001       0.000       0.000       0.000       0.000       0.007       0.009
  | Times   58:        0.000       0.001       0.000       0.000       0.000       0.000       0.007       0.009
  | Times   59:        0.000       0.001       0.000       0.000       0.000       0.000       0.007       0.009
  | Times   60:        0.000       0.001       0.000       0.000       0.000       0.001       0.007       0.009
  | Times   61:        0.000       0.000       0.000       0.000       0.000       0.000       0.007       0.009
  | Times   62:        0.000       0.001       0.000       0.000       0.000       0.000       0.007       0.009
  | Times   63:        0.000       0.001       0.000       0.000       0.000       0.000       0.007       0.009
  | Times  sum:        0.016       0.040       0.016       0.016       0.019       0.033       0.408       0.547

  Decomposition of Other based on code block (only on MPI task 0):
  Times             Block #1    Block #2    Block #3    Block #4    Block #5    Block #6    Block #7    Block #8
  | Times    0:        0.000       0.000       0.000       0.000       0.000       0.000       0.000       0.000

  Times             Block #9   Block #10   Block #11   Block #12   Block #13   Block #14   Block #15   Block #16
  | Times    0:        0.000       0.000       0.000       0.001       0.000       0.004       0.000       0.000

  Times            Block Sum    Expected
  | Times    0:        0.006       0.006
  Time for Fock matrix mixing     0.000

  Updating Kohn-Sham eigenvalues and eigenvectors using ELSI and the ELPA eigensolver.
  Starting ELPA eigensolver
  Finished transformation to standard eigenproblem
  | Time :     0.000 s
  Finished solving standard eigenproblem
  | Time :     0.001 s
  Finished back-transformation of eigenvectors
  | Time :     0.000 s

  Obtaining occupation numbers and electronic chemical potential using ELSI.
  | Note that, for insulating systems, the printed 'chemical potential' value is not uniquely defined.
  | It can be anywhere in the energy gap, as long as it correctly separates occupied and unoccupied states.
  | In systems with a gap, the physically relevant chemical potential is the VBM or HOMO.

  | Chemical potential (Fermi level):    -5.41100983 eV
  Highest occupied state (VBM) at     -8.32348483 eV
  | Occupation number:      2.00000000

  Lowest unoccupied state (CBM) at    -2.49853483 eV
  | Occupation number:      0.00000000

  Overall HOMO-LUMO gap:      5.82494999 eV.

  Total energy components:
  | Sum of eigenvalues            :        -340.02488993 Ha       -9252.54801958 eV
  | XC energy correction          :         -22.32308845 Ha        -607.44214316 eV
  | XC potential correction       :          44.10829535 Ha        1200.24778436 eV
  | Free-atom electrostatic energy:        -265.56026682 Ha       -7226.26252847 eV
  | Hartree energy correction     :          -1.95329569 Ha         -53.15188018 eV
  | Entropy correction            :          -0.00000000 Ha          -0.00000000 eV
  | ---------------------------
  | Total energy                  :        -585.75324556 Ha      -15939.15678704 eV
  | Total energy, T -> 0          :        -585.75324556 Ha      -15939.15678704 eV  <-- do not rely on this value for anything but (periodic) metals
  | Electronic free energy        :        -585.75324556 Ha      -15939.15678704 eV

  Derived energy quantities:
  | Kinetic energy                :         587.82218768 Ha       15995.45556654 eV
  | Electrostatic energy          :       -1131.47476217 Ha      -30788.99480549 eV
  | Energy correction for multipole
  | error in Hartree potential    :          -0.00027748 Ha          -0.00755052 eV
  | Sum of eigenvalues per atom                           :       -4626.27400979 eV
  | Total energy (T->0) per atom                          :       -7969.57839352 eV  <-- do not rely on this value for anything but (periodic) metals
  | Electronic free energy per atom                       :       -7969.57839352 eV
  Evaluating new KS density.
  Integration grid: deviation in total charge (<rho> - N_e) =  -3.552714E-15

  Self-consistency convergence accuracy:
  | Change of charge density      :  0.2455E-04
  | Change of unmixed KS density  :  0.2840E-04
  | Change of sum of eigenvalues  : -0.1876E-04 eV
  | Change of total energy        :  0.1523E-03 eV


------------------------------------------------------------
  End self-consistency iteration #    16       :  max(cpu_time)    wall_clock(cpu1)
  | Time for this iteration                     :        0.303 s           0.209 s
  | Charge density update                       :        0.001 s           0.001 s
  | Density mixing                              :        0.289 s           0.193 s
  | Hartree multipole update                    :        0.001 s           0.001 s
  | Hartree multipole summation                 :        0.002 s           0.002 s
  | Integration                                 :        0.002 s           0.001 s
  | Fock matrix evaluation                      :        0.009 s           0.010 s
  | Solution of K.-S. eqns.                     :        0.001 s           0.001 s
  | Total energy evaluation                     :        0.000 s           0.000 s

  Partial memory accounting:
  | Current value for overall tracked memory usage:
  |   Minimum:        1.827 MB (on task  2)
  |   Maximum:        2.129 MB (on task 21)
  |   Average:        1.953 MB
  | Peak value for overall tracked memory usage:
  |   Minimum:        2.354 MB (on task  2 after allocating wave)
  |   Maximum:        3.978 MB (on task  0 after allocating wave)
  |   Average:        2.574 MB
  | Largest tracked array allocation so far:
  |   Minimum:        1.383 MB (ovlp3fn2%dat on task  2)
  |   Maximum:        1.621 MB (ovlp3fn2%dat on task  0)
  |   Average:        1.491 MB
  Note:  These values currently only include a subset of arrays which are explicitly tracked.
  The "true" memory usage will be greater.
------------------------------------------------------------

------------------------------------------------------------
          Begin self-consistency iteration #   17

  Date     :  20260724, Time     :  094002.645
------------------------------------------------------------
  Pulay mixing of updated and previous charge densities.
  Available memory per node after mixing [GB]:    984.78
  Renormalizing the density to the exact electron count on the 3D integration grid.
  | Formal number of electrons (from input files) :      28.0000000000
  | Integrated number of electrons on 3D grid     :      28.0000000000
  | Charge integration error                      :       0.0000000000
  | Normalization factor for density and gradient :       1.0000000000

  Evaluating partitioned Hartree potential by multipole expansion.
  | Original multipole sum: apparent total charge =  -0.100359E-13
  | Sum of charges compensated after spline to logarithmic grids =   0.848706E-06
  | Analytical far-field extrapolation by fixed multipoles:
  | Hartree multipole sum: apparent total charge =  -0.988829E-14
  Summing up the Hartree potential.
  Time summed over all CPUs for potential: real work        0.001 s, elapsed        0.001 s
  | RMS charge density error from multipole expansion :   0.261085E-02

  Integrating Hamiltonian matrix: batch-based integration.
  Time summed over all CPUs for integration: real work        0.096 s, elapsed        0.107 s
  Calculating non-local Hartree-Fock exchange by two-center RI (RI-LVL).
  screening_threshold (crit_val) =  0.000000100000
  Exact exchange progress report - outermost block loop i_block: 1 ..       3
  |        1         2         3 Total ovlp3fn data transfer [GB]   8.0878398148342967E-004
  Average sparsity of tmp1/2 0.50000000
  Average sparsity of fock_matrix_row 0.02000000
  Full exact exchange energy: weighted long- and short-range EXX    269.087745654624 eV.
  Times            DM_x_o3fn   CM_prod_1   CM_prod_2   tmp2_prod        Sync   Imbalance       Other  Total calc
  | Times    0:        0.000       0.001       0.000       0.000       0.000       0.001       0.008       0.010
  | Times    1:        0.000       0.001       0.000       0.000       0.000       0.001       0.008       0.010
  | Times    2:        0.000       0.001       0.001       0.000       0.000       0.000       0.008       0.010
  | Times    3:        0.000       0.001       0.000       0.000       0.000       0.000       0.008       0.010
  | Times    4:        0.000       0.001       0.000       0.000       0.000       0.000       0.008       0.010
  | Times    5:        0.000       0.001       0.000       0.000       0.000       0.000       0.008       0.010
  | Times    6:        0.000       0.001       0.001       0.000       0.000       0.000       0.008       0.011
  | Times    7:        0.000       0.001       0.000       0.000       0.000       0.001       0.008       0.010
  | Times    8:        0.000       0.001       0.000       0.000       0.000       0.001       0.008       0.010
  | Times    9:        0.000       0.001       0.000       0.000       0.000       0.001       0.008       0.010
  | Times   10:        0.000       0.001       0.001       0.000       0.000       0.000       0.008       0.010
  | Times   11:        0.000       0.001       0.000       0.000       0.000       0.000       0.008       0.010
  | Times   12:        0.000       0.000       0.000       0.000       0.000       0.000       0.008       0.010
  | Times   13:        0.000       0.000       0.000       0.000       0.000       0.001       0.008       0.010
  | Times   14:        0.000       0.001       0.000       0.000       0.000       0.000       0.008       0.010
  | Times   15:        0.000       0.000       0.000       0.000       0.000       0.001       0.008       0.010
  | Times   16:        0.000       0.001       0.000       0.000       0.000       0.000       0.008       0.010
  | Times   17:        0.000       0.001       0.000       0.000       0.000       0.001       0.008       0.010
  | Times   18:        0.000       0.001       0.001       0.000       0.000       0.000       0.008       0.010
  | Times   19:        0.000       0.001       0.000       0.000       0.000       0.001       0.008       0.010
  | Times   20:        0.000       0.001       0.000       0.000       0.000       0.000       0.008       0.010
  | Times   21:        0.000       0.001       0.000       0.000       0.000       0.001       0.008       0.010
  | Times   22:        0.000       0.001       0.001       0.000       0.000       0.000       0.008       0.010
  | Times   23:        0.000       0.001       0.000       0.000       0.000       0.001       0.008       0.010
  | Times   24:        0.000       0.001       0.000       0.000       0.000       0.000       0.008       0.010
  | Times   25:        0.000       0.001       0.000       0.000       0.000       0.001       0.008       0.010
  | Times   26:        0.000       0.001       0.001       0.000       0.000       0.000       0.008       0.010
  | Times   27:        0.000       0.001       0.000       0.000       0.000       0.001       0.008       0.010
  | Times   28:        0.000       0.001       0.000       0.000       0.000       0.001       0.008       0.010
  | Times   29:        0.000       0.001       0.000       0.000       0.000       0.001       0.008       0.010
  | Times   30:        0.000       0.001       0.001       0.000       0.000       0.000       0.008       0.010
  | Times   31:        0.000       0.001       0.000       0.000       0.000       0.001       0.008       0.010
  | Times   32:        0.000       0.001       0.000       0.000       0.000       0.001       0.008       0.010
  | Times   33:        0.000       0.001       0.000       0.000       0.000       0.001       0.008       0.010
  | Times   34:        0.000       0.001       0.000       0.000       0.000       0.000       0.008       0.010
  | Times   35:        0.000       0.001       0.000       0.000       0.000       0.001       0.008       0.010
  | Times   36:        0.000       0.001       0.000       0.000       0.000       0.001       0.008       0.010
  | Times   37:        0.000       0.000       0.000       0.000       0.000       0.000       0.008       0.010
  | Times   38:        0.000       0.001       0.000       0.000       0.000       0.000       0.008       0.010
  | Times   39:        0.000       0.001       0.000       0.000       0.000       0.000       0.008       0.010
  | Times   40:        0.000       0.001       0.000       0.000       0.000       0.001       0.008       0.010
  | Times   41:        0.000       0.001       0.000       0.000       0.000       0.000       0.008       0.010
  | Times   42:        0.000       0.001       0.000       0.000       0.000       0.000       0.008       0.010
  | Times   43:        0.000       0.001       0.000       0.000       0.000       0.000       0.008       0.010
  | Times   44:        0.000       0.001       0.000       0.000       0.000       0.001       0.008       0.010
  | Times   45:        0.000       0.001       0.000       0.000       0.000       0.000       0.008       0.010
  | Times   46:        0.000       0.001       0.000       0.000       0.000       0.000       0.008       0.010
  | Times   47:        0.000       0.001       0.000       0.000       0.000       0.000       0.008       0.010
  | Times   48:        0.000       0.001       0.000       0.000       0.000       0.001       0.007       0.010
  | Times   49:        0.000       0.001       0.001       0.000       0.000       0.000       0.008       0.010
  | Times   50:        0.000       0.001       0.000       0.000       0.000       0.000       0.008       0.010
  | Times   51:        0.000       0.001       0.001       0.000       0.000       0.000       0.008       0.010
  | Times   52:        0.000       0.001       0.000       0.000       0.000       0.001       0.008       0.010
  | Times   53:        0.000       0.000       0.000       0.000       0.000       0.000       0.008       0.010
  | Times   54:        0.000       0.001       0.000       0.000       0.000       0.000       0.008       0.010
  | Times   55:        0.000       0.001       0.000       0.000       0.000       0.000       0.008       0.010
  | Times   56:        0.000       0.001       0.000       0.000       0.000       0.001       0.007       0.010
  | Times   57:        0.000       0.001       0.001       0.000       0.000       0.000       0.008       0.010
  | Times   58:        0.000       0.001       0.000       0.000       0.000       0.001       0.008       0.010
  | Times   59:        0.000       0.001       0.001       0.000       0.000       0.000       0.008       0.010
  | Times   60:        0.000       0.001       0.000       0.000       0.000       0.001       0.008       0.010
  | Times   61:        0.000       0.000       0.000       0.000       0.000       0.000       0.008       0.010
  | Times   62:        0.000       0.001       0.000       0.000       0.000       0.000       0.008       0.010
  | Times   63:        0.000       0.001       0.000       0.000       0.000       0.000       0.008       0.010
  | Times  sum:        0.015       0.041       0.016       0.016       0.019       0.032       0.503       0.642

  Decomposition of Other based on code block (only on MPI task 0):
  Times             Block #1    Block #2    Block #3    Block #4    Block #5    Block #6    Block #7    Block #8
  | Times    0:        0.000       0.000       0.000       0.000       0.000       0.000       0.000       0.000

  Times             Block #9   Block #10   Block #11   Block #12   Block #13   Block #14   Block #15   Block #16
  | Times    0:        0.000       0.000       0.000       0.002       0.000       0.004       0.000       0.000

  Times            Block Sum    Expected
  | Times    0:        0.007       0.008
  Time for Fock matrix mixing     0.000

  Updating Kohn-Sham eigenvalues and eigenvectors using ELSI and the ELPA eigensolver.
  Starting ELPA eigensolver
  Finished transformation to standard eigenproblem
  | Time :     0.000 s
  Finished solving standard eigenproblem
  | Time :     0.001 s
  Finished back-transformation of eigenvectors
  | Time :     0.000 s

  Obtaining occupation numbers and electronic chemical potential using ELSI.
  | Note that, for insulating systems, the printed 'chemical potential' value is not uniquely defined.
  | It can be anywhere in the energy gap, as long as it correctly separates occupied and unoccupied states.
  | In systems with a gap, the physically relevant chemical potential is the VBM or HOMO.

  | Chemical potential (Fermi level):    -5.41096041 eV
  Highest occupied state (VBM) at     -8.32335311 eV
  | Occupation number:      2.00000000

  Lowest unoccupied state (CBM) at    -2.49856771 eV
  | Occupation number:      0.00000000

  Overall HOMO-LUMO gap:      5.82478540 eV.

  Total energy components:
  | Sum of eigenvalues            :        -340.02482207 Ha       -9252.54617277 eV
  | XC energy correction          :         -22.32309082 Ha        -607.44220763 eV
  | XC potential correction       :          44.10829681 Ha        1200.24782427 eV
  | Free-atom electrostatic energy:        -265.56026682 Ha       -7226.26252847 eV
  | Hartree energy correction     :          -1.95336351 Ha         -53.15372549 eV
  | Entropy correction            :          -0.00000000 Ha          -0.00000000 eV
  | ---------------------------
  | Total energy                  :        -585.75324641 Ha      -15939.15681009 eV
  | Total energy, T -> 0          :        -585.75324641 Ha      -15939.15681009 eV  <-- do not rely on this value for anything but (periodic) metals
  | Electronic free energy        :        -585.75324641 Ha      -15939.15681009 eV

  Derived energy quantities:
  | Kinetic energy                :         587.82214350 Ha       15995.45436431 eV
  | Electrostatic energy          :       -1131.47471965 Ha      -30788.99364839 eV
  | Energy correction for multipole
  | error in Hartree potential    :          -0.00027755 Ha          -0.00755251 eV
  | Sum of eigenvalues per atom                           :       -4626.27308638 eV
  | Total energy (T->0) per atom                          :       -7969.57840504 eV  <-- do not rely on this value for anything but (periodic) metals
  | Electronic free energy per atom                       :       -7969.57840504 eV
  Evaluating new KS density.
  Integration grid: deviation in total charge (<rho> - N_e) =  -3.552714E-15

  Self-consistency convergence accuracy:
  | Change of charge density      :  0.1220E-04
  | Change of unmixed KS density  :  0.1136E-04
  | Change of sum of eigenvalues  :  0.1847E-02 eV
  | Change of total energy        : -0.2305E-04 eV


------------------------------------------------------------
  End self-consistency iteration #    17       :  max(cpu_time)    wall_clock(cpu1)
  | Time for this iteration                     :        0.272 s           0.251 s
  | Charge density update                       :        0.001 s           0.002 s
  | Density mixing                              :        0.254 s           0.232 s
  | Hartree multipole update                    :        0.001 s           0.001 s
  | Hartree multipole summation                 :        0.002 s           0.002 s
  | Integration                                 :        0.002 s           0.002 s
  | Fock matrix evaluation                      :        0.011 s           0.011 s
  | Solution of K.-S. eqns.                     :        0.001 s           0.001 s
  | Total energy evaluation                     :        0.000 s           0.000 s

  Partial memory accounting:
  | Current value for overall tracked memory usage:
  |   Minimum:        1.827 MB (on task  2)
  |   Maximum:        2.129 MB (on task 21)
  |   Average:        1.953 MB
  | Peak value for overall tracked memory usage:
  |   Minimum:        2.354 MB (on task  2 after allocating wave)
  |   Maximum:        3.978 MB (on task  0 after allocating wave)
  |   Average:        2.574 MB
  | Largest tracked array allocation so far:
  |   Minimum:        1.383 MB (ovlp3fn2%dat on task  2)
  |   Maximum:        1.621 MB (ovlp3fn2%dat on task  0)
  |   Average:        1.491 MB
  Note:  These values currently only include a subset of arrays which are explicitly tracked.
  The "true" memory usage will be greater.
------------------------------------------------------------

------------------------------------------------------------
          Begin self-consistency iteration #   18

  Date     :  20260724, Time     :  094002.908
------------------------------------------------------------
  Pulay mixing of updated and previous charge densities.
  Available memory per node after mixing [GB]:    984.78
  Renormalizing the density to the exact electron count on the 3D integration grid.
  | Formal number of electrons (from input files) :      28.0000000000
  | Integrated number of electrons on 3D grid     :      28.0000000000
  | Charge integration error                      :       0.0000000000
  | Normalization factor for density and gradient :       1.0000000000

  Evaluating partitioned Hartree potential by multipole expansion.
  | Original multipole sum: apparent total charge =  -0.334529E-14
  | Sum of charges compensated after spline to logarithmic grids =   0.848702E-06
  | Analytical far-field extrapolation by fixed multipoles:
  | Hartree multipole sum: apparent total charge =  -0.241058E-14
  Summing up the Hartree potential.
  Time summed over all CPUs for potential: real work        0.001 s, elapsed        0.001 s
  | RMS charge density error from multipole expansion :   0.261085E-02

  Integrating Hamiltonian matrix: batch-based integration.
  Time summed over all CPUs for integration: real work        0.097 s, elapsed        0.109 s
  Calculating non-local Hartree-Fock exchange by two-center RI (RI-LVL).
  screening_threshold (crit_val) =  0.000000100000
  Exact exchange progress report - outermost block loop i_block: 1 ..       3
  |        1         2         3 Total ovlp3fn data transfer [GB]   8.0878398148342967E-004
  Average sparsity of tmp1/2 0.50000000
  Average sparsity of fock_matrix_row 0.02000000
  Full exact exchange energy: weighted long- and short-range EXX    269.087679338109 eV.
  Times            DM_x_o3fn   CM_prod_1   CM_prod_2   tmp2_prod        Sync   Imbalance       Other  Total calc
  | Times    0:        0.000       0.001       0.000       0.000       0.000       0.000       0.007       0.009
  | Times    1:        0.000       0.001       0.000       0.000       0.000       0.001       0.007       0.009
  | Times    2:        0.000       0.001       0.001       0.000       0.000       0.000       0.006       0.009
  | Times    3:        0.000       0.001       0.000       0.000       0.000       0.001       0.007       0.009
  | Times    4:        0.000       0.001       0.000       0.000       0.000       0.000       0.007       0.009
  | Times    5:        0.000       0.001       0.000       0.000       0.000       0.001       0.007       0.009
  | Times    6:        0.000       0.001       0.001       0.000       0.000       0.000       0.007       0.009
  | Times    7:        0.000       0.001       0.000       0.000       0.000       0.001       0.007       0.009
  | Times    8:        0.000       0.001       0.000       0.000       0.000       0.001       0.007       0.009
  | Times    9:        0.000       0.001       0.000       0.000       0.000       0.001       0.007       0.009
  | Times   10:        0.000       0.001       0.001       0.000       0.000       0.000       0.007       0.009
  | Times   11:        0.000       0.001       0.000       0.000       0.000       0.001       0.007       0.009
  | Times   12:        0.000       0.000       0.000       0.000       0.000       0.000       0.007       0.009
  | Times   13:        0.000       0.001       0.000       0.000       0.000       0.000       0.007       0.009
  | Times   14:        0.000       0.000       0.000       0.000       0.000       0.000       0.007       0.009
  | Times   15:        0.000       0.000       0.000       0.000       0.000       0.001       0.007       0.009
  | Times   16:        0.000       0.001       0.000       0.000       0.000       0.000       0.007       0.009
  | Times   17:        0.000       0.001       0.000       0.000       0.000       0.001       0.007       0.009
  | Times   18:        0.000       0.001       0.001       0.000       0.000       0.000       0.007       0.009
  | Times   19:        0.000       0.001       0.000       0.000       0.000       0.001       0.007       0.009
  | Times   20:        0.000       0.001       0.000       0.000       0.000       0.001       0.007       0.009
  | Times   21:        0.000       0.001       0.000       0.000       0.000       0.001       0.007       0.009
  | Times   22:        0.000       0.001       0.001       0.000       0.000       0.000       0.007       0.009
  | Times   23:        0.000       0.001       0.000       0.000       0.000       0.001       0.007       0.009
  | Times   24:        0.000       0.001       0.001       0.000       0.000       0.000       0.007       0.009
  | Times   25:        0.000       0.001       0.000       0.000       0.000       0.001       0.007       0.009
  | Times   26:        0.000       0.001       0.001       0.000       0.000       0.000       0.006       0.009
  | Times   27:        0.000       0.001       0.000       0.000       0.000       0.001       0.007       0.009
  | Times   28:        0.000       0.000       0.000       0.000       0.000       0.000       0.007       0.009
  | Times   29:        0.000       0.000       0.000       0.000       0.000       0.001       0.007       0.009
  | Times   30:        0.000       0.000       0.000       0.000       0.000       0.000       0.007       0.009
  | Times   31:        0.000       0.001       0.000       0.000       0.000       0.000       0.007       0.009
  | Times   32:        0.000       0.001       0.000       0.000       0.000       0.001       0.007       0.009
  | Times   33:        0.000       0.001       0.000       0.000       0.000       0.001       0.007       0.009
  | Times   34:        0.000       0.001       0.000       0.000       0.000       0.000       0.007       0.009
  | Times   35:        0.000       0.001       0.000       0.000       0.000       0.001       0.007       0.009
  | Times   36:        0.000       0.001       0.000       0.000       0.000       0.001       0.007       0.009
  | Times   37:        0.000       0.000       0.000       0.000       0.000       0.000       0.007       0.009
  | Times   38:        0.000       0.001       0.000       0.000       0.000       0.000       0.007       0.009
  | Times   39:        0.000       0.001       0.000       0.000       0.000       0.000       0.007       0.009
  | Times   40:        0.000       0.001       0.000       0.000       0.000       0.001       0.007       0.009
  | Times   41:        0.000       0.000       0.000       0.000       0.000       0.000       0.007       0.009
  | Times   42:        0.000       0.001       0.000       0.000       0.000       0.000       0.007       0.009
  | Times   43:        0.000       0.001       0.000       0.000       0.000       0.000       0.007       0.009
  | Times   44:        0.000       0.001       0.000       0.000       0.000       0.001       0.006       0.009
  | Times   45:        0.000       0.001       0.001       0.000       0.000       0.000       0.006       0.009
  | Times   46:        0.000       0.001       0.000       0.000       0.000       0.001       0.007       0.009
  | Times   47:        0.000       0.001       0.001       0.000       0.000       0.000       0.006       0.009
  | Times   48:        0.000       0.001       0.000       0.000       0.000       0.001       0.007       0.009
  | Times   49:        0.000       0.001       0.000       0.000       0.000       0.000       0.007       0.009
  | Times   50:        0.000       0.001       0.000       0.000       0.000       0.000       0.007       0.009
  | Times   51:        0.000       0.001       0.000       0.000       0.000       0.000       0.007       0.009
  | Times   52:        0.000       0.001       0.000       0.000       0.000       0.001       0.006       0.009
  | Times   53:        0.000       0.001       0.001       0.000       0.000       0.000       0.007       0.009
  | Times   54:        0.000       0.001       0.000       0.000       0.000       0.001       0.007       0.009
  | Times   55:        0.000       0.001       0.001       0.000       0.000       0.000       0.007       0.009
  | Times   56:        0.000       0.001       0.000       0.000       0.000       0.001       0.007       0.009
  | Times   57:        0.000       0.001       0.000       0.000       0.000       0.000       0.007       0.009
  | Times   58:        0.000       0.001       0.000       0.000       0.000       0.000       0.007       0.009
  | Times   59:        0.000       0.001       0.000       0.000       0.000       0.000       0.007       0.009
  | Times   60:        0.000       0.001       0.000       0.000       0.000       0.001       0.007       0.009
  | Times   61:        0.000       0.000       0.000       0.000       0.000       0.000       0.007       0.009
  | Times   62:        0.000       0.001       0.000       0.000       0.000       0.000       0.007       0.009
  | Times   63:        0.000       0.001       0.000       0.000       0.000       0.000       0.007       0.009
  | Times  sum:        0.015       0.040       0.015       0.016       0.019       0.032       0.439       0.577

  Decomposition of Other based on code block (only on MPI task 0):
  Times             Block #1    Block #2    Block #3    Block #4    Block #5    Block #6    Block #7    Block #8
  | Times    0:        0.000       0.000       0.000       0.000       0.000       0.000       0.000       0.000

  Times             Block #9   Block #10   Block #11   Block #12   Block #13   Block #14   Block #15   Block #16
  | Times    0:        0.000       0.000       0.000       0.001       0.000       0.005       0.000       0.000

  Times            Block Sum    Expected
  | Times    0:        0.006       0.007
  Time for Fock matrix mixing     0.000

  Updating Kohn-Sham eigenvalues and eigenvectors using ELSI and the ELPA eigensolver.
  Starting ELPA eigensolver
  Finished transformation to standard eigenproblem
  | Time :     0.000 s
  Finished solving standard eigenproblem
  | Time :     0.000 s
  Finished back-transformation of eigenvectors
  | Time :     0.001 s

  Obtaining occupation numbers and electronic chemical potential using ELSI.
  | Note that, for insulating systems, the printed 'chemical potential' value is not uniquely defined.
  | It can be anywhere in the energy gap, as long as it correctly separates occupied and unoccupied states.
  | In systems with a gap, the physically relevant chemical potential is the VBM or HOMO.

  | Chemical potential (Fermi level):    -5.41096219 eV
  Highest occupied state (VBM) at     -8.32335830 eV
  | Occupation number:      2.00000000

  Lowest unoccupied state (CBM) at    -2.49856609 eV
  | Occupation number:      0.00000000

  Overall HOMO-LUMO gap:      5.82479221 eV.

  Total energy components:
  | Sum of eigenvalues            :        -340.02482453 Ha       -9252.54623981 eV
  | XC energy correction          :         -22.32309085 Ha        -607.44220847 eV
  | XC potential correction       :          44.10829670 Ha        1200.24782115 eV
  | Free-atom electrostatic energy:        -265.56026682 Ha       -7226.26252847 eV
  | Hartree energy correction     :          -1.95336088 Ha         -53.15365391 eV
  | Entropy correction            :          -0.00000000 Ha          -0.00000000 eV
  | ---------------------------
  | Total energy                  :        -585.75324639 Ha      -15939.15680952 eV
  | Total energy, T -> 0          :        -585.75324639 Ha      -15939.15680952 eV  <-- do not rely on this value for anything but (periodic) metals
  | Electronic free energy        :        -585.75324639 Ha      -15939.15680952 eV

  Derived energy quantities:
  | Kinetic energy                :         587.82214383 Ha       15995.45437345 eV
  | Electrostatic energy          :       -1131.47472014 Ha      -30788.99366165 eV
  | Energy correction for multipole
  | error in Hartree potential    :          -0.00027755 Ha          -0.00755260 eV
  | Sum of eigenvalues per atom                           :       -4626.27311991 eV
  | Total energy (T->0) per atom                          :       -7969.57840476 eV  <-- do not rely on this value for anything but (periodic) metals
  | Electronic free energy per atom                       :       -7969.57840476 eV
  Evaluating new KS density.
  Integration grid: deviation in total charge (<rho> - N_e) =   7.105427E-15

  Self-consistency convergence accuracy:
  | Change of charge density      :  0.2544E-05
  | Change of unmixed KS density  :  0.7449E-05
  | Change of sum of eigenvalues  : -0.6705E-04 eV
  | Change of total energy        :  0.5643E-06 eV


------------------------------------------------------------
  End self-consistency iteration #    18       :  max(cpu_time)    wall_clock(cpu1)
  | Time for this iteration                     :        0.285 s           0.285 s
  | Charge density update                       :        0.001 s           0.001 s
  | Density mixing                              :        0.267 s           0.268 s
  | Hartree multipole update                    :        0.001 s           0.001 s
  | Hartree multipole summation                 :        0.002 s           0.002 s
  | Integration                                 :        0.002 s           0.002 s
  | Fock matrix evaluation                      :        0.010 s           0.010 s
  | Solution of K.-S. eqns.                     :        0.001 s           0.001 s
  | Total energy evaluation                     :        0.000 s           0.000 s

  Partial memory accounting:
  | Current value for overall tracked memory usage:
  |   Minimum:        1.827 MB (on task  2)
  |   Maximum:        2.129 MB (on task 21)
  |   Average:        1.953 MB
  | Peak value for overall tracked memory usage:
  |   Minimum:        2.354 MB (on task  2 after allocating wave)
  |   Maximum:        3.978 MB (on task  0 after allocating wave)
  |   Average:        2.574 MB
  | Largest tracked array allocation so far:
  |   Minimum:        1.383 MB (ovlp3fn2%dat on task  2)
  |   Maximum:        1.621 MB (ovlp3fn2%dat on task  0)
  |   Average:        1.491 MB
  Note:  These values currently only include a subset of arrays which are explicitly tracked.
  The "true" memory usage will be greater.
------------------------------------------------------------

------------------------------------------------------------
          Begin self-consistency iteration #   19

  Date     :  20260724, Time     :  094003.228
------------------------------------------------------------
  Pulay mixing of updated and previous charge densities.
  Available memory per node after mixing [GB]:    984.78
  Renormalizing the density to the exact electron count on the 3D integration grid.
  | Formal number of electrons (from input files) :      28.0000000000
  | Integrated number of electrons on 3D grid     :      28.0000000000
  | Charge integration error                      :       0.0000000000
  | Normalization factor for density and gradient :       1.0000000000

  Evaluating partitioned Hartree potential by multipole expansion.
  | Original multipole sum: apparent total charge =   0.108230E-14
  | Sum of charges compensated after spline to logarithmic grids =   0.848665E-06
  | Analytical far-field extrapolation by fixed multipoles:
  | Hartree multipole sum: apparent total charge =   0.206621E-14
  Summing up the Hartree potential.
  Time summed over all CPUs for potential: real work        0.001 s, elapsed        0.001 s
  | RMS charge density error from multipole expansion :   0.261081E-02

  Integrating Hamiltonian matrix: batch-based integration.
  Time summed over all CPUs for integration: real work        0.096 s, elapsed        0.115 s
  Calculating non-local Hartree-Fock exchange by two-center RI (RI-LVL).
  screening_threshold (crit_val) =  0.000000100000
  Exact exchange progress report - outermost block loop i_block: 1 ..       3
  |        1         2         3 Total ovlp3fn data transfer [GB]   8.0878398148342967E-004
  Average sparsity of tmp1/2 0.50000000
  Average sparsity of fock_matrix_row 0.02000000
  Full exact exchange energy: weighted long- and short-range EXX    269.087677140318 eV.
  Times            DM_x_o3fn   CM_prod_1   CM_prod_2   tmp2_prod        Sync   Imbalance       Other  Total calc
  | Times    0:        0.000       0.001       0.000       0.000       0.000       0.000       0.009       0.011
  | Times    1:        0.000       0.000       0.000       0.000       0.000       0.001       0.009       0.011
  | Times    2:        0.000       0.001       0.001       0.000       0.000       0.000       0.009       0.011
  | Times    3:        0.000       0.001       0.000       0.000       0.000       0.001       0.009       0.011
  | Times    4:        0.000       0.001       0.000       0.000       0.000       0.000       0.009       0.011
  | Times    5:        0.000       0.000       0.000       0.000       0.000       0.001       0.009       0.011
  | Times    6:        0.000       0.001       0.001       0.000       0.000       0.000       0.009       0.012
  | Times    7:        0.000       0.001       0.000       0.000       0.000       0.001       0.009       0.011
  | Times    8:        0.000       0.001       0.000       0.000       0.000       0.000       0.009       0.011
  | Times    9:        0.000       0.001       0.000       0.000       0.000       0.001       0.009       0.011
  | Times   10:        0.000       0.001       0.001       0.000       0.000       0.000       0.009       0.011
  | Times   11:        0.000       0.001       0.000       0.000       0.000       0.001       0.009       0.011
  | Times   12:        0.000       0.001       0.001       0.000       0.000       0.001       0.009       0.011
  | Times   13:        0.000       0.001       0.000       0.000       0.000       0.001       0.009       0.011
  | Times   14:        0.000       0.001       0.001       0.000       0.000       0.000       0.009       0.011
  | Times   15:        0.000       0.001       0.000       0.000       0.000       0.001       0.009       0.011
  | Times   16:        0.000       0.001       0.001       0.000       0.000       0.000       0.008       0.011
  | Times   17:        0.000       0.001       0.000       0.000       0.000       0.001       0.008       0.011
  | Times   18:        0.000       0.001       0.001       0.000       0.000       0.001       0.008       0.011
  | Times   19:        0.000       0.001       0.000       0.000       0.000       0.001       0.008       0.011
  | Times   20:        0.000       0.001       0.001       0.000       0.000       0.001       0.008       0.011
  | Times   21:        0.000       0.001       0.000       0.000       0.000       0.002       0.008       0.011
  | Times   22:        0.000       0.001       0.001       0.000       0.000       0.000       0.008       0.011
  | Times   23:        0.000       0.001       0.000       0.000       0.000       0.002       0.008       0.011
  | Times   24:        0.000       0.001       0.001       0.000       0.000       0.001       0.009       0.011
  | Times   25:        0.000       0.001       0.000       0.000       0.000       0.001       0.009       0.011
  | Times   26:        0.000       0.001       0.001       0.000       0.000       0.000       0.009       0.011
  | Times   27:        0.000       0.001       0.000       0.000       0.000       0.001       0.009       0.011
  | Times   28:        0.000       0.001       0.001       0.000       0.000       0.001       0.009       0.011
  | Times   29:        0.000       0.001       0.000       0.000       0.000       0.001       0.009       0.011
  | Times   30:        0.000       0.001       0.001       0.000       0.000       0.000       0.009       0.011
  | Times   31:        0.000       0.001       0.000       0.000       0.000       0.001       0.009       0.011
  | Times   32:        0.000       0.001       0.000       0.000       0.000       0.001       0.009       0.011
  | Times   33:        0.000       0.001       0.000       0.000       0.000       0.001       0.009       0.011
  | Times   34:        0.000       0.001       0.000       0.000       0.000       0.000       0.009       0.011
  | Times   35:        0.000       0.001       0.000       0.000       0.000       0.001       0.009       0.011
  | Times   36:        0.000       0.001       0.000       0.000       0.000       0.001       0.009       0.011
  | Times   37:        0.000       0.001       0.000       0.000       0.000       0.000       0.009       0.011
  | Times   38:        0.000       0.001       0.000       0.000       0.000       0.000       0.009       0.011
  | Times   39:        0.000       0.001       0.000       0.000       0.000       0.000       0.009       0.011
  | Times   40:        0.000       0.001       0.000       0.000       0.000       0.001       0.009       0.011
  | Times   41:        0.000       0.001       0.000       0.000       0.000       0.000       0.009       0.011
  | Times   42:        0.000       0.001       0.000       0.000       0.000       0.000       0.009       0.011
  | Times   43:        0.000       0.001       0.000       0.000       0.000       0.000       0.009       0.011
  | Times   44:        0.000       0.001       0.000       0.000       0.000       0.001       0.009       0.011
  | Times   45:        0.000       0.001       0.000       0.000       0.000       0.000       0.009       0.011
  | Times   46:        0.000       0.001       0.000       0.000       0.000       0.000       0.009       0.011
  | Times   47:        0.000       0.001       0.000       0.000       0.000       0.000       0.009       0.011
  | Times   48:        0.000       0.001       0.000       0.000       0.000       0.001       0.009       0.011
  | Times   49:        0.000       0.001       0.001       0.000       0.000       0.000       0.009       0.011
  | Times   50:        0.000       0.001       0.000       0.000       0.000       0.001       0.009       0.011
  | Times   51:        0.000       0.001       0.001       0.000       0.000       0.000       0.009       0.011
  | Times   52:        0.000       0.001       0.000       0.000       0.000       0.001       0.009       0.011
  | Times   53:        0.000       0.001       0.000       0.000       0.000       0.000       0.009       0.011
  | Times   54:        0.000       0.001       0.000       0.000       0.000       0.000       0.009       0.011
  | Times   55:        0.000       0.001       0.000       0.000       0.000       0.000       0.009       0.011
  | Times   56:        0.000       0.001       0.000       0.000       0.000       0.001       0.009       0.011
  | Times   57:        0.000       0.001       0.001       0.000       0.000       0.000       0.009       0.011
  | Times   58:        0.000       0.001       0.000       0.000       0.000       0.001       0.009       0.011
  | Times   59:        0.000       0.001       0.001       0.000       0.000       0.000       0.009       0.011
  | Times   60:        0.000       0.001       0.000       0.000       0.000       0.001       0.009       0.011
  | Times   61:        0.000       0.001       0.000       0.000       0.000       0.000       0.009       0.011
  | Times   62:        0.000       0.001       0.000       0.000       0.000       0.000       0.009       0.011
  | Times   63:        0.000       0.001       0.000       0.000       0.000       0.000       0.009       0.011
  | Times  sum:        0.016       0.042       0.018       0.016       0.019       0.041       0.570       0.721

  Decomposition of Other based on code block (only on MPI task 0):
  Times             Block #1    Block #2    Block #3    Block #4    Block #5    Block #6    Block #7    Block #8
  | Times    0:        0.000       0.000       0.000       0.000       0.000       0.000       0.000       0.000

  Times             Block #9   Block #10   Block #11   Block #12   Block #13   Block #14   Block #15   Block #16
  | Times    0:        0.000       0.000       0.000       0.003       0.000       0.004       0.000       0.000

  Times            Block Sum    Expected
  | Times    0:        0.008       0.009
  Time for Fock matrix mixing     0.000

  Updating Kohn-Sham eigenvalues and eigenvectors using ELSI and the ELPA eigensolver.
  Starting ELPA eigensolver
  Finished transformation to standard eigenproblem
  | Time :     0.000 s
  Finished solving standard eigenproblem
  | Time :     0.001 s
  Finished back-transformation of eigenvectors
  | Time :     0.000 s

  Obtaining occupation numbers and electronic chemical potential using ELSI.
  | Note that, for insulating systems, the printed 'chemical potential' value is not uniquely defined.
  | It can be anywhere in the energy gap, as long as it correctly separates occupied and unoccupied states.
  | In systems with a gap, the physically relevant chemical potential is the VBM or HOMO.

  | Chemical potential (Fermi level):    -5.41097988 eV
  Highest occupied state (VBM) at     -8.32340195 eV
  | Occupation number:      2.00000000

  Lowest unoccupied state (CBM) at    -2.49855781 eV
  | Occupation number:      0.00000000

  Overall HOMO-LUMO gap:      5.82484414 eV.

  Total energy components:
  | Sum of eigenvalues            :        -340.02486118 Ha       -9252.54723700 eV
  | XC energy correction          :         -22.32309006 Ha        -607.44218688 eV
  | XC potential correction       :          44.10829569 Ha        1200.24779366 eV
  | Free-atom electrostatic energy:        -265.56026682 Ha       -7226.26252847 eV
  | Hartree energy correction     :          -1.95332490 Ha         -53.15267503 eV
  | Entropy correction            :          -0.00000000 Ha          -0.00000000 eV
  | ---------------------------
  | Total energy                  :        -585.75324727 Ha      -15939.15683372 eV
  | Total energy, T -> 0          :        -585.75324727 Ha      -15939.15683372 eV  <-- do not rely on this value for anything but (periodic) metals
  | Electronic free energy        :        -585.75324727 Ha      -15939.15683372 eV

  Derived energy quantities:
  | Kinetic energy                :         587.82216037 Ha       15995.45482341 eV
  | Electrostatic energy          :       -1131.47473796 Ha      -30788.99414679 eV
  | Energy correction for multipole
  | error in Hartree potential    :          -0.00027752 Ha          -0.00755174 eV
  | Sum of eigenvalues per atom                           :       -4626.27361850 eV
  | Total energy (T->0) per atom                          :       -7969.57841686 eV  <-- do not rely on this value for anything but (periodic) metals
  | Electronic free energy per atom                       :       -7969.57841686 eV
  Evaluating new KS density.
  Integration grid: deviation in total charge (<rho> - N_e) =   3.552714E-15

  Self-consistency convergence accuracy:
  | Change of charge density      :  0.2299E-05
  | Change of unmixed KS density  :  0.1902E-06
  | Change of sum of eigenvalues  : -0.9972E-03 eV
  | Change of total energy        : -0.2420E-04 eV


------------------------------------------------------------
  End self-consistency iteration #    19       :  max(cpu_time)    wall_clock(cpu1)
  | Time for this iteration                     :        0.278 s           0.262 s
  | Charge density update                       :        0.001 s           0.002 s
  | Density mixing                              :        0.260 s           0.242 s
  | Hartree multipole update                    :        0.001 s           0.001 s
  | Hartree multipole summation                 :        0.002 s           0.002 s
  | Integration                                 :        0.002 s           0.002 s
  | Fock matrix evaluation                      :        0.012 s           0.012 s
  | Solution of K.-S. eqns.                     :        0.001 s           0.001 s
  | Total energy evaluation                     :        0.000 s           0.000 s

  Partial memory accounting:
  | Current value for overall tracked memory usage:
  |   Minimum:        1.827 MB (on task  2)
  |   Maximum:        2.129 MB (on task 21)
  |   Average:        1.953 MB
  | Peak value for overall tracked memory usage:
  |   Minimum:        2.354 MB (on task  2 after allocating wave)
  |   Maximum:        3.978 MB (on task  0 after allocating wave)
  |   Average:        2.574 MB
  | Largest tracked array allocation so far:
  |   Minimum:        1.383 MB (ovlp3fn2%dat on task  2)
  |   Maximum:        1.621 MB (ovlp3fn2%dat on task  0)
  |   Average:        1.491 MB
  Note:  These values currently only include a subset of arrays which are explicitly tracked.
  The "true" memory usage will be greater.
------------------------------------------------------------

------------------------------------------------------------
          Begin self-consistency iteration #   20

  Date     :  20260724, Time     :  094003.508
------------------------------------------------------------
  Pulay mixing of updated and previous charge densities.
  Available memory per node after mixing [GB]:    984.78
  Renormalizing the density to the exact electron count on the 3D integration grid.
  | Formal number of electrons (from input files) :      28.0000000000
  | Integrated number of electrons on 3D grid     :      28.0000000000
  | Charge integration error                      :      -0.0000000000
  | Normalization factor for density and gradient :       1.0000000000

  Evaluating partitioned Hartree potential by multipole expansion.
  | Original multipole sum: apparent total charge =  -0.664139E-14
  | Sum of charges compensated after spline to logarithmic grids =   0.848662E-06
  | Analytical far-field extrapolation by fixed multipoles:
  | Hartree multipole sum: apparent total charge =  -0.575587E-14
  Summing up the Hartree potential.
  Time summed over all CPUs for potential: real work        0.001 s, elapsed        0.002 s
  | RMS charge density error from multipole expansion :   0.261080E-02

  Integrating Hamiltonian matrix: batch-based integration.
  Time summed over all CPUs for integration: real work        0.095 s, elapsed        0.109 s
  Calculating non-local Hartree-Fock exchange by two-center RI (RI-LVL).
  screening_threshold (crit_val) =  0.000000100000
  Exact exchange progress report - outermost block loop i_block: 1 ..       4
  |        1         2         3         4 Total ovlp3fn data transfer [GB]   1.0801839816849679E-003
  Average sparsity of tmp1/2 0.50000000
  Average sparsity of fock_matrix_row 0.02000000
  Full exact exchange energy: weighted long- and short-range EXX    269.087658206977 eV.
  Times            DM_x_o3fn   CM_prod_1   CM_prod_2   tmp2_prod        Sync   Imbalance       Other  Total calc
  | Times    0:        0.000       0.001       0.001       0.000       0.000       0.001       0.007       0.010
  | Times    1:        0.000       0.001       0.000       0.000       0.000       0.001       0.007       0.010
  | Times    2:        0.000       0.001       0.001       0.000       0.000       0.000       0.006       0.010
  | Times    3:        0.000       0.001       0.000       0.000       0.000       0.001       0.007       0.010
  | Times    4:        0.000       0.001       0.000       0.000       0.000       0.000       0.007       0.010
  | Times    5:        0.000       0.001       0.000       0.000       0.000       0.001       0.007       0.010
  | Times    6:        0.000       0.001       0.001       0.000       0.000       0.000       0.007       0.010
  | Times    7:        0.000       0.001       0.000       0.000       0.000       0.001       0.007       0.010
  | Times    8:        0.000       0.001       0.000       0.000       0.000       0.001       0.007       0.010
  | Times    9:        0.000       0.001       0.000       0.000       0.000       0.001       0.007       0.010
  | Times   10:        0.000       0.001       0.001       0.000       0.000       0.000       0.007       0.010
  | Times   11:        0.000       0.001       0.000       0.000       0.000       0.001       0.007       0.010
  | Times   12:        0.000       0.000       0.000       0.000       0.000       0.000       0.008       0.010
  | Times   13:        0.000       0.001       0.000       0.000       0.000       0.000       0.008       0.010
  | Times   14:        0.000       0.000       0.000       0.000       0.000       0.000       0.008       0.010
  | Times   15:        0.000       0.001       0.000       0.000       0.000       0.000       0.008       0.010
  | Times   16:        0.000       0.000       0.000       0.000       0.000       0.000       0.008       0.010
  | Times   17:        0.000       0.001       0.000       0.000       0.000       0.000       0.008       0.010
  | Times   18:        0.000       0.000       0.000       0.000       0.000       0.000       0.008       0.010
  | Times   19:        0.000       0.001       0.000       0.000       0.000       0.000       0.008       0.010
  | Times   20:        0.000       0.000       0.000       0.000       0.000       0.000       0.008       0.010
  | Times   21:        0.000       0.001       0.000       0.000       0.000       0.000       0.008       0.010
  | Times   22:        0.000       0.001       0.000       0.000       0.000       0.000       0.008       0.010
  | Times   23:        0.000       0.001       0.000       0.000       0.000       0.000       0.008       0.010
  | Times   24:        0.000       0.000       0.000       0.000       0.000       0.001       0.008       0.010
  | Times   25:        0.000       0.001       0.000       0.000       0.000       0.001       0.007       0.010
  | Times   26:        0.000       0.001       0.001       0.000       0.000       0.000       0.007       0.010
  | Times   27:        0.000       0.001       0.000       0.000       0.000       0.001       0.007       0.010
  | Times   28:        0.000       0.001       0.000       0.000       0.000       0.000       0.007       0.010
  | Times   29:        0.000       0.001       0.000       0.000       0.000       0.001       0.007       0.010
  | Times   30:        0.000       0.001       0.001       0.000       0.000       0.000       0.007       0.010
  | Times   31:        0.000       0.001       0.000       0.000       0.000       0.001       0.007       0.010
  | Times   32:        0.000       0.001       0.000       0.000       0.000       0.000       0.007       0.010
  | Times   33:        0.000       0.001       0.000       0.000       0.000       0.001       0.007       0.010
  | Times   34:        0.000       0.001       0.001       0.000       0.000       0.000       0.007       0.010
  | Times   35:        0.000       0.001       0.000       0.000       0.000       0.001       0.007       0.010
  | Times   36:        0.000       0.001       0.000       0.000       0.000       0.001       0.007       0.010
  | Times   37:        0.000       0.001       0.000       0.000       0.000       0.000       0.007       0.010
  | Times   38:        0.000       0.001       0.000       0.000       0.000       0.000       0.008       0.010
  | Times   39:        0.000       0.001       0.000       0.000       0.000       0.000       0.008       0.010
  | Times   40:        0.000       0.001       0.000       0.000       0.000       0.001       0.007       0.010
  | Times   41:        0.000       0.001       0.001       0.000       0.000       0.000       0.007       0.010
  | Times   42:        0.000       0.001       0.000       0.000       0.000       0.001       0.007       0.010
  | Times   43:        0.000       0.001       0.001       0.000       0.000       0.000       0.007       0.010
  | Times   44:        0.000       0.001       0.000       0.000       0.000       0.001       0.007       0.010
  | Times   45:        0.000       0.001       0.000       0.000       0.000       0.000       0.007       0.010
  | Times   46:        0.000       0.001       0.000       0.000       0.000       0.000       0.008       0.010
  | Times   47:        0.000       0.001       0.000       0.000       0.000       0.000       0.007       0.010
  | Times   48:        0.000       0.001       0.000       0.000       0.000       0.001       0.007       0.010
  | Times   49:        0.000       0.001       0.001       0.000       0.000       0.000       0.007       0.010
  | Times   50:        0.000       0.001       0.000       0.000       0.000       0.000       0.007       0.010
  | Times   51:        0.000       0.001       0.001       0.000       0.000       0.000       0.007       0.010
  | Times   52:        0.000       0.001       0.000       0.000       0.000       0.001       0.007       0.010
  | Times   53:        0.000       0.001       0.001       0.000       0.000       0.000       0.007       0.010
  | Times   54:        0.000       0.001       0.000       0.000       0.000       0.000       0.007       0.010
  | Times   55:        0.000       0.001       0.001       0.000       0.000       0.000       0.007       0.010
  | Times   56:        0.000       0.001       0.000       0.000       0.000       0.001       0.007       0.010
  | Times   57:        0.000       0.001       0.001       0.000       0.000       0.000       0.007       0.010
  | Times   58:        0.000       0.001       0.000       0.000       0.000       0.000       0.007       0.010
  | Times   59:        0.000       0.001       0.001       0.000       0.000       0.000       0.007       0.010
  | Times   60:        0.000       0.001       0.000       0.000       0.000       0.001       0.007       0.010
  | Times   61:        0.000       0.001       0.000       0.000       0.000       0.000       0.008       0.010
  | Times   62:        0.000       0.001       0.000       0.000       0.000       0.000       0.008       0.010
  | Times   63:        0.000       0.001       0.000       0.000       0.000       0.000       0.008       0.010
  | Times  sum:        0.016       0.042       0.015       0.016       0.019       0.030       0.471       0.610

  Decomposition of Other based on code block (only on MPI task 0):
  Times             Block #1    Block #2    Block #3    Block #4    Block #5    Block #6    Block #7    Block #8
  | Times    0:        0.000       0.000       0.000       0.000       0.000       0.000       0.000       0.000

  Times             Block #9   Block #10   Block #11   Block #12   Block #13   Block #14   Block #15   Block #16
  | Times    0:        0.000       0.000       0.000       0.001       0.000       0.004       0.000       0.000

  Times            Block Sum    Expected
  | Times    0:        0.006       0.007
  Time for Fock matrix mixing     0.000

  Updating Kohn-Sham eigenvalues and eigenvectors using ELSI and the ELPA eigensolver.
  Starting ELPA eigensolver
  Finished transformation to standard eigenproblem
  | Time :     0.001 s
  Finished solving standard eigenproblem
  | Time :     0.000 s
  Finished back-transformation of eigenvectors
  | Time :     0.000 s

  Obtaining occupation numbers and electronic chemical potential using ELSI.
  | Note that, for insulating systems, the printed 'chemical potential' value is not uniquely defined.
  | It can be anywhere in the energy gap, as long as it correctly separates occupied and unoccupied states.
  | In systems with a gap, the physically relevant chemical potential is the VBM or HOMO.

  | Chemical potential (Fermi level):    -5.41098040 eV
  Highest occupied state (VBM) at     -8.32340166 eV
  | Occupation number:      2.00000000

  Lowest unoccupied state (CBM) at    -2.49855914 eV
  | Occupation number:      0.00000000

  Overall HOMO-LUMO gap:      5.82484252 eV.

  Total energy components:
  | Sum of eigenvalues            :        -340.02486216 Ha       -9252.54726385 eV
  | XC energy correction          :         -22.32309005 Ha        -607.44218664 eV
  | XC potential correction       :          44.10829560 Ha        1200.24779117 eV
  | Free-atom electrostatic energy:        -265.56026682 Ha       -7226.26252847 eV
  | Hartree energy correction     :          -1.95332382 Ha         -53.15264546 eV
  | Entropy correction            :          -0.00000000 Ha          -0.00000000 eV
  | ---------------------------
  | Total energy                  :        -585.75324726 Ha      -15939.15683324 eV
  | Total energy, T -> 0          :        -585.75324726 Ha      -15939.15683324 eV  <-- do not rely on this value for anything but (periodic) metals
  | Electronic free energy        :        -585.75324726 Ha      -15939.15683324 eV

  Derived energy quantities:
  | Kinetic energy                :         587.82215982 Ha       15995.45480835 eV
  | Electrostatic energy          :       -1131.47473751 Ha      -30788.99413449 eV
  | Energy correction for multipole
  | error in Hartree potential    :          -0.00027752 Ha          -0.00755170 eV
  | Sum of eigenvalues per atom                           :       -4626.27363192 eV
  | Total energy (T->0) per atom                          :       -7969.57841662 eV  <-- do not rely on this value for anything but (periodic) metals
  | Electronic free energy per atom                       :       -7969.57841662 eV

  Self-consistency convergence accuracy:
  | Change of charge density      :  0.9283E-06
  | Change of unmixed KS density  :  0.1769E-05
  | Change of sum of eigenvalues  : -0.2685E-04 eV
  | Change of total energy        :  0.4748E-06 eV

  Writing Kohn-Sham eigenvalues.

  State    Occupation    Eigenvalue [Ha]    Eigenvalue [eV]
      1       2.00000         -77.766062        -2116.12221
      2       2.00000         -56.554932        -1538.93801
      3       2.00000          -6.733762         -183.23499
      4       2.00000          -4.814357         -131.00532
      5       2.00000          -4.804301         -130.73169
      6       2.00000          -4.804301         -130.73169
      7       2.00000          -4.340913         -118.12224
      8       2.00000          -2.839503          -77.26681
      9       2.00000          -2.831255          -77.04237
     10       2.00000          -2.831255          -77.04237
     11       2.00000          -0.688572          -18.73701
     12       2.00000          -0.391458          -10.65212
     13       2.00000          -0.305879           -8.32340
     14       2.00000          -0.305879           -8.32340
     15       0.00000          -0.091820           -2.49856
     16       0.00000           0.031553            0.85860
     17       0.00000           0.031553            0.85860
     18       0.00000           0.119620            3.25501
     19       0.00000           0.212200            5.77425
     20       0.00000           0.212200            5.77426

  Highest occupied state (VBM) at     -8.32340166 eV
  | Occupation number:      2.00000000

  Lowest unoccupied state (CBM) at    -2.49855914 eV
  | Occupation number:      0.00000000

  Overall HOMO-LUMO gap:      5.82484252 eV.

  | Chemical Potential                          :    -5.41098040 eV
  | Note that, for insulating systems, the printed 'chemical potential' value is not uniquely defined.
  | It can be anywhere in the energy gap, as long as it correctly separates occupied and unoccupied states.
  | In systems with a gap, the physically relevant chemical potential is the VBM or HOMO.

  Self-consistency cycle converged.


------------------------------------------------------------
  End self-consistency iteration #    20       :  max(cpu_time)    wall_clock(cpu1)
  | Time for this iteration                     :        0.264 s           0.262 s
  | Charge density update                       :        0.000 s           0.000 s
  | Density mixing                              :        0.247 s           0.245 s
  | Hartree multipole update                    :        0.001 s           0.001 s
  | Hartree multipole summation                 :        0.002 s           0.002 s
  | Integration                                 :        0.002 s           0.002 s
  | Fock matrix evaluation                      :        0.010 s           0.010 s
  | Solution of K.-S. eqns.                     :        0.001 s           0.001 s
  | Total energy evaluation                     :        0.000 s           0.000 s

  Partial memory accounting:
  | Current value for overall tracked memory usage:
  |   Minimum:        1.827 MB (on task  2)
  |   Maximum:        2.129 MB (on task 21)
  |   Average:        1.953 MB
  | Peak value for overall tracked memory usage:
  |   Minimum:        2.354 MB (on task  2 after allocating wave)
  |   Maximum:        3.978 MB (on task  0 after allocating wave)
  |   Average:        2.574 MB
  | Largest tracked array allocation so far:
  |   Minimum:        1.383 MB (ovlp3fn2%dat on task  2)
  |   Maximum:        1.621 MB (ovlp3fn2%dat on task  0)
  |   Average:        1.491 MB
  Note:  These values currently only include a subset of arrays which are explicitly tracked.
  The "true" memory usage will be greater.
------------------------------------------------------------

  Energy and forces in a compact form:
  | Total energy uncorrected      :         -0.159391568332444E+05 eV
  | Total energy corrected        :         -0.159391568332444E+05 eV  <-- do not rely on this value for anything but (periodic) metals
  | Electronic free energy        :         -0.159391568332444E+05 eV

  ------------------------------------ 
  Start decomposition of the XC Energy 
  ------------------------------------ 
  Since you specified a libxc flag with exchange and correlation combined, only the total XC energy is shown below.
  Hartree-Fock Energy :         -9.888789679 Ha           -269.087658207 eV
  XC Energy w/o HF    :        -32.211879806 Ha           -876.529846870 eV
  Total XC Energy     :        -42.100669485 Ha          -1145.617505077 eV
  ------------------------------------ 
  LDA X and C from self-consistent density 
  X Energy LDA        :        -37.584762740 Ha          -1022.733430246 eV
  C Energy LDA        :         -2.128798652 Ha            -57.927558629 eV
  ------------------------------------ 
  End decomposition of the XC Energy 
  ------------------------------------ 

------------------------------------------------------------

------------------------------------------------------------------------------
  Final output of selected total energy values:

  The following output summarizes some interesting total energy values
  at the end of a run (AFTER all relaxation, molecular dynamics, etc.).

  | Total energy of the DFT / Hartree-Fock s.c.f. calculation      :         -15939.156833244 eV
  | Final zero-broadening corrected energy (caution - metals only) :         -15939.156833244 eV
  | For reference only, the value of 1 Hartree used in FHI-aims is :             27.211384500 eV

  Before relying on these values, please be sure to understand exactly which
  total energy value is referred to by a given number. Different objects may
  all carry the same name 'total energy'. Definitions:

  Total energy of the DFT / Hartree-Fock s.c.f. calculation:
  | Note that this energy does not include ANY quantities calculated after the
  | s.c.f. cycle, in particular not ANY RPA, MP2, etc. many-body perturbation terms.

  Final zero-broadening corrected energy:
  | For metallic systems only, a broadening of the occupation numbers at the Fermi
  | level can be extrapolated back to zero broadening by an electron-gas inspired
  | formula. For all systems that are not real metals, this value can be
  | meaningless and should be avoided.

------------------------------------------------------------------------------
  Methods described in the following list of references were used in this FHI-aims run.
  If you publish the results, please make sure to cite these reference if they apply.
  FHI-aims is an academic code, and for our developers (often, Ph.D. students
  and postdocs), scientific credit in the community is essential.
  Thank you for helping us!

  For any use of FHI-aims, please cite:

    Volker Blum, Ralf Gehrke, Felix Hanke, Paula Havu, Ville Havu,
    Xinguo Ren, Karsten Reuter, and Matthias Scheffler
    'Ab initio molecular simulations with numeric atom-centered orbitals'
    Computer Physics Communications 180, 2175-2196 (2009)
    http://doi.org/10.1016/j.cpc.2009.06.022


  For Hartree-Fock, hybrid functionals, or many-body perturbation theory used in your run, please cite:

    Xinguo Ren, Patrick Rinke, Volker Blum, Juergen Wieferink, Alex Tkatchenko,
    Andrea Sanfilippo, Karsten Reuter, and Matthias Scheffler,
    'Resolution-of-identity approach to Hartree-Fock, hybrid density functionals,
    RPA, MP2, and GW with numeric atom-centered orbital basis functions'
    New Journal of Physics 14, 053020 (2012).
    http://doi.org/10.1088/1367-2630/14/5/053020


  For using hybrid functionals or Hartree-Fock in FHI-aims, please cite

    Sergey V. Levchenko, Xinguo Ren, Juergen Wieferink, Rainer Joahanni,
    Patrick Rinke, Volker Blum, and Matthias Scheffler
    Hybrid functionals for large periodic systems in an all-electron,
    numeric atom-centered basis framework

    Comput. Phys. Commun. 192, 60-69 (2015)
    https://doi.org/10.1016/j.cpc.2015.02.021


  For using hybrid functionals or Hartree-Fock in FHI-aims, please also cite

    Sebastian Kokott, Florian Merz, Yi Yao, Christian Carbogno, Mariana Rossi,
    Ville Havu, Markus Rampp, Matthias Scheffler, and Volker Blum
    Efficient all-electron hybrid density functionals for atomistic simulations
    beyond 10,000 atoms

    J. Chem. Phys. 161, 024112 (2024)
    https://doi.org/10.1063/5.0208103


  The ELSI infrastructure was used in your run to solve the Kohn-Sham electronic structure.
  Please check out https://wordpress.elsi-interchange.org to learn more.
  If scalability is important for your project, please acknowledge ELSI by citing:

    V. W-z. Yu, F. Corsetti, A. Garcia, W. P. Huhn, M. Jacquelin, W. Jia,
    B. Lange, L. Lin, J. Lu, W. Mi, A. Seifitokaldani, A. Vazquez-Mayagoitia,
    C. Yang, H. Yang, and V. Blum
    'ELSI: A unified software interface for Kohn-Sham electronic structure solvers'
    Computer Physics Communications 222, 267-285 (2018).
    http://doi.org/10.1016/j.cpc.2017.09.007


  For the real-space grid partitioning and parallelization used in this calculation, please cite:

    Ville Havu, Volker Blum, Paula Havu, and Matthias Scheffler,
    'Efficient O(N) integration for all-electron electronic structure calculation'
    'using numerically tabulated basis functions'
    Journal of Computational Physics 228, 8367-8379 (2009).
    http://doi.org/10.1016/j.jcp.2009.08.008


  The high-level electronic structure method used in your calculation
  employed our efficient localized resolution of identity for the Coulomb operator.
  Some calculations, especially large-scale hybrid density functional theory,
  are only possible thanks to this development. For this feature, please cite:

    Arvid Ihrig, Juergen Wieferink, Igor Ying Zhang, Matti Ropo, Xinguo Ren,
    Patrick Rinke, Matthias Scheffler, and Volker Blum,
    'Accurate localized resolution of identity approach for linear-scaling
    hybrid density functionals and for many-body perturbation theory'
    New Journal of Physics 117, 093020 (2015).
    http://doi.org/10.1088/1367-2630/17/9/093020

  Of course, there are many other important community references, e.g., those cited in the
  above references. Our list is limited to references that describe implementations in the
  FHI-aims code. The reason is purely practical (length of this list) - please credit others as well.
------------------------------------------------------------
Warnings summary:

At least    2 warnings were raised during execution.

------------------------------------------------------------
          Leaving FHI-aims.
          Date     :  20260724, Time     :  094004.035

          Computational steps:
          | Number of self-consistency cycles          :           20
          | Number of SCF (re)initializations          :            1

          Detailed time accounting                     :  max(cpu_time)    wall_clock(cpu1)
          | Total time                                  :        6.616 s           8.838 s
          | Preparation time                            :        0.231 s           0.632 s
          | Boundary condition initalization            :        0.002 s           0.001 s
          | Grid partitioning                           :        0.016 s           0.016 s
          | Preloading free-atom quantities on grid     :        0.004 s           0.004 s
          | Free-atom superposition energy              :        0.001 s           0.001 s
          | Total time for integrations                 :        0.047 s           0.046 s
          | Product basis setup: Total time             :        1.718 s           1.803 s
          | Total time evaluating exchange matrix       :        0.331 s           0.325 s
          | Total time for solution of K.-S. equations  :        0.193 s           0.214 s
          | Total time for density update               :        0.024 s           0.025 s
          | Total time for mixing                       :        4.897 s           3.755 s
          | Total time for Hartree multipole update     :        0.021 s           0.020 s
          | Total time for Hartree multipole sum        :        0.038 s           0.041 s
          | Total time for total energy evaluation      :        0.002 s           0.002 s
          | Total time for scaled ZORA corrections      :        0.000 s           0.000 s

          Partial memory accounting:
          | Residual value for overall tracked memory usage across tasks:     0.000000 MB (should be 0.000000 MB)
          | Peak values for overall tracked memory usage:
          |   Minimum:        2.354 MB (on task  2 after allocating wave)
          |   Maximum:        3.978 MB (on task  0 after allocating wave)
          |   Average:        2.574 MB
          | Largest tracked array allocation:
          |   Minimum:        1.383 MB (ovlp3fn2%dat on task  2)
          |   Maximum:        1.621 MB (ovlp3fn2%dat on task  0)
          |   Average:        1.491 MB
          Note:  These values currently only include a subset of arrays which are explicitly tracked.
          The "true" memory usage will be greater.

          Have a nice day.
------------------------------------------------------------
