------------------------------------------------------------
          Invoking FHI-aims ...

          When using FHI-aims, please cite the following reference:

            Volker Blum, Ralf Gehrke, Felix Hanke, Paula Havu,
            Ville Havu, Xinguo Ren, Karsten Reuter, and Matthias Scheffler,
            'Ab Initio Molecular Simulations with Numeric Atom-Centered Orbitals',
            Computer Physics Communications 180, 2175-2196 (2009)

          In addition, many other developments in FHI-aims are likely important for
          your particular application. If so, please cite them. A partial list of references
          is written at the end of this file. Thank you for giving credit to the authors
          of these developments.

          For general information about FHI-aims please find us at

            https://fhi-aims.org

          Online tutorials can be found at

            https://fhi-aims-club.gitlab.io/tutorials/tutorials-overview/

          For any questions about FHI-aims, please visit our slack channel at

            https://fhi-aims.slack.com

          and our main development and support site at

            https://aims-git.rz-berlin.mpg.de .

          The latter site, in particular, has a wiki to collect information, as well
          as an issue tracker to log discussions, suggest improvements, and report issues
          or bugs. https://aims-git.rz-berlin.mpg.de is also the main development site
          of the project and all new and updated code versions can be obtained there.
          Please send an email to aims-coordinators@ms1p.org and we will add
          you to these sites. They are for you and everyone is welcome there.

------------------------------------------------------------



  Date     :  20260724, Time     :  093629.555
  Time zero on CPU 1             :   0.323900000000000E+00  s.
  Internal wall clock time zero  :           554117789.555  s.

  FHI-aims created a unique identifier for this run for later identification
  aims_uuid : 01B26070-1698-4730-A6EE-A44154E03236

  Build configuration of the current instance of FHI-aims
  -------------------------------------------------------
  FHI-aims version      : 260331
  Commit number         : GITDIR-NOTFOUND
  CMake host system     : Linux-4.18.0-553.97.1.el8_10.x86_64
  CMake version         : 3.31.6
  OS Distribution       : Rocky Linux 8.10 (Green Obsidian)
  Built on              : Intel(R) Xeon(R) w5-3435X
  Fortran compiler      : /mnt/sw/nix/store/pa59vldasm7gxpr7dkijhk09q5qq63q1-openmpi-4.1.8/bin/mpifort (GNU) version 13.3.0
  Fortran compiler flags: -O2 -fallow-argument-mismatch -ffree-line-length-none
  C compiler            : /mnt/sw/nix/store/pa59vldasm7gxpr7dkijhk09q5qq63q1-openmpi-4.1.8/bin/mpicc (GNU) version 13.3.0
  C compiler flags      : -O2
  C++ compiler          : /mnt/sw/nix/store/pa59vldasm7gxpr7dkijhk09q5qq63q1-openmpi-4.1.8/bin/mpicxx (GNU) version 13.3.0
  C++ compiler flags    : -O2
  HIP compiler          :
  HIP compiler flags    :
  HIP GPU arch          :
  Using MPI
  Using ScaLAPACK
  Using LibXC
  Using i-PI
  Using RLSY
  Using GREENX
  Linking against: /mnt/sw/nix/store/dwd607jzx9m5bdd100br72s3b6g05zrf-intel-oneapi-mkl-2024.2.2/mkl/2024.2/lib/libmkl_intel_lp64.so
                   /mnt/sw/nix/store/dwd607jzx9m5bdd100br72s3b6g05zrf-intel-oneapi-mkl-2024.2.2/mkl/2024.2/lib/libmkl_sequential.so
                   /mnt/sw/nix/store/dwd607jzx9m5bdd100br72s3b6g05zrf-intel-oneapi-mkl-2024.2.2/mkl/2024.2/lib/libmkl_core.so
                   /mnt/sw/nix/store/dwd607jzx9m5bdd100br72s3b6g05zrf-intel-oneapi-mkl-2024.2.2/mkl/2024.2/lib/libmkl_blacs_openmpi_lp64.so
                   /mnt/sw/nix/store/dwd607jzx9m5bdd100br72s3b6g05zrf-intel-oneapi-mkl-2024.2.2/mkl/2024.2/lib/libmkl_scalapack_lp64.so

  Using       64 parallel tasks.
  Task        0 on host worker6033 reporting.
  Task        1 on host worker6033 reporting.
  Task        2 on host worker6033 reporting.
  Task        3 on host worker6033 reporting.
  Task        4 on host worker6033 reporting.
  Task        5 on host worker6033 reporting.
  Task        6 on host worker6033 reporting.
  Task        7 on host worker6033 reporting.
  Task        8 on host worker6033 reporting.
  Task        9 on host worker6033 reporting.
  Task       10 on host worker6033 reporting.
  Task       11 on host worker6033 reporting.
  Task       12 on host worker6033 reporting.
  Task       13 on host worker6033 reporting.
  Task       14 on host worker6033 reporting.
  Task       15 on host worker6033 reporting.
  Task       16 on host worker6033 reporting.
  Task       17 on host worker6033 reporting.
  Task       18 on host worker6033 reporting.
  Task       19 on host worker6033 reporting.
  Task       20 on host worker6033 reporting.
  Task       21 on host worker6033 reporting.
  Task       22 on host worker6033 reporting.
  Task       23 on host worker6033 reporting.
  Task       24 on host worker6033 reporting.
  Task       25 on host worker6033 reporting.
  Task       26 on host worker6033 reporting.
  Task       27 on host worker6033 reporting.
  Task       28 on host worker6033 reporting.
  Task       29 on host worker6033 reporting.
  Task       30 on host worker6033 reporting.
  Task       31 on host worker6033 reporting.
  Task       32 on host worker6047 reporting.
  Task       33 on host worker6047 reporting.
  Task       34 on host worker6047 reporting.
  Task       35 on host worker6047 reporting.
  Task       36 on host worker6047 reporting.
  Task       37 on host worker6047 reporting.
  Task       38 on host worker6047 reporting.
  Task       39 on host worker6047 reporting.
  Task       40 on host worker6047 reporting.
  Task       41 on host worker6047 reporting.
  Task       42 on host worker6047 reporting.
  Task       43 on host worker6047 reporting.
  Task       44 on host worker6047 reporting.
  Task       45 on host worker6047 reporting.
  Task       46 on host worker6047 reporting.
  Task       47 on host worker6047 reporting.
  Task       48 on host worker6047 reporting.
  Task       49 on host worker6047 reporting.
  Task       50 on host worker6047 reporting.
  Task       51 on host worker6047 reporting.
  Task       52 on host worker6047 reporting.
  Task       53 on host worker6047 reporting.
  Task       54 on host worker6047 reporting.
  Task       55 on host worker6047 reporting.
  Task       56 on host worker6047 reporting.
  Task       57 on host worker6047 reporting.
  Task       58 on host worker6047 reporting.
  Task       59 on host worker6047 reporting.
  Task       60 on host worker6047 reporting.
  Task       61 on host worker6047 reporting.
  Task       62 on host worker6047 reporting.
  Task       63 on host worker6047 reporting.

  Obtaining array dimensions for all initial allocations:
  
  -----------------------------------------------------------------------
  Parsing control.in (first pass over file, find array dimensions only).
  The contents of control.in will be repeated verbatim below
  unless switched off by setting 'verbatim_writeout .false.' .
  in the first line of control.in .
  -----------------------------------------------------------------------
  
  override_warning_libxc             True
  xc                                 libxc HYB_MGGA_XC_WB97M_V
  
  spin                               none
  charge                             0
  
  relativistic                       atomic_zora scalar
  atomic_solver_xc                   pbe
  ionic_solver_xc                    pbe
  
  occupation_type                    gaussian 0.01
  
  sc_accuracy_rho                    1e-06
  sc_accuracy_eev                    1e-03
  sc_accuracy_etot                   1e-06
  occupation_acc                     1e-09
  
  charge_mix_param                   0.1
  n_max_pulay                        8
  max_zeroin                         20000
  
  # Species defaults for Li
  ################################################################################
  #
  #  FHI-aims code project
  #  Volker Blum, Maria Dragoumi, Sebastian Kokott 2020
  #
  #  Suggested "intermediate" defaults for Li atom (to be pasted into control.in file)
  #  Created by analogy to Be atom
  #
  ################################################################################
    species        Li
  #     global species definitions
      nucleus             3
      mass                6.941
  #
      l_hartree           6
  #
      cut_pot             5.0  2.0  1.0
      basis_dep_cutoff    1e-4
  #
      radial_base         29 7.0
      radial_multiplier   2
      angular_grids       specified
        division   0.4484  110
        division   0.5659  194
        division   0.6315  302
        division   0.6662  434
  #      division   0.8186  590
  #      division   0.9037  770
  #      division   6.2760  974
  #      outer_grid   974
        outer_grid  434
  ################################################################################
  #
  #  Definition of "minimal" basis
  #
  ################################################################################
  #     valence basis states
      valence      2  s   1.
  #     ion occupancy
      ion_occ      1  s   2.
  ################################################################################
  #
  #  Suggested additional basis functions. For production calculations,
  #  uncomment them one after another (the most important basis functions are
  #  listed first).
  #
  #  Constructed for dimers: 1.80 A, 2.25 A, 2.75 A, 3.50 A, 4.50 A
  #
  ################################################################################
  #  "First tier" - improvements: -189.23 meV to -6.35 meV
       hydro 2 p 1.6
       hydro 2 s 2
       hydro 3 d 2.6
  #  "Second tier" - improvements: -4.69 meV to -0.41 meV
       hydro 3 p 4.6
  #     hydro 2 p 1.8
  #     hydro 3 s 6.2
  #     hydro 4 d 4.7
    for_aux   hydro 4 f 4.1
  #  "Third tier" - improvements: -0.20 meV to -0.15 meV
  #     hydro 4 d 0.95
  #     hydro 3 p 6.2
  #     hydro 3 s 1.7
  #  Further functions, listed for completeness
  #     VB: The following functions are only listed for completeness; test very
  #         carefully before any kind of production use. From the point of view
  #         of the basis construction, their main role is to fill up space,
  #         and they are solely determined by the location of the cutoff potential.
  #     hydro 3 p 0.1  # -0.15 meV
  #     hydro 4 d 5    # -0.12 meV
  #     hydro 4 f 0.1  # -0.14 meV
  #     hydro 5 g 0.1  # -0.06 meV
  
  
  ################################################################################
  #
  # For methods that use the localized form of the "resolution of identity" for
  # the two-electron Coulomb operator (RI_method LVL), particularly Hartree-Fock and
  # hybrid density functional calculations, the highest accuracy can be obtained by
  # uncommenting the line beginning with "for_aux"  below, thus adding an extra g radial
  # function to the construction of the product basis set for the expansion.
  # See Ref. New J. Phys. 17, 093020 (2015) for more information, particularly Figs. 1 and 6.
  #
  ################################################################################
  #
  # for_aux hydro 5 g 6.0
  
  # Species defaults for Cl
  ################################################################################
  #
  #  FHI-aims code project
  #  Volker Blum, 2017
  #
  #  Suggested "intermediate" defaults for Cl atom (to be pasted into control.in file)
  #
  ################################################################################
    species        Cl
  #     global species definitions
      nucleus             17
      mass                35.453
  #
      l_hartree           6
  #
      cut_pot             4.0          2.0  1.0
      basis_dep_cutoff    1e-4
  #
      radial_base         45 7.0
      radial_multiplier   2
      angular_grids       specified
        division   0.4412  110
        division   0.5489  194
        division   0.6734  302
        division   0.7794  434
  #      division   0.9402  590
  #      division   1.0779  770
  #      division   1.1792  974
  #      outer_grid  974
        outer_grid  434
  ################################################################################
  #
  #  Definition of "minimal" basis
  #
  ################################################################################
  #     valence basis states
      valence      3  s   2.
      valence      3  p   5.
  #     ion occupancy
      ion_occ      3  s   1.
      ion_occ      3  p   4.
  ################################################################################
  #
  #  Suggested additional basis functions. For production calculations,
  #  uncomment them one after another (the most important basis functions are
  #  listed first).
  #
  #  Constructed for dimers: 1.65 A, 2.0 A, 2.5 A, 3.25 A, 4.0 A
  #
  ################################################################################
  #  "First tier" - improvements: -429.57 meV to -15.03 meV
       ionic 3 d auto
       hydro 2 p 1.9
       hydro 4 f 7.4
       ionic 3 s auto
       for_aux     hydro 5 g 10.4
  #  "Second tier" - improvements: -7.84 meV to -0.48 meV
  #     hydro 3 d 3.3
  #     hydro 5 f 9.8
  #     hydro 1 s 0.75
  #     hydro 5 g 11.2
  #     hydro 4 p 10.4
  #  "Third tier" - improvements: -1.00 meV to -0.12 meV
  #     hydro 4 d 12.8
  #     hydro 4 f 4.6
  #     hydro 4 d 10.8
  #     hydro 2 s 1.8
  #     hydro 3 p 3
  #  Further functions that fell out - improvements: -0.10 meV and below
  #     hydro 5 f 14.4
  #     hydro 4 s 12.8
  #     hydro 3 d 11.6
  #     hydro 4 s 4.1
  
  -----------------------------------------------------------------------
  Completed first pass over input file control.in .
  -----------------------------------------------------------------------
  
  
  -----------------------------------------------------------------------
  Parsing geometry.in (first pass over file, find array dimensions only).
  The contents of geometry.in will be repeated verbatim below
  unless switched off by setting 'verbatim_writeout .false.' .
  in the first line of geometry.in .
  -----------------------------------------------------------------------
  
  #===============================================================================
  # Created using the Atomic Simulation Environment (ASE)
  
  # Thu Jul 23 15:37:13 2026
  
  #=======================================================
  atom 0.0000000000000000 0.0000000000000000 -0.8250000000000000 Li
  atom 0.0000000000000000 0.0000000000000000 0.8250000000000000 Cl
  
  -----------------------------------------------------------------------
  Completed first pass over input file geometry.in .
  -----------------------------------------------------------------------
  

  Basic array size parameters:
  | Number of species                 :        2
  | Number of atoms                   :        2
  | Max. basis fn. angular momentum   :        4
  | Max. atomic/ionic basis occupied n:        3
  | Max. number of basis fn. types    :        3
  | Max. radial fns per species/type  :        5
  | Max. logarithmic grid size        :     1362
  | Max. radial integration grid size :       91
  | Max. angular integration grid size:      434
  | Max. angular grid division number :        8
  | Radial grid for Hartree potential :     1362
  | Number of spin channels           :        1

  Definition of standardized fundamental physical constants in this FHI-aims run:
  | Using the set of values used in FHI-aims up to 2024, which combines values from
  | different CODATA sets - see constants.f90.
  | Use the 'codata' keyword in control.in to change this selection.

  Memory overcommitment is allowed on your operating system.

------------------------------------------------------------
          Reading file control.in.
------------------------------------------------------------
  XC: Using LibXC. Please refer to LibXC output for further details.
  Using libxc - Initializing
  Libxc version: 6.1.0

  You have selected libxc functional HYB_MGGA_XC_WB97M_V (531)
    - Description: wB97M-V exchange-correlation functional
    - Type: Hybrid MGGA(Exchange-correlation)
    - Using the following  17 external libxc parameters:
             _cx00 = 0.850000000000D+00  (u^00 coefficient for exchange)
             _cx01 = 0.100700000000D+01  (u^01 coefficient for exchange)
             _cx10 = 0.259000000000D+00  (u^10 coefficient for exchange)
            _css00 = 0.443000000000D+00  (u^00 coefficient for same-spin correlation)
            _css04 =-0.143700000000D+01  (u^04 coefficient for same-spin correlation)
            _css10 =-0.453500000000D+01  (u^10 coefficient for same-spin correlation)
            _css20 =-0.339000000000D+01  (u^20 coefficient for same-spin correlation)
            _css43 = 0.427800000000D+01  (u^43 coefficient for same-spin correlation)
            _cos00 = 0.100000000000D+01  (u^00 coefficient for opposite-spin correlation)
            _cos10 = 0.135800000000D+01  (u^10 coefficient for opposite-spin correlation)
            _cos20 = 0.292400000000D+01  (u^20 coefficient for opposite-spin correlation)
            _cos21 =-0.881200000000D+01  (u^21 coefficient for opposite-spin correlation)
            _cos60 =-0.139000000000D+01  (u^60 coefficient for opposite-spin correlation)
            _cos61 = 0.914200000000D+01  (u^61 coefficient for opposite-spin correlation)
            _alpha = 0.100000000000D+01  (fraction of HF exchange)
             _beta =-0.850000000000D+00  (fraction of short-range exchange)
            _omega = 0.300000000000D+00  (range-separation constant)
    - Reference to Literature:
      [1] N. Mardirossian and M. Head-Gordon.,  J. Chem. Phys. 144, 214110 (2016)

  Obtaining Hybrid Functional Parameters from Libxc:
  Fraction of Hartree-Fock exchange ALPHA:      1.00000000
  Fraction of short-range exchange BETA  :     -0.85000000
  Range-separation parameter OMEGA       :      0.30000000
  Detecting a range-separated Hybrid functional
  This translates into the following internal FHI-aims parameters:
  hybrid_coeff           =      0.15000000
  hybrid_coeff_LR        =      1.00000000
  hse_omega              =      0.30000000
  hse_omega_hf           =      0.30000000
  use_hse                =               F
  use_lc_wpbeh           =               T
  use_yukawa             =               F
  Spin treatment: No spin polarisation.
  Charge =   0.000000E+00: Neutral system requested explicitly.
  Scalar relativistic treatment of kinetic energy: on-site free-atom approximation to ZORA.
  Atomic Solver XC: Using user-defined functional for generating the minimal NAO basis functions.
  Note that only the following functionals are available: kli, pz-lda, pw-lda, vwn, vwn-gauss, pw91_gga, pbe, rpbe, revpbe, pbeint, pbesol, blyp.
  Ionic Solver XC: Using user-defined functional for generating the minimal NAO basis functions.
  Note that only the following functionals are available: kli, pz-lda, pw-lda, vwn, vwn-gauss, pw91_gga, pbe, rpbe, revpbe, pbeint, pbesol, blyp.
  Occupation type: Gaussian broadening, width =   0.100000E-01 eV.
  Convergence accuracy of self-consistent charge density:  0.1000E-05
  Convergence accuracy of sum of eigenvalues:  0.1000E-02
  Convergence accuracy of total energy:  0.1000E-05
  Accuracy of occupation numbers  :  0.1000E-08
  Charge density mixing - mixing parameter:     0.1000
  Pulay mixing - number of memorized iterations:    8
  Maximum # of zeroin steps  : ****

  Reading configuration options for species Li                  .
  | Found nuclear charge :   3.0000
  | Found atomic mass :    6.9409999999999998      amu
  | Found l_max for Hartree potential  :   6
  | Found cutoff potl. onset [A], width [A], scale factor :    5.00000    2.00000    1.00000
  | Threshold for basis-dependent cutoff potential is   0.100000E-03
  | Found data for basic radial integration grid :    29 points, outermost radius =    7.000 A
  | Found multiplier for basic radial grid :   2
  | Found angular grid specification: user-specified.
  | Specified grid contains     5 separate shells.
  | Check grid settings after all constraints further below.
  | Found free-atom valence shell :  2 s   1.000
  | Found free-ion valence shell :  1 s   2.000
  | Found hydrogenic basis function :  2 p   1.600
  | Found hydrogenic basis function :  2 s   2.000
  | Found hydrogenic basis function :  3 d   2.600
  | Found hydrogenic basis function :  3 p   4.600
  | Found hydrogenic extended basis function :  4 f   4.100
 | Encountered keyword species, ending the description of species Li                  .
  Species Li                  : Missing cutoff potential type.
  Defaulting to exp(1/x)/(1-x)^2 type cutoff potential.
  Species Li: No 'logarithmic' tag. Using default grid for free atom:
  | Default logarithmic grid data [bohr] : 0.1000E-03 0.1000E+03 0.1012E+01
  Species Li: On-site basis accuracy parameter (for Gram-Schmidt orthonormalisation) not specified.
  Using default value basis_acc =  0.1000000E-03.
  Species Li                  : Using default innermost maximum threshold i_radial=  2 for radial functions.
  Species Li                  : Default cutoff onset for free atom density etc. : 0.50000000E+01 AA.
  Species Li                  : Basic radial grid will be enhanced according to radial_multiplier =   2, to contain    59 grid points.

  Reading configuration options for species Cl                  .
  | Found nuclear charge :  17.0000
  | Found atomic mass :    35.453000000000003      amu
  | Found l_max for Hartree potential  :   6
  | Found cutoff potl. onset [A], width [A], scale factor :    4.00000    2.00000    1.00000
  | Threshold for basis-dependent cutoff potential is   0.100000E-03
  | Found data for basic radial integration grid :    45 points, outermost radius =    7.000 A
  | Found multiplier for basic radial grid :   2
  | Found angular grid specification: user-specified.
  | Specified grid contains     5 separate shells.
  | Check grid settings after all constraints further below.
  | Found free-atom valence shell :  3 s   2.000
  | Found free-atom valence shell :  3 p   5.000
  | Found free-ion valence shell :  3 s   1.000
  | Found free-ion valence shell :  3 p   4.000
  | Found ionic basis function :  3 d , default cutoff radius.
  | Found hydrogenic basis function :  2 p   1.900
  | Found hydrogenic basis function :  4 f   7.400
  | Found ionic basis function :  3 s , default cutoff radius.
  | Found hydrogenic extended basis function :  5 g  10.400
  Species Cl                  : Missing cutoff potential type.
  Defaulting to exp(1/x)/(1-x)^2 type cutoff potential.
  Species Cl: No 'logarithmic' tag. Using default grid for free atom:
  | Default logarithmic grid data [bohr] : 0.1000E-03 0.1000E+03 0.1012E+01
  | Will include ionic basis functions of  2.0-fold positive Cl                   ion.
  Species Cl: On-site basis accuracy parameter (for Gram-Schmidt orthonormalisation) not specified.
  Using default value basis_acc =  0.1000000E-03.
  Species Cl                  : Using default innermost maximum threshold i_radial=  2 for radial functions.
  Species Cl                  : Default cutoff onset for free atom density etc. : 0.40000000E+01 AA.
  Species Cl                  : Basic radial grid will be enhanced according to radial_multiplier =   2, to contain    91 grid points.

  Finished reading input file 'control.in'.

------------------------------------------------------------


------------------------------------------------------------
          Reading geometry description geometry.in.
------------------------------------------------------------
  | The smallest distance between any two atoms is         1.65000000 AA.
  | The first atom of this pair is atom number                      1 .
  | The second atom of this pair is atom number                     2 .
  Input structure read successfully.
  The structure contains        2 atoms,  and a total of         20.000 electrons.

  Input geometry:
  | No unit cell requested.
  | Atomic structure:
  |       Atom                x [A]            y [A]            z [A]
  |    1: Species Li            0.00000000        0.00000000       -0.82500000
  |    2: Species Cl            0.00000000        0.00000000        0.82500000

  Slab Identifier: This is not a periodic structure.

  Finished reading input file 'geometry.in'.



  Consistency checks for stacksize environment parameter are next.

  | Maximum stacksize for task 0: unlimited
  | Maximum stacksize for task 1: unlimited
  | Maximum stacksize for task 2: unlimited
  | Maximum stacksize for task 3: unlimited
  | Maximum stacksize for task 4: unlimited
  | Maximum stacksize for task 5: unlimited
  | Maximum stacksize for task 6: unlimited
  | Maximum stacksize for task 7: unlimited
  | Maximum stacksize for task 8: unlimited
  | Maximum stacksize for task 9: unlimited
  | Maximum stacksize for task 10: unlimited
  | Maximum stacksize for task 11: unlimited
  | Maximum stacksize for task 12: unlimited
  | Maximum stacksize for task 13: unlimited
  | Maximum stacksize for task 14: unlimited
  | Maximum stacksize for task 15: unlimited
  | Maximum stacksize for task 16: unlimited
  | Maximum stacksize for task 17: unlimited
  | Maximum stacksize for task 18: unlimited
  | Maximum stacksize for task 19: unlimited
  | Maximum stacksize for task 20: unlimited
  | Maximum stacksize for task 21: unlimited
  | Maximum stacksize for task 22: unlimited
  | Maximum stacksize for task 23: unlimited
  | Maximum stacksize for task 24: unlimited
  | Maximum stacksize for task 25: unlimited
  | Maximum stacksize for task 26: unlimited
  | Maximum stacksize for task 27: unlimited
  | Maximum stacksize for task 28: unlimited
  | Maximum stacksize for task 29: unlimited
  | Maximum stacksize for task 30: unlimited
  | Maximum stacksize for task 31: unlimited
  | Maximum stacksize for task 32: unlimited
  | Maximum stacksize for task 33: unlimited
  | Maximum stacksize for task 34: unlimited
  | Maximum stacksize for task 35: unlimited
  | Maximum stacksize for task 36: unlimited
  | Maximum stacksize for task 37: unlimited
  | Maximum stacksize for task 38: unlimited
  | Maximum stacksize for task 39: unlimited
  | Maximum stacksize for task 40: unlimited
  | Maximum stacksize for task 41: unlimited
  | Maximum stacksize for task 42: unlimited
  | Maximum stacksize for task 43: unlimited
  | Maximum stacksize for task 44: unlimited
  | Maximum stacksize for task 45: unlimited
  | Maximum stacksize for task 46: unlimited
  | Maximum stacksize for task 47: unlimited
  | Maximum stacksize for task 48: unlimited
  | Maximum stacksize for task 49: unlimited
  | Maximum stacksize for task 50: unlimited
  | Maximum stacksize for task 51: unlimited
  | Maximum stacksize for task 52: unlimited
  | Maximum stacksize for task 53: unlimited
  | Maximum stacksize for task 54: unlimited
  | Maximum stacksize for task 55: unlimited
  | Maximum stacksize for task 56: unlimited
  | Maximum stacksize for task 57: unlimited
  | Maximum stacksize for task 58: unlimited
  | Maximum stacksize for task 59: unlimited
  | Maximum stacksize for task 60: unlimited
  | Maximum stacksize for task 61: unlimited
  | Maximum stacksize for task 62: unlimited
  | Maximum stacksize for task 63: unlimited
  | Current stacksize for task 0: unlimited
  | Current stacksize for task 1: unlimited
  | Current stacksize for task 2: unlimited
  | Current stacksize for task 3: unlimited
  | Current stacksize for task 4: unlimited
  | Current stacksize for task 5: unlimited
  | Current stacksize for task 6: unlimited
  | Current stacksize for task 7: unlimited
  | Current stacksize for task 8: unlimited
  | Current stacksize for task 9: unlimited
  | Current stacksize for task 10: unlimited
  | Current stacksize for task 11: unlimited
  | Current stacksize for task 12: unlimited
  | Current stacksize for task 13: unlimited
  | Current stacksize for task 14: unlimited
  | Current stacksize for task 15: unlimited
  | Current stacksize for task 16: unlimited
  | Current stacksize for task 17: unlimited
  | Current stacksize for task 18: unlimited
  | Current stacksize for task 19: unlimited
  | Current stacksize for task 20: unlimited
  | Current stacksize for task 21: unlimited
  | Current stacksize for task 22: unlimited
  | Current stacksize for task 23: unlimited
  | Current stacksize for task 24: unlimited
  | Current stacksize for task 25: unlimited
  | Current stacksize for task 26: unlimited
  | Current stacksize for task 27: unlimited
  | Current stacksize for task 28: unlimited
  | Current stacksize for task 29: unlimited
  | Current stacksize for task 30: unlimited
  | Current stacksize for task 31: unlimited
  | Current stacksize for task 32: unlimited
  | Current stacksize for task 33: unlimited
  | Current stacksize for task 34: unlimited
  | Current stacksize for task 35: unlimited
  | Current stacksize for task 36: unlimited
  | Current stacksize for task 37: unlimited
  | Current stacksize for task 38: unlimited
  | Current stacksize for task 39: unlimited
  | Current stacksize for task 40: unlimited
  | Current stacksize for task 41: unlimited
  | Current stacksize for task 42: unlimited
  | Current stacksize for task 43: unlimited
  | Current stacksize for task 44: unlimited
  | Current stacksize for task 45: unlimited
  | Current stacksize for task 46: unlimited
  | Current stacksize for task 47: unlimited
  | Current stacksize for task 48: unlimited
  | Current stacksize for task 49: unlimited
  | Current stacksize for task 50: unlimited
  | Current stacksize for task 51: unlimited
  | Current stacksize for task 52: unlimited
  | Current stacksize for task 53: unlimited
  | Current stacksize for task 54: unlimited
  | Current stacksize for task 55: unlimited
  | Current stacksize for task 56: unlimited
  | Current stacksize for task 57: unlimited
  | Current stacksize for task 58: unlimited
  | Current stacksize for task 59: unlimited
  | Current stacksize for task 60: unlimited
  | Current stacksize for task 61: unlimited
  | Current stacksize for task 62: unlimited
  | Current stacksize for task 63: unlimited

  Consistency checks for the contents of control.in are next.

  Coulomb operator: Defaulting to logarithmic spherical Bessel transform integrals (use_logsbt .true.).
  LC-wPBEh screening parameters: omega  =      0.30000000 bohr^-1, and
                                 alpha =      0.15000000.
  MPI_IN_PLACE appears to work with this MPI implementation.
  | Keeping use_mpi_in_place .true. (see manual).
  Explicit treatment of the Coulomb operator is needed, but the RI method is not specified.
  Coulomb operator: Defaulting to 'LVL fast' resolution of identity - RI_type = LVL_fast
  Species Li: Using default value for prodbas_acc =   1.000000E-04.
  Species Li: Using default value max_l_prodbas =    20.
  Species Cl: Using default value for prodbas_acc =   1.000000E-04.
  Species Cl: Using default value max_l_prodbas =    20.
  Target number of points in a grid batch is not set. Defaulting to  100
  Method for grid partitioning is not set. Defaulting to parallel hash+maxmin partitioning.
  Batch size limit is not set. Defaulting to    200
  By default, will store active basis functions for each batch.
  If in need of memory, prune_basis_once .false. can be used to disable this option.
  communication_type for Hartree potential was not specified.
  Defaulting to calc_hartree .
  Defaulting to Pulay charge density mixer.
  Pulay mixer: Number of initial linear mixing iterations not set.
  Defaulting to    0 iterations.
  Work space size for distributed Hartree potential not set.
  Defaulting to   0.200000E+03 MB.
  Algorithm-dependent basis array size parameters:
  | n_max_pulay                         :        8
  Maximum number of self-consistency iterations not provided.
  Presetting  1000 iterations.
  Presetting      1001 iterations before the initial mixing cycle
  is restarted anyway using the sc_init_iter criterion / keyword.
  Presetting a factor      1.000 between actual scf density residual
  and density convergence criterion sc_accuracy_rho below which sc_init_iter
  takes no effect.
  Calculation of forces was not defined in control.in. No forces will be calculated.
  Geometry relaxation not requested: no relaxation will be performed.
  No accuracy limit for integral partition fn. given. Defaulting to  0.1000E-14.
  No threshold value for u(r) in integrations given. Defaulting to  0.1000E-05.
  No threshold value for occupation numbers given. Defaulting to  0.0000E+00.
  No accuracy for fermi level given. Defaulting to  0.1000E-19.
  Preferred method for the eigenvalue solver ('KS_method') not specified in 'control.in'.
  Calling BLACS routine to test compilation state
  Since ScaLAPACK support is enabled, defaulting to ELPA (via ELSI).
  Threshold for basis singularities not set.
  Default threshold for basis singularities:  0.1000E-04
  partition_type (choice of integration weights) for integrals was not specified.
  | Using a version of the partition function of Stratmann and coworkers ('stratmann_sparse').
  | At each grid point, the set of atoms used to build the partition table is smoothly restricted to
  | only those atoms whose free-atom density would be non-zero at that grid point.
  Partitioning for Hartree potential was not defined. Using partition_type for integrals.
  | Adjusted default value of keyword multip_moments_threshold to:       0.10000000E-11
  | This value may affect high angular momentum components of the Hartree potential in periodic systems.
  Threshold for auxiliary basis singularities not set.
  Default threshold for auxiliary basis singularities:  0.1000E-04
  Use default threshold for vanishing multipole moments of auxiliary basis:  0.1000E-07
  No q(lm)/r^(l+1) cutoff set for long-range Hartree potential.
  | Using default value of  0.100000E-09 .
  | Verify using the multipole_threshold keyword.
  Defaulting to new monopole extrapolation.
  Density update method: automatic selection selected.
  Coulomb operator: Defaulting to screening threshold for four-center integrals:   0.100000E-06
  Coulomb operator: Defaulting to screening threshold for Coulomb matrix:   0.100000E-09
  Fock matrix calculation: Setting the screening threshold for overlap matrix to coul_mat_threshold:   0.100000E-09
  Coulomb operator: Defaulting to 'LVL_fast' resolution of identity - RI_type = LVL_fast 
  No other resolution of identity version is supported for periodic boundary conditions at present.
  Coulomb operator: Defaulting to logarithmic spherical Bessel transform integrals (use_logsbt .true.).
  Charge integration errors on the 3D integration grid will be compensated
  by explicit normalization and distribution of residual charges.
  Use the "compensate_multipole_errors" flag to change this behaviour.
  LVL not implemented with density matrix yet
  -> switching to transformed overlap
  LVL probably works better with logsbt
  Default to 1D ("use_logsbt") integrations for auxiliary 2-center integrals.
  Default onset of logarithmic r-grid for SBT is -38.000000000000
  Default onset of logarithmic k-grid for SBT is -25.000000000000
  Default range of logarithmic r- and k-grid for SBT is  45.000000000000
  Default number of logarithmic r- and k-grid for SBT is   4096
  Default of use_2d_corr is to use the efficient 2D distribution where possible
  Set 'collect_eigenvectors' to be '.true.' for use_density_matrix .false.
  Found potential conflicts with setting 'use_local_index' for this calculation. Will not set it.
** WARNING:

  You have specified the use of LibXC.

  ** PLEASE ** be careful using LibXC. Whilst most of the LDA, GGA and MGGA
  functionals, and hybrid variations therein, should be stable (though we
  always recommend testing!), there are several fancy functionals with e.g.
  range-separation, like HSE03/HSE06/LC-PBEh, and also MGGA functionals
  that depend on the laplacian of the density, like BR89, that are not
  fully implemented due to the infrastructure for these functionals being
  incomplete or non-generic.
  If you want to use these functionals please contact the development team
  and we will work on them with you!

** END OF WARNING

  Consistency checks for the contents of geometry.in are next.

  Number of empty states per atom not set in control.in - providing a guess from actual geometry.
  | Total number of empty states used during s.c.f. cycle:        5
  If you use a very high smearing, use empty_states (per atom!) in control.in to increase this value.

  Structure-dependent array size parameters: 
  | Maximum number of distinct radial functions  :       17
  | Maximum number of basis functions            :       55
  | Number of Kohn-Sham states (occupied + empty):       15
------------------------------------------------------------
  After read_input_data [GB]:   1001.37

  Performing system and environment tests:
  | Environment variable OMP_NUM_THREADS correctly set to 1.
  | Checking for ScaLAPACK...
  | Testing pdtran()...
  *** WARNING: CPU mismatch detected for Node worker6047 : Intel(R) Xeon(R) Platinum 8362 CPU @ 2.80GHz                                                 
  | All pdtran() tests passed.
  | Testing CPU compatibility for run-time vs. build-time.
  | Reading /proc/cpuinfo for CPU information ...
  | Built for  : Intel(R) Xeon(R) w5-3435X
  *** WARNING: CPU mismatch detected for Node worker6033 : Intel(R) Xeon(R) Platinum 8362 CPU @ 2.80GHz                                                 
** WARNING:
  | WARNING: This FHI-aims executable was built on a different
  CPU type than the CPUs used in this run.

  | Running on different hardware than that on which a code was compiled
  | can produce incorrect results (wrong numbers) due to architecture-specific
  | optimizations made by the compiler. Those wrong numbers may occur only spuriously.
  | They are therefore very difficult to rule out even by tests ahead of time.

** END OF WARNING
  | Running on : Intel(R) Xeon(R) Platinum 8362 CPU @ 2.80GHz
  | Runtime CPU compatibility verified.
  
  After prepare_system [GB]:   1001.36

------------------------------------------------------------
          Preparing all fixed parts of the calculation.
------------------------------------------------------------
  Determining machine precision:
     2.2250738585072014E-308
  Setting up grids for atomic and cluster calculations.

  Creating wave function, potential, and density for free atoms.
  Runtime choices for atomic solver:
  | atomic solver xc        : PBE
  | compute density gradient: 1
  | compute kinetic density : T

  Species: Li

  List of occupied orbitals and eigenvalues:
    n    l              occ      energy [Ha]    energy [eV]
    1    0           2.0000        -1.901753       -51.7493
    2    0           1.0000        -0.103140        -2.8066


  Species: Cl

  List of occupied orbitals and eigenvalues:
    n    l              occ      energy [Ha]    energy [eV]
    1    0           2.0000      -101.452858     -2760.6727
    2    0           2.0000        -9.289412      -252.7778
    3    0           2.0000        -0.760218       -20.6866
    2    1           6.0000        -7.043793      -191.6714
    3    1           5.0000        -0.315674        -8.5899


  Adding cutoff potential to free-atom effective potential.
  Creating fixed part of basis set: Ionic, confined, hydrogenic.

  Li                   hydrogenic:

  List of hydrogenic basis orbitals: 
    n    l      effective z      eigenvalue [eV]  inner max. [A]     outer max. [A]     outer radius [A]   
    2    1         1.600000        -8.7048           1.319365           1.319365           6.386418
    2    0         2.000000       -13.6052           0.203259           1.385485           6.232164
    3    2         2.600000       -10.2084           1.835332           1.835332           6.386418
    3    1         4.600000       -31.9883           0.343834           1.385485           5.381805

  List of extra hydrogenic orbitals for auxiliary basis: 
    n    l      effective z      eigenvalue [eV]  inner max. [A]     outer max. [A]     outer radius [A]   
    4    3         4.100000       -14.2833           2.073992           2.073992           6.386418


  Cl                   ion:
  Runtime choices for ionic solver:
  | ionic solver xc        : PBE

  List of free ionic orbitals and eigenvalues:
    n    l      energy [Ha]    energy [eV]
    1    0      -102.554413     -2790.6476
    2    0       -10.359555      -281.8978
    3    0        -1.672516       -45.5115
    2    1        -8.116241      -220.8542
    3    1        -1.184158       -32.2226


  List of ionic basis orbitals and eigenvalues:
    n    l      energy [Ha]    energy [eV]    outer radius [A]
    3    2        -0.528061       -14.3693       5.389057
    3    0        -1.672511       -45.5113       3.780461


  Cl                   hydrogenic:

  List of hydrogenic basis orbitals: 
    n    l      effective z      eigenvalue [eV]  inner max. [A]     outer max. [A]     outer radius [A]   
    2    1         1.900000       -12.2741           1.113321           1.113321           5.389057
    4    3         7.400000       -46.5653           1.140877           1.140877           4.886961

  List of extra hydrogenic orbitals for auxiliary basis: 
    n    l      effective z      eigenvalue [eV]  inner max. [A]     outer max. [A]     outer radius [A]   
    5    4        10.400000       -58.8635           1.273568           1.273568           4.886961

  Creating atomic-like basis functions for current effective potential.

  Species Li                  :

  List of atomic basis orbitals and eigenvalues:
    n    l      energy [Ha]    energy [eV]    outer radius [A]
    1    0        -1.901753       -51.7493       4.318785
    2    0        -0.103140        -2.8066       6.464971


  Species Cl                  :

  List of atomic basis orbitals and eigenvalues:
    n    l      energy [Ha]    energy [eV]    outer radius [A]
    1    0      -101.452858     -2760.6727       0.642251
    2    0        -9.289412      -252.7778       2.102331
    3    0        -0.760218       -20.6866       5.194994
    2    1        -7.043793      -191.6714       2.346844
    3    1        -0.315674        -8.5899       5.323577

  Assembling full basis from fixed parts.
  | Species Li :   atomic orbital   1 s accepted.
  | Species Li :    hydro orbital   2 s accepted.
  | Species Li :   atomic orbital   2 s accepted.
  | Species Li :    hydro orbital   3 p accepted.
  | Species Li :    hydro orbital   2 p accepted.
  | Species Li :    hydro orbital   3 d accepted.
  | Species Cl :   atomic orbital   1 s accepted.
  | Species Cl :   atomic orbital   2 s accepted.
  | Species Cl :    ionic orbital   3 s accepted.
  | Species Cl :   atomic orbital   3 s accepted.
  | Species Cl :   atomic orbital   2 p accepted.
  | Species Cl :   atomic orbital   3 p accepted.
  | Species Cl :    hydro orbital   2 p accepted.
  | Species Cl :    ionic orbital   3 d accepted.
  | Species Cl :    hydro orbital   4 f accepted.

  Basis size parameters after reduction:
  | Total number of radial functions:       15
  | Total number of basis functions :       39

  Assembling extended basis for auxiliary basis.
  | Species Li :   atomic orbital   1 s accepted.
  | Species Li :    hydro orbital   2 s accepted.
  | Species Li :   atomic orbital   2 s accepted.
  | Species Li :    hydro orbital   3 p accepted.
  | Species Li :    hydro orbital   2 p accepted.
  | Species Li :    hydro orbital   3 d accepted.
  | Species Li :    hydro orbital   4 f accepted.
  | Species Cl :   atomic orbital   1 s accepted.
  | Species Cl :   atomic orbital   2 s accepted.
  | Species Cl :    ionic orbital   3 s accepted.
  | Species Cl :   atomic orbital   3 s accepted.
  | Species Cl :   atomic orbital   2 p accepted.
  | Species Cl :   atomic orbital   3 p accepted.
  | Species Cl :    hydro orbital   2 p accepted.
  | Species Cl :    ionic orbital   3 d accepted.
  | Species Cl :    hydro orbital   4 f accepted.
  | Species Cl :    hydro orbital   5 g accepted.
  Per-task memory consumption for arrays in subroutine allocate_ext:
  |           5.929780MB.

  Extended basis size parameters after reduction:
  | Total number of radial functions:       17
  | Total number of basis functions :       55

  Testing on-site integration grid accuracy.
  |  Species  Function  <phi|h_atom|phi> (log., in eV)  <phi|h_atom|phi> (rad., in eV)
           1        1                -51.7493370875                -51.7493370062
           1        2                 -1.8898978220                 -1.8899460198
           1        3                  7.1397284665                  7.1662527754
           1        4                 17.1734104344                 17.1733709208
           1        5                 32.1165195028                 32.1181844876
           1        6                  4.9176878118                  4.9196387534
           2        7              -2760.6727353851              -2760.6726789181
           2        8               -252.7777623081               -252.7777614751
           2        9                -20.4355466185                -20.4355463746
           2       10                  9.0564866142                  9.0564845959
           2       11               -191.6713611479               -191.6713609468
           2       12                 -8.5900157139                 -8.5900150847
           2       13                  7.6560616461                  7.6560792027
           2       14                  7.0036714588                  7.0036732847
           2       15                 28.0595357746                 28.0595347663

  Preparing densities etc. for the partition functions (integrals / Hartree potential).

  Preparations completed.
  max(cpu_time)          :      0.153 s.
  Wall clock time (cpu1) :      0.552 s.
------------------------------------------------------------
  After prepare_scf [GB]:   1000.62

  Initializing index lists of integration centers etc. from given atomic structure:
  | Consuming          0 KiB for k_phase_exx.
  | Number of centers in hartree potential                       :         2
  | Number of centers in hartree multipole                       :         2
  | Number of centers in electron density summation              :         2
  | Number of centers in basis integrals                         :         2
  | Number of centers in integrals                               :         2
  | Number of centers in hamiltonian                             :         2
  | Number of centers in partition table from touching 0-cell    :         2
  | Number of centers in partition table total                   :         2
  After initialize_bc_dependent_lists [GB]:   1000.62

------------------------------------------------------------
          Begin self-consistency loop: Initialization.

          Date     :  20260724, Time     :  093630.352
------------------------------------------------------------
  Available memory per node after initialize_hartree_non_periodic_ewald [GB]:   1000.62
  Available memory per node after initialize_recip_hartree_potential [GB]:   1000.62
  * Using 64 tasks for Scalapack Eigenvalue solver.
  Detailed listing of tasks and assigned k-points:
  (for non-periodic systems, the "k-point" denotes an internal label only)
   Task     0 k-point     1 on worker6033
   Task     1 k-point     1 on worker6033
   Task     2 k-point     1 on worker6033
   Task     3 k-point     1 on worker6033
   Task     4 k-point     1 on worker6033
   Task     5 k-point     1 on worker6033
   Task     6 k-point     1 on worker6033
   Task     7 k-point     1 on worker6033
   Task     8 k-point     1 on worker6033
   Task     9 k-point     1 on worker6033
   Task    10 k-point     1 on worker6033
   Task    11 k-point     1 on worker6033
   Task    12 k-point     1 on worker6033
   Task    13 k-point     1 on worker6033
   Task    14 k-point     1 on worker6033
   Task    15 k-point     1 on worker6033
   Task    16 k-point     1 on worker6033
   Task    17 k-point     1 on worker6033
   Task    18 k-point     1 on worker6033
   Task    19 k-point     1 on worker6033
   Task    20 k-point     1 on worker6033
   Task    21 k-point     1 on worker6033
   Task    22 k-point     1 on worker6033
   Task    23 k-point     1 on worker6033
   Task    24 k-point     1 on worker6033
   Task    25 k-point     1 on worker6033
   Task    26 k-point     1 on worker6033
   Task    27 k-point     1 on worker6033
   Task    28 k-point     1 on worker6033
   Task    29 k-point     1 on worker6033
   Task    30 k-point     1 on worker6033
   Task    31 k-point     1 on worker6033
   Task    32 k-point     1 on worker6047
   Task    33 k-point     1 on worker6047
   Task    34 k-point     1 on worker6047
   Task    35 k-point     1 on worker6047
   Task    36 k-point     1 on worker6047
   Task    37 k-point     1 on worker6047
   Task    38 k-point     1 on worker6047
   Task    39 k-point     1 on worker6047
   Task    40 k-point     1 on worker6047
   Task    41 k-point     1 on worker6047
   Task    42 k-point     1 on worker6047
   Task    43 k-point     1 on worker6047
   Task    44 k-point     1 on worker6047
   Task    45 k-point     1 on worker6047
   Task    46 k-point     1 on worker6047
   Task    47 k-point     1 on worker6047
   Task    48 k-point     1 on worker6047
   Task    49 k-point     1 on worker6047
   Task    50 k-point     1 on worker6047
   Task    51 k-point     1 on worker6047
   Task    52 k-point     1 on worker6047
   Task    53 k-point     1 on worker6047
   Task    54 k-point     1 on worker6047
   Task    55 k-point     1 on worker6047
   Task    56 k-point     1 on worker6047
   Task    57 k-point     1 on worker6047
   Task    58 k-point     1 on worker6047
   Task    59 k-point     1 on worker6047
   Task    60 k-point     1 on worker6047
   Task    61 k-point     1 on worker6047
   Task    62 k-point     1 on worker6047
   Task    63 k-point     1 on worker6047
  Tasks:    64 split into      8 X      8 BLACS grid
  Calculating block size based on n_basis =           39  max_nprow =            8  max_npcol =            8
  ScaLAPACK block size set to:            4
  Allocating        0.000 MB for ovlp
  Allocating        0.000 MB for ham
  Allocating        0.000 MB for eigenvec
  Required Scalapack workspace - INTEGER:            1  REAL:             1
  Available memory per node after initialize_scalapack [GB]:   1000.62
  Available memory per node after aims_elsi_init_scf [GB]:   1000.62
  Available memory per node after initialize_fixed_grids [GB]:   1000.62
  Partitioning the integration grid into batches with parallel hashing+maxmin method.
  | Number of batches:      616
  | Maximal batch size:     125
  | Minimal batch size:       1
  | Average batch size:      68.922
  | Standard deviation of batch sizes:      20.779

  Integration load balanced across    64 MPI tasks.
  Work distribution over tasks is as follows:
  Task     0 has        630 integration points.
  Task     1 has        629 integration points.
  Task     2 has        643 integration points.
  Task     3 has        643 integration points.
  Task     4 has        644 integration points.
  Task     5 has        694 integration points.
  Task     6 has        641 integration points.
  Task     7 has        643 integration points.
  Task     8 has        678 integration points.
  Task     9 has        638 integration points.
  Task    10 has        734 integration points.
  Task    11 has        628 integration points.
  Task    12 has        667 integration points.
  Task    13 has        633 integration points.
  Task    14 has        630 integration points.
  Task    15 has        639 integration points.
  Task    16 has        628 integration points.
  Task    17 has        671 integration points.
  Task    18 has        632 integration points.
  Task    19 has        646 integration points.
  Task    20 has        633 integration points.
  Task    21 has        641 integration points.
  Task    22 has        667 integration points.
  Task    23 has        701 integration points.
  Task    24 has        647 integration points.
  Task    25 has        678 integration points.
  Task    26 has        697 integration points.
  Task    27 has        631 integration points.
  Task    28 has        660 integration points.
  Task    29 has        751 integration points.
  Task    30 has        704 integration points.
  Task    31 has        674 integration points.
  Task    32 has        641 integration points.
  Task    33 has        633 integration points.
  Task    34 has        643 integration points.
  Task    35 has        662 integration points.
  Task    36 has        697 integration points.
  Task    37 has        688 integration points.
  Task    38 has        630 integration points.
  Task    39 has        701 integration points.
  Task    40 has        697 integration points.
  Task    41 has        680 integration points.
  Task    42 has        632 integration points.
  Task    43 has        635 integration points.
  Task    44 has        653 integration points.
  Task    45 has        631 integration points.
  Task    46 has        667 integration points.
  Task    47 has        628 integration points.
  Task    48 has        730 integration points.
  Task    49 has        641 integration points.
  Task    50 has        630 integration points.
  Task    51 has        664 integration points.
  Task    52 has        636 integration points.
  Task    53 has        749 integration points.
  Task    54 has        669 integration points.
  Task    55 has        665 integration points.
  Task    56 has        694 integration points.
  Task    57 has        672 integration points.
  Task    58 has        689 integration points.
  Task    59 has        644 integration points.
  Task    60 has        692 integration points.
  Task    61 has        683 integration points.
  Task    62 has        735 integration points.
  Task    63 has        670 integration points.
  Available memory per node after partition_grid [GB]:   1000.29
  Initializing partition tables, free-atom densities, potentials, etc. across the integration grid (initialize_grid_storage).
  | initialize_grid_storage: Actual outermost partition radius vs. multipole_radius_free
  | (-- VB: in principle, multipole_radius_free should be larger, hence this output)
  | Species        1: Confinement radius =              7.000000000000000 AA, multipole_radius_free =              7.042572113910259 AA.
  | Species        1: outer_partition_radius set to              7.042572113910259 AA .
  | Species        2: Confinement radius =              6.000000000000000 AA, multipole_radius_free =              6.015836048499353 AA.
  | Species        2: outer_partition_radius set to              6.015836048499353 AA .
  | The sparse table of interatomic distances needs          0.04 kbyte instead of         0.03 kbyte of memory.
  | Using the partition_type stratmann_smoother will reduce your memory usage.
  | Net number of integration points:    42456
  | of which are non-zero points    :    40701
  Available memory per node after initialize_grid_storage_p1 [GB]:   1000.29
  Renormalizing the initial density to the exact electron count on the 3D integration grid.
  | Initial density: Formal number of electrons (from input files) :      20.0000000000
  | Integrated number of electrons on 3D grid     :      20.0000187070
  | Charge integration error                      :       0.0000187070
  | Normalization factor for density and gradient :       0.9999990646
  Renormalizing the free-atom superposition density to the exact electron count on the 3D integration grid.
  | Formal number of electrons (from input files) :      20.0000000000
  | Integrated number of electrons on 3D grid     :      20.0000187070
  | Charge integration error                      :       0.0000187070
  | Normalization factor for density and gradient :       0.9999990646
  Obtaining max. number of non-zero basis functions in each batch (get_n_compute_maxes).
  | Maximal number of non-zero basis functions:       39 in task     0
  | Maximal number of non-zero basis functions:       39 in task     1
  | Maximal number of non-zero basis functions:       39 in task     2
  | Maximal number of non-zero basis functions:       39 in task     3
  | Maximal number of non-zero basis functions:       39 in task     4
  | Maximal number of non-zero basis functions:       39 in task     5
  | Maximal number of non-zero basis functions:       39 in task     6
  | Maximal number of non-zero basis functions:       39 in task     7
  | Maximal number of non-zero basis functions:       38 in task     8
  | Maximal number of non-zero basis functions:       39 in task     9
  | Maximal number of non-zero basis functions:       39 in task    10
  | Maximal number of non-zero basis functions:       39 in task    11
  | Maximal number of non-zero basis functions:       39 in task    12
  | Maximal number of non-zero basis functions:       39 in task    13
  | Maximal number of non-zero basis functions:       39 in task    14
  | Maximal number of non-zero basis functions:       39 in task    15
  | Maximal number of non-zero basis functions:       39 in task    16
  | Maximal number of non-zero basis functions:       39 in task    17
  | Maximal number of non-zero basis functions:       39 in task    18
  | Maximal number of non-zero basis functions:       39 in task    19
  | Maximal number of non-zero basis functions:       39 in task    20
  | Maximal number of non-zero basis functions:       39 in task    21
  | Maximal number of non-zero basis functions:       38 in task    22
  | Maximal number of non-zero basis functions:       39 in task    23
  | Maximal number of non-zero basis functions:       39 in task    24
  | Maximal number of non-zero basis functions:       39 in task    25
  | Maximal number of non-zero basis functions:       39 in task    26
  | Maximal number of non-zero basis functions:       39 in task    27
  | Maximal number of non-zero basis functions:       39 in task    28
  | Maximal number of non-zero basis functions:       39 in task    29
  | Maximal number of non-zero basis functions:       39 in task    30
  | Maximal number of non-zero basis functions:       38 in task    31
  | Maximal number of non-zero basis functions:       39 in task    32
  | Maximal number of non-zero basis functions:       39 in task    33
  | Maximal number of non-zero basis functions:       39 in task    34
  | Maximal number of non-zero basis functions:       38 in task    35
  | Maximal number of non-zero basis functions:       39 in task    36
  | Maximal number of non-zero basis functions:       39 in task    37
  | Maximal number of non-zero basis functions:       39 in task    38
  | Maximal number of non-zero basis functions:       39 in task    39
  | Maximal number of non-zero basis functions:       39 in task    40
  | Maximal number of non-zero basis functions:       39 in task    41
  | Maximal number of non-zero basis functions:       39 in task    42
  | Maximal number of non-zero basis functions:       39 in task    43
  | Maximal number of non-zero basis functions:       39 in task    44
  | Maximal number of non-zero basis functions:       39 in task    45
  | Maximal number of non-zero basis functions:       39 in task    46
  | Maximal number of non-zero basis functions:       39 in task    47
  | Maximal number of non-zero basis functions:       39 in task    48
  | Maximal number of non-zero basis functions:       39 in task    49
  | Maximal number of non-zero basis functions:       39 in task    50
  | Maximal number of non-zero basis functions:       39 in task    51
  | Maximal number of non-zero basis functions:       38 in task    52
  | Maximal number of non-zero basis functions:       39 in task    53
  | Maximal number of non-zero basis functions:       38 in task    54
  | Maximal number of non-zero basis functions:       39 in task    55
  | Maximal number of non-zero basis functions:       39 in task    56
  | Maximal number of non-zero basis functions:       39 in task    57
  | Maximal number of non-zero basis functions:       39 in task    58
  | Maximal number of non-zero basis functions:       39 in task    59
  | Maximal number of non-zero basis functions:       39 in task    60
  | Maximal number of non-zero basis functions:       39 in task    61
  | Maximal number of non-zero basis functions:       39 in task    62
  | Maximal number of non-zero basis functions:       38 in task    63
  Selecting the method for density update.
  Loop over occupied states selected for charge density update.
  Available memory per node after get_n_compute_maxes_p1 [GB]:   1000.29
  Allocating        0.004 MB for KS_eigenvector
  Available memory per node after allocate_matrices [GB]:   1000.29
  Available memory per node after init_comm_sparse_local_matrix_scalapack [GB]:   1000.29
  Integrating Hamiltonian matrix: batch-based integration.
  Time summed over all CPUs for integration: real work        0.122 s, elapsed        0.238 s => Consider using load balancing!
  Available memory per node after integrate hamiltonian matrix [GB]:   1000.29
  Integrating overlap matrix.
  Time summed over all CPUs for integration: real work        0.030 s, elapsed        0.288 s
  Available memory per node after integrate ovlp matrix [GB]:   1000.29
  Deallocating overlap matrix.
  Available memory per node after save_overlap_scalapack [GB]:   1000.29

  Updating Kohn-Sham eigenvalues and eigenvectors using ELSI and the ELPA eigensolver.
  Overlap matrix is not singular
  | Lowest and highest eigenvalues :  0.1534E-01,  0.1985E+01
  Finished singularity check of overlap matrix
  | Time :     0.149 s
  Starting ELPA eigensolver
  Finished Cholesky decomposition
  | Time :     0.001 s
  Finished transformation to standard eigenproblem
  | Time :     0.001 s
  Finished solving standard eigenproblem
  | Time :     0.037 s
  Finished back-transformation of eigenvectors
  | Time :     0.000 s

  Obtaining occupation numbers and electronic chemical potential using ELSI.
  | Note that, for insulating systems, the printed 'chemical potential' value is not uniquely defined.
  | It can be anywhere in the energy gap, as long as it correctly separates occupied and unoccupied states.
  | In systems with a gap, the physically relevant chemical potential is the VBM or HOMO.

  | Chemical potential (Fermi level):    -1.94410612 eV
  Available memory per node after advance_KS_solution [GB]:   1000.28
  Writing Kohn-Sham eigenvalues.

  State    Occupation    Eigenvalue [Ha]    Eigenvalue [eV]
      1       2.00000        -101.274337        -2755.81493
      2       2.00000          -9.075523         -246.95756
      3       2.00000          -6.796510         -184.94245
      4       2.00000          -6.792824         -184.84215
      5       2.00000          -6.792824         -184.84215
      6       2.00000          -1.693447          -46.08103
      7       2.00000          -0.599374          -16.30979
      8       2.00000          -0.167963           -4.57050
      9       2.00000          -0.162969           -4.43461
     10       2.00000          -0.162969           -4.43461
     11       0.00000           0.020080            0.54640
     12       0.00000           0.138055            3.75666
     13       0.00000           0.138055            3.75666
     14       0.00000           0.188005            5.11588
     15       0.00000           0.250536            6.81742

  Highest occupied state (VBM) at     -4.43461063 eV
  | Occupation number:      2.00000000

  Lowest unoccupied state (CBM) at     0.54639839 eV
  | Occupation number:      0.00000000

  Overall HOMO-LUMO gap:      4.98100902 eV.
  Calculating total energy contributions from superposition of free atom densities.

  Total energy components:
  | Sum of eigenvalues            :        -267.03748003 Ha       -7266.45954514 eV
  | XC energy correction          :         -23.14003339 Ha        -629.67234602 eV
  | XC potential correction       :          33.66160489 Ha         915.97887353 eV
  | Free-atom electrostatic energy:        -206.44940664 Ha       -5617.77418386 eV
  | Hartree energy correction     :          -0.00000000 Ha          -0.00000000 eV
  | Entropy correction            :          -0.00000000 Ha          -0.00000000 eV
  | ---------------------------
  | Total energy                  :        -462.96531518 Ha      -12597.92720149 eV
  | Total energy, T -> 0          :        -462.96531518 Ha      -12597.92720149 eV  <-- do not rely on this value for anything but (periodic) metals
  | Electronic free energy        :        -462.96531518 Ha      -12597.92720149 eV

  Derived energy quantities:
  | Kinetic energy                :         471.76025041 Ha       12837.24956560 eV
  | Electrostatic energy          :        -911.58553219 Ha      -24805.50442107 eV
  | Energy correction for multipole
  | error in Hartree potential    :           0.00000000 Ha           0.00000000 eV
  | Sum of eigenvalues per atom                           :       -3633.22977257 eV
  | Total energy (T->0) per atom                          :       -6298.96360074 eV  <-- do not rely on this value for anything but (periodic) metals
  | Electronic free energy per atom                       :       -6298.96360074 eV
  
  --------------------------------------------
  Constructing auxiliary basis (full product) ...
  
  Product basis:
  | charge radius: extent of product basis function
  | field radius: extent of its Coulomb potential
  | Species   l  charge radius    field radius  multipol momen
  |    Li     0     5.582846 A      5.582846 A       -3.144713E-16 a.u.
  |    Li     0     6.156440 A      6.232164 A        1.358600E-16 a.u.
  |    Li     0     6.156440 A      6.156440 A        4.668096E-18 a.u.
  |    Li     0     6.308820 A      6.386418 A        3.548253E-16 a.u.
  |    Li     0     6.464971 A      6.544491 A        6.796636E-17 a.u.
  |    Li     0     6.386418 A      6.464971 A        3.185766E-16 a.u.
  |    Li     0     6.464971 A  5.067980E+12 A            0.762121 a.u.
  |    Li     1     5.381805 A      5.381805 A       -1.482325E-17 a.u.
  |    Li     1     5.651516 A      5.721029 A        6.612115E-18 a.u.
  |    Li     1     5.651516 A      5.721029 A        3.770354E-17 a.u.
  |    Li     1     5.651516 A      5.651516 A       -9.587915E-17 a.u.
  |    Li     1     6.308820 A      6.386418 A       -4.677303E-16 a.u.
  |    Li     1     6.464971 A      6.544491 A        1.108676E-16 a.u.
  |    Li     1     6.464971 A  3.470517E+06 A            3.422758 a.u.
  |    Li     2     5.651516 A      5.651516 A        1.910269E-15 a.u.
  |    Li     2     6.386418 A      6.386418 A        1.024727E-15 a.u.
  |    Li     2     6.308820 A      6.386418 A       -4.589403E-16 a.u.
  |    Li     2     6.464971 A      6.464971 A       -4.974213E-15 a.u.
  |    Li     2     6.464971 A      6.464971 A       -2.773043E-15 a.u.
  |    Li     2     6.464971 A      6.544491 A       -9.458029E-16 a.u.
  |    Li     2     6.464971 A  3.408573E+04 A           21.266918 a.u.
  |    Li     3     6.386418 A      6.386418 A        1.625154E-15 a.u.
  |    Li     3     6.308820 A      6.308820 A        1.076799E-14 a.u.
  |    Li     3     6.386418 A      6.464971 A        2.008306E-15 a.u.
  |    Li     3     6.464971 A      6.464971 A        2.069231E-14 a.u.
  |    Li     3     6.386418 A      6.464971 A       -1.040980E-14 a.u.
  |    Li     3     6.464971 A  3.566138E+03 A          164.126393 a.u.
  |    Li     4     6.386418 A      6.386418 A       -1.914546E-14 a.u.
  |    Li     4     6.386418 A      6.386418 A        4.683046E-15 a.u.
  |    Li     4     6.464971 A      6.464971 A       -1.214112E-13 a.u.
  |    Li     4     6.464971 A  8.531224E+02 A          866.645015 a.u.
  |    Li     5     6.386418 A      6.386418 A       -3.886259E-13 a.u.
  |    Li     5     6.386418 A  2.809985E+02 A         1784.053008 a.u.
  |    Li     6     6.386418 A  1.425168E+02 A         8177.966580 a.u.
  |    Cl     0     0.915530 A      0.915530 A        4.325002E-17 a.u.
  |    Cl     0     1.953645 A      1.953645 A        1.066486E-17 a.u.
  |    Cl     0     2.924493 A      2.924493 A       -9.513851E-17 a.u.
  |    Cl     0     3.689150 A      3.689150 A        7.993918E-17 a.u.
  |    Cl     0     3.734526 A      3.734526 A       -1.300008E-16 a.u.
  |    Cl     0     4.068180 A      4.068180 A       -4.873789E-16 a.u.
  |    Cl     0     5.323577 A      5.323577 A       -1.259093E-16 a.u.
  |    Cl     0     5.258893 A      5.258893 A       -1.009507E-16 a.u.
  |    Cl     0     5.389057 A      5.455343 A       -1.406336E-16 a.u.
  |    Cl     0     5.389057 A  4.212820E+12 A            0.633522 a.u.
  |    Cl     1     2.002000 A      2.002000 A        1.440196E-17 a.u.
  |    Cl     1     3.071055 A      3.071055 A        8.257404E-17 a.u.
  |    Cl     1     3.826961 A      3.826961 A       -7.965283E-17 a.u.
  |    Cl     1     3.780461 A      3.780461 A        1.013794E-16 a.u.
  |    Cl     1     4.068180 A      4.068180 A       -2.033070E-16 a.u.
  |    Cl     1     5.323577 A      5.323577 A        1.125953E-16 a.u.
  |    Cl     1     5.323577 A      5.323577 A       -1.236162E-16 a.u.
  |    Cl     1     5.389057 A      5.389057 A        1.030026E-16 a.u.
  |    Cl     1     5.455343 A      5.455343 A       -4.141020E-16 a.u.
  |    Cl     1     5.455343 A  2.748268E+06 A            2.146376 a.u.
  |    Cl     2     3.428237 A      3.428237 A       -9.512328E-18 a.u.
  |    Cl     2     5.194994 A      5.194994 A       -5.770847E-17 a.u.
  |    Cl     2     5.258893 A      5.258893 A        9.840496E-16 a.u.
  |    Cl     2     5.323577 A      5.323577 A       -8.899968E-16 a.u.
  |    Cl     2     5.389057 A      5.389057 A       -1.827740E-15 a.u.
  |    Cl     2     5.389057 A      5.389057 A       -1.387201E-15 a.u.
  |    Cl     2     5.389057 A      5.389057 A       -5.498544E-17 a.u.
  |    Cl     2     5.455343 A      5.455343 A        8.876657E-18 a.u.
  |    Cl     2     5.455343 A  2.610885E+04 A            9.557622 a.u.
  |    Cl     3     5.194994 A      5.194994 A        3.764007E-17 a.u.
  |    Cl     3     5.323577 A      5.323577 A       -1.982043E-15 a.u.
  |    Cl     3     5.323577 A      5.323577 A       -1.541338E-15 a.u.
  |    Cl     3     5.323577 A      5.323577 A       -3.165204E-15 a.u.
  |    Cl     3     5.389057 A      5.389057 A       -1.460373E-15 a.u.
  |    Cl     3     5.389057 A      5.389057 A       -2.471082E-15 a.u.
  |    Cl     3     5.455343 A      5.455343 A       -9.990476E-15 a.u.
  |    Cl     3     5.455343 A  2.702075E+03 A           54.097265 a.u.
  |    Cl     4     5.194994 A      5.194994 A        3.984180E-15 a.u.
  |    Cl     4     5.323577 A      5.323577 A        1.256657E-14 a.u.
  |    Cl     4     5.389057 A      5.389057 A       -4.089635E-15 a.u.
  |    Cl     4     5.455343 A      5.455343 A        2.469886E-15 a.u.
  |    Cl     4     5.455343 A      5.455343 A        1.421411E-14 a.u.
  |    Cl     4     5.455343 A      5.455343 A        2.362988E-14 a.u.
  |    Cl     4     5.455343 A      5.455343 A        6.369046E-14 a.u.
  |    Cl     4     5.455343 A  7.075722E+02 A          340.124713 a.u.
  |    Cl     5     5.069517 A      5.069517 A       -1.643483E-14 a.u.
  |    Cl     5     5.069517 A      5.069517 A        3.497061E-14 a.u.
  |    Cl     5     5.069517 A      5.069517 A       -2.999929E-14 a.u.
  |    Cl     5     5.131872 A      5.131872 A        8.176635E-14 a.u.
  |    Cl     5     5.131872 A  2.317702E+02 A          561.732337 a.u.
  |    Cl     6     5.069517 A      5.069517 A        7.030402E-14 a.u.
  |    Cl     6     5.069517 A      5.069517 A       -1.098715E-13 a.u.
  |    Cl     6     5.131872 A  1.127994E+02 A         1591.218943 a.u.
  |    Cl     7     4.886961 A      4.886961 A       -9.369806E-13 a.u.
  |    Cl     7     4.827582 A  5.843194E+01 A         1758.667825 a.u.
  |    Cl     8     4.886961 A  3.862688E+01 A         4681.519373 a.u.

  | Shrink_full_auxil_basis : there are       90  radial auxiliary wave functions
                            accepted and      83 rejected.
  | Shrink_full_auxil_basis : there are totally                 530 partial auxiliary wave functions.
  prodbas_tasks_distribution_pbc not up to date - distributing tasks.

  | Maximal number of product basis functions per thread :    16    16

  | Number of local auxiliary basis funcs on node     0 :     16
  | Number of local auxiliary basis funcs on node     1 :     16
  | Number of local auxiliary basis funcs on node     2 :     10
  | Number of local auxiliary basis funcs on node     3 :      8
  | Number of local auxiliary basis funcs on node     4 :      8
  | Number of local auxiliary basis funcs on node     5 :      8
  | Number of local auxiliary basis funcs on node     6 :      8
  | Number of local auxiliary basis funcs on node     7 :      8
  | Number of local auxiliary basis funcs on node     8 :      8
  | Number of local auxiliary basis funcs on node     9 :      8
  | Number of local auxiliary basis funcs on node    10 :      8
  | Number of local auxiliary basis funcs on node    11 :      8
  | Number of local auxiliary basis funcs on node    12 :      8
  | Number of local auxiliary basis funcs on node    13 :      8
  | Number of local auxiliary basis funcs on node    14 :      8
  | Number of local auxiliary basis funcs on node    15 :      8
  | Number of local auxiliary basis funcs on node    16 :      8
  | Number of local auxiliary basis funcs on node    17 :      8
  | Number of local auxiliary basis funcs on node    18 :      8
  | Number of local auxiliary basis funcs on node    19 :      8
  | Number of local auxiliary basis funcs on node    20 :      8
  | Number of local auxiliary basis funcs on node    21 :      8
  | Number of local auxiliary basis funcs on node    22 :      8
  | Number of local auxiliary basis funcs on node    23 :      8
  | Number of local auxiliary basis funcs on node    24 :      8
  | Number of local auxiliary basis funcs on node    25 :      8
  | Number of local auxiliary basis funcs on node    26 :      8
  | Number of local auxiliary basis funcs on node    27 :      8
  | Number of local auxiliary basis funcs on node    28 :      8
  | Number of local auxiliary basis funcs on node    29 :      8
  | Number of local auxiliary basis funcs on node    30 :      8
  | Number of local auxiliary basis funcs on node    31 :      8
  | Number of local auxiliary basis funcs on node    32 :      8
  | Number of local auxiliary basis funcs on node    33 :      8
  | Number of local auxiliary basis funcs on node    34 :      8
  | Number of local auxiliary basis funcs on node    35 :      8
  | Number of local auxiliary basis funcs on node    36 :      8
  | Number of local auxiliary basis funcs on node    37 :      8
  | Number of local auxiliary basis funcs on node    38 :      8
  | Number of local auxiliary basis funcs on node    39 :      8
  | Number of local auxiliary basis funcs on node    40 :      8
  | Number of local auxiliary basis funcs on node    41 :      8
  | Number of local auxiliary basis funcs on node    42 :      8
  | Number of local auxiliary basis funcs on node    43 :      8
  | Number of local auxiliary basis funcs on node    44 :      8
  | Number of local auxiliary basis funcs on node    45 :      8
  | Number of local auxiliary basis funcs on node    46 :      8
  | Number of local auxiliary basis funcs on node    47 :      8
  | Number of local auxiliary basis funcs on node    48 :      8
  | Number of local auxiliary basis funcs on node    49 :      8
  | Number of local auxiliary basis funcs on node    50 :      8
  | Number of local auxiliary basis funcs on node    51 :      8
  | Number of local auxiliary basis funcs on node    52 :      8
  | Number of local auxiliary basis funcs on node    53 :      8
  | Number of local auxiliary basis funcs on node    54 :      8
  | Number of local auxiliary basis funcs on node    55 :      8
  | Number of local auxiliary basis funcs on node    56 :      8
  | Number of local auxiliary basis funcs on node    57 :      8
  | Number of local auxiliary basis funcs on node    58 :      8
  | Number of local auxiliary basis funcs on node    59 :      8
  | Number of local auxiliary basis funcs on node    60 :      8
  | Number of local auxiliary basis funcs on node    61 :      8
  | Number of local auxiliary basis funcs on node    62 :      8
  | Number of local auxiliary basis funcs on node    63 :      8
  Parallel distribution of product basis not up to date - distributing tasks.

  | Maximal number of product basis functions per thread :    16    16

  | Minimal total memory requirement for three-center overlap :       0.014 Gbs
  | Number of local auxiliary basis functions on task:      0    16
  | Number of local auxiliary basis functions on task:      1    16
  | Number of local auxiliary basis functions on task:      2    10
  | Number of local auxiliary basis functions on task:      3     8
  | Number of local auxiliary basis functions on task:      4     8
  | Number of local auxiliary basis functions on task:      5     8
  | Number of local auxiliary basis functions on task:      6     8
  | Number of local auxiliary basis functions on task:      7     8
  | Number of local auxiliary basis functions on task:      8     8
  | Number of local auxiliary basis functions on task:      9     8
  | Number of local auxiliary basis functions on task:     10     8
  | Number of local auxiliary basis functions on task:     11     8
  | Number of local auxiliary basis functions on task:     12     8
  | Number of local auxiliary basis functions on task:     13     8
  | Number of local auxiliary basis functions on task:     14     8
  | Number of local auxiliary basis functions on task:     15     8
  | Number of local auxiliary basis functions on task:     16     8
  | Number of local auxiliary basis functions on task:     17     8
  | Number of local auxiliary basis functions on task:     18     8
  | Number of local auxiliary basis functions on task:     19     8
  | Number of local auxiliary basis functions on task:     20     8
  | Number of local auxiliary basis functions on task:     21     8
  | Number of local auxiliary basis functions on task:     22     8
  | Number of local auxiliary basis functions on task:     23     8
  | Number of local auxiliary basis functions on task:     24     8
  | Number of local auxiliary basis functions on task:     25     8
  | Number of local auxiliary basis functions on task:     26     8
  | Number of local auxiliary basis functions on task:     27     8
  | Number of local auxiliary basis functions on task:     28     8
  | Number of local auxiliary basis functions on task:     29     8
  | Number of local auxiliary basis functions on task:     30     8
  | Number of local auxiliary basis functions on task:     31     8
  | Number of local auxiliary basis functions on task:     32     8
  | Number of local auxiliary basis functions on task:     33     8
  | Number of local auxiliary basis functions on task:     34     8
  | Number of local auxiliary basis functions on task:     35     8
  | Number of local auxiliary basis functions on task:     36     8
  | Number of local auxiliary basis functions on task:     37     8
  | Number of local auxiliary basis functions on task:     38     8
  | Number of local auxiliary basis functions on task:     39     8
  | Number of local auxiliary basis functions on task:     40     8
  | Number of local auxiliary basis functions on task:     41     8
  | Number of local auxiliary basis functions on task:     42     8
  | Number of local auxiliary basis functions on task:     43     8
  | Number of local auxiliary basis functions on task:     44     8
  | Number of local auxiliary basis functions on task:     45     8
  | Number of local auxiliary basis functions on task:     46     8
  | Number of local auxiliary basis functions on task:     47     8
  | Number of local auxiliary basis functions on task:     48     8
  | Number of local auxiliary basis functions on task:     49     8
  | Number of local auxiliary basis functions on task:     50     8
  | Number of local auxiliary basis functions on task:     51     8
  | Number of local auxiliary basis functions on task:     52     8
  | Number of local auxiliary basis functions on task:     53     8
  | Number of local auxiliary basis functions on task:     54     8
  | Number of local auxiliary basis functions on task:     55     8
  | Number of local auxiliary basis functions on task:     56     8
  | Number of local auxiliary basis functions on task:     57     8
  | Number of local auxiliary basis functions on task:     58     8
  | Number of local auxiliary basis functions on task:     59     8
  | Number of local auxiliary basis functions on task:     60     8
  | Number of local auxiliary basis functions on task:     61     8
  | Number of local auxiliary basis functions on task:     62     8
  | Number of local auxiliary basis functions on task:     63     8
  | 2D aux task distribution:      8 X      8
  | 2D block size (nb_aux_2d):     64
  Minimal free memory per node on init_fm entry [GB]:   1000.07
  -----------------------------------------
  --- Initializing Fock matrix calculations
  -----------------------------------------
  screening_threshold (crit_val) =  0.000000100000
  coul_mat_threshold =  0.000000000100
  No atoms are split internally
  Number of super-cells in X Y Z:       0       0       0
  Number of atoms pairs total:            4
  Atom pair distribution:
  Cell:        0       0       0 atom pairs:        4
  sparsity of pfbvk:   1.00000000
  Number of atoms pairs in BvK cells:            4
  Max. memory consumption per node for Pulay mixing [GB]:      0.00
  Minimal total memory per node [GB]:   1056.49
  Minimal free memory per node [GB]:   1000.07
  --- Initializing LVL triples, type COULOMB
  | Storage requirements for basis-basbas products (processor-local):
  |   Species Li: n_prodsfn:   305; storage:        9.53 MiB.
  |   Species Cl: n_prodsfn:   833; storage:       26.03 MiB.

  --- Initializing Coulomb matrix calculations, type COULOMB
  Preparing TB like auxiliary 2-center Coulomb matrix
  SBT integration errors (all should be 'small'):
  large logFT aliasing -> increase N/lnrange
  large SBT aliasing -> decrease lnk0 & increase lnk0+lnrange
  large SBT ringing -> decrease lnr0 & increase lnr0+lnrange
  |            El't  L: logFT-al.   small-k   large-k   small-r   large-r
  | Need to store  9703 splines of   191 points taking      14632 KiB.
  | Spline reduction from  4096 to   191 points by (cutting and)     1 x coarsening gives error:  0.00E+00
  Finished with initialize_tb_auxmat/lvl_triples, time:        0.146
  --- Calculating Coulomb matrices
  Upper limit for memory consumption per node [GB] for Coulomb matrices if no compression occurs:       0.048
  Upper limit for temporary arrays in Coulomb matrix initalization [GB]:      9.60
  Allocating        0.956 MB for aux_mat
  Min./max. time for Coulomb matrix computation [s]:      0.00      0.00
  Max. memory consumption per node for global Coulomb matrix [GB]:      0.00
  Time to calculate Coulomb Matrices   :        0.005
  After init_coulomb_tuned [GB]:    999.44
  Atomic logSBT for LVL-triples                :  max(cpu_time)    wall_clock(cpu1)
  | Multiplication with kernel                  :        0.000 s           0.000 s
  | Main matrix multiplication                  :        0.000 s           0.000 s
  | Analytic angular integration                :        0.000 s           0.000 s
  | Kernel construction                         :        0.000 s           0.000 s
  | Overall 2-center overlap time               :        0.000 s           0.000 s
  | LVL initialization                          :        0.059 s           0.059 s
  | Whole LVL-triples                           :        0.059 s           0.059 s

  --- Initializing LVL triples, type COULOMB
  | Storage requirements for basis-basbas products (processor-local):
  |   Species Li: n_prodsfn:   305; storage:        9.53 MiB.
  |   Species Cl: n_prodsfn:   833; storage:       26.03 MiB.

  Atomic logSBT for 2-center Coulomb matrix    :  max(cpu_time)    wall_clock(cpu1)
  | TB initialization                           :        0.086 s           0.087 s
  | TB usage                                    :        0.002 s           0.001 s

  --- Initializing Coulomb matrix calculations, type COULOMB
  Preparing TB like auxiliary 2-center Coulomb matrix
  SBT integration errors (all should be 'small'):
  large logFT aliasing -> increase N/lnrange
  large SBT aliasing -> decrease lnk0 & increase lnk0+lnrange
  large SBT ringing -> decrease lnr0 & increase lnr0+lnrange
  |            El't  L: logFT-al.   small-k   large-k   small-r   large-r
  | Need to store  9703 splines of   191 points taking      14632 KiB.
  | Spline reduction from  4096 to   191 points by (cutting and)     1 x coarsening gives error:  0.00E+00
  Finished with initialize_tb_auxmat/lvl_triples, time:        0.112
  Max. memory consumption per node for uncompressed ovlp3fn matrix [GB]:       0.004
  --- Calculating OVLP3FN
  --- Done calculating OVLP3FN, time:        0.358
  After init_ovlp3fn_tuned2 [GB]:    999.23
  Max. memory consumption per node for compressed global ovlp3fn matrix [GB]:      -0.024
  Atomic logSBT for 2-center Coulomb matrix    :  max(cpu_time)    wall_clock(cpu1)
  | TB initialization                           :        0.078 s           0.080 s
  | TB usage                                    :        0.000 s           0.000 s

  Atomic logSBT for LVL-triples                :  max(cpu_time)    wall_clock(cpu1)
  | Multiplication with kernel                  :        0.001 s           0.000 s
  | Main matrix multiplication                  :        0.058 s           0.004 s
  | Analytic angular integration                :        0.001 s           0.000 s
  | Kernel construction                         :        0.001 s           0.000 s
  | Overall 2-center overlap time               :        0.065 s           0.004 s
  | 3-center preparation multiplications        :        0.009 s           0.001 s
  | 3-center preparation SBTs                   :        0.236 s           0.088 s
  | 3-center combinations                       :        0.069 s           0.005 s
  | Overal 3-center time                        :        0.263 s           0.095 s
  | LVL initialization                          :        0.027 s           0.026 s
  | Whole LVL-triples                           :        0.027 s           0.026 s

  Assumed free memory per node for Fock matrix prefactors [GB]    894.42
  Memory per instance for Coulomb / ovlp matrix [GB]      0.00     -0.05
  Number of nodes, tasks per node     2    32
  Number of instances:   16
  -----------------------------------------------------
  Dividing atoms among tasks for exact exchange energy:
  Atom:     1 Weight:   96096.
  Atom:     2 Weight:  0.34515E+06

  Average weight per task:  0.11031E+06

  Number of "big" (above average) atoms  :     1
  Number of "small" (below average) atoms:     1

  There are "big" and "small" atoms
  Reserving    1 tasks for "big" atoms
  Max. weight for big atoms:  0.34515E+06 small atoms:   96096.
  Trying 2 tasks for "big" atoms:
  Max. weight for big atoms:  0.17258E+06 small atoms:   96096.
  => Atom 2 gets 2 tasks
  Trying 3 tasks for "big" atoms:
  Max. weight for big atoms:  0.11505E+06 small atoms:   96096.
  => Atom 2 gets 3 tasks
  Using 1 tasks for "small" atoms, 3 for "big" atoms

  Atom division among tasks:
  Atom     1: (initial) task:     3, # of tasks:     1
  Atom     2: (initial) task:     0, # of tasks:     3

  -----------------------------------------------------
  Task      0: my_n_atoms2:      1 my_atom_list:      2
  Task      1: my_n_atoms2:      1 my_atom_list:      2
  Task      2: my_n_atoms2:      1 my_atom_list:      2
  Task      3: my_n_atoms2:      1 my_atom_list:      1
  Task      0: my_n_atoms2:      1 my_atom_list:      2
  Task      1: my_n_atoms2:      1 my_atom_list:      2
  Task      2: my_n_atoms2:      1 my_atom_list:      2
  Task      3: my_n_atoms2:      1 my_atom_list:      1
  Task      0: my_n_atoms2:      1 my_atom_list:      2
  Task      1: my_n_atoms2:      1 my_atom_list:      2
  Task      2: my_n_atoms2:      1 my_atom_list:      2
  Task      3: my_n_atoms2:      1 my_atom_list:      1
  Task      0: my_n_atoms2:      1 my_atom_list:      2
  Task      1: my_n_atoms2:      1 my_atom_list:      2
  Task      2: my_n_atoms2:      1 my_atom_list:      2
  Task      3: my_n_atoms2:      1 my_atom_list:      1
  Task      0: my_n_atoms2:      1 my_atom_list:      2
  Task      1: my_n_atoms2:      1 my_atom_list:      2
  Task      2: my_n_atoms2:      1 my_atom_list:      2
  Task      3: my_n_atoms2:      1 my_atom_list:      1
  Task      0: my_n_atoms2:      1 my_atom_list:      2
  Task      1: my_n_atoms2:      1 my_atom_list:      2
  Task      2: my_n_atoms2:      1 my_atom_list:      2
  Task      3: my_n_atoms2:      1 my_atom_list:      1
  Task      0: my_n_atoms2:      1 my_atom_list:      2
  Task      1: my_n_atoms2:      1 my_atom_list:      2
  Task      2: my_n_atoms2:      1 my_atom_list:      2
  Task      3: my_n_atoms2:      1 my_atom_list:      1
  Task      0: my_n_atoms2:      1 my_atom_list:      2
  Task      1: my_n_atoms2:      1 my_atom_list:      2
  Task      2: my_n_atoms2:      1 my_atom_list:      2
  Task      3: my_n_atoms2:      1 my_atom_list:      1
  Task      0: my_n_atoms2:      1 my_atom_list:      2
  Task      1: my_n_atoms2:      1 my_atom_list:      2
  Task      2: my_n_atoms2:      1 my_atom_list:      2
  Task      3: my_n_atoms2:      1 my_atom_list:      1
  Task      0: my_n_atoms2:      1 my_atom_list:      2
  Task      1: my_n_atoms2:      1 my_atom_list:      2
  Task      2: my_n_atoms2:      1 my_atom_list:      2
  Task      3: my_n_atoms2:      1 my_atom_list:      1
  Task      0: my_n_atoms2:      1 my_atom_list:      2
  Task      1: my_n_atoms2:      1 my_atom_list:      2
  Task      2: my_n_atoms2:      1 my_atom_list:      2
  Task      3: my_n_atoms2:      1 my_atom_list:      1
  Task      0: my_n_atoms2:      1 my_atom_list:      2
  Task      1: my_n_atoms2:      1 my_atom_list:      2
  Task      2: my_n_atoms2:      1 my_atom_list:      2
  Task      3: my_n_atoms2:      1 my_atom_list:      1
  Task      0: my_n_atoms2:      1 my_atom_list:      2
  Task      1: my_n_atoms2:      1 my_atom_list:      2
  Task      2: my_n_atoms2:      1 my_atom_list:      2
  Task      3: my_n_atoms2:      1 my_atom_list:      1
  Task      0: my_n_atoms2:      1 my_atom_list:      2
  Task      1: my_n_atoms2:      1 my_atom_list:      2
  Task      2: my_n_atoms2:      1 my_atom_list:      2
  Task      3: my_n_atoms2:      1 my_atom_list:      1
  Task      0: my_n_atoms2:      1 my_atom_list:      2
  Task      1: my_n_atoms2:      1 my_atom_list:      2
  Task      2: my_n_atoms2:      1 my_atom_list:      2
  Task      3: my_n_atoms2:      1 my_atom_list:      1
  Task      0: my_n_atoms2:      1 my_atom_list:      2
  Task      1: my_n_atoms2:      1 my_atom_list:      2
  Task      2: my_n_atoms2:      1 my_atom_list:      2
  Task      3: my_n_atoms2:      1 my_atom_list:      1
  Task      0: my_n_atom_pairs:      1
  Task      1: my_n_atom_pairs:      1
  Task      2: my_n_atom_pairs:      0
  Task      3: my_n_atom_pairs:      2
  Task      0: my_n_atom_pairs:      1
  Task      1: my_n_atom_pairs:      1
  Task      2: my_n_atom_pairs:      0
  Task      3: my_n_atom_pairs:      2
  Task      0: my_n_atom_pairs:      1
  Task      1: my_n_atom_pairs:      1
  Task      2: my_n_atom_pairs:      0
  Task      3: my_n_atom_pairs:      2
  Task      0: my_n_atom_pairs:      1
  Task      1: my_n_atom_pairs:      1
  Task      2: my_n_atom_pairs:      0
  Task      3: my_n_atom_pairs:      2
  Task      0: my_n_atom_pairs:      1
  Task      1: my_n_atom_pairs:      1
  Task      2: my_n_atom_pairs:      0
  Task      3: my_n_atom_pairs:      2
  Task      0: my_n_atom_pairs:      1
  Task      1: my_n_atom_pairs:      1
  Task      2: my_n_atom_pairs:      0
  Task      3: my_n_atom_pairs:      2
  Task      0: my_n_atom_pairs:      1
  Task      1: my_n_atom_pairs:      1
  Task      2: my_n_atom_pairs:      0
  Task      3: my_n_atom_pairs:      2
  Task      0: my_n_atom_pairs:      1
  Task      1: my_n_atom_pairs:      1
  Task      2: my_n_atom_pairs:      0
  Task      3: my_n_atom_pairs:      2
  Task      0: my_n_atom_pairs:      1
  Task      1: my_n_atom_pairs:      1
  Task      2: my_n_atom_pairs:      0
  Task      3: my_n_atom_pairs:      2
  Task      0: my_n_atom_pairs:      1
  Task      1: my_n_atom_pairs:      1
  Task      2: my_n_atom_pairs:      0
  Task      3: my_n_atom_pairs:      2
  Task      0: my_n_atom_pairs:      1
  Task      1: my_n_atom_pairs:      1
  Task      2: my_n_atom_pairs:      0
  Task      3: my_n_atom_pairs:      2
  Task      0: my_n_atom_pairs:      1
  Task      1: my_n_atom_pairs:      1
  Task      2: my_n_atom_pairs:      0
  Task      3: my_n_atom_pairs:      2
  Task      0: my_n_atom_pairs:      1
  Task      1: my_n_atom_pairs:      1
  Task      2: my_n_atom_pairs:      0
  Task      3: my_n_atom_pairs:      2
  Task      0: my_n_atom_pairs:      1
  Task      1: my_n_atom_pairs:      1
  Task      2: my_n_atom_pairs:      0
  Task      3: my_n_atom_pairs:      2
  Task      0: my_n_atom_pairs:      1
  Task      1: my_n_atom_pairs:      1
  Task      2: my_n_atom_pairs:      0
  Task      3: my_n_atom_pairs:      2
  Task      0: my_n_atom_pairs:      1
  Task      1: my_n_atom_pairs:      1
  Task      2: my_n_atom_pairs:      0
  Task      3: my_n_atom_pairs:      2
  Transferring Coulomb matrix to final data layout
  Coulomb matrix communicaton time [s]    0.74
  Max. memory per node for ovlp3fn matrices:        0.025 GB
  Total memory for ovlp3fn matrices:        0.003 GB
  --- Done getting norm of OVLP3FN, time:        0.000
  Total memory for ovlp3fn matrices:        0.003 GB
  --- time for get_ovlp3fn:        0.017
  Max. memory consumption per node for Hartree Fock matrix [GB]      0.00
  Blocksize for Fock matrix computation:     1
  Minimal free memory per node after Fock matrix initialization [GB]:    997.52
  Initialize hartree_potential_storage
  Max. number of atoms included in rho_multipole:            2

  End scf initialization - timings             :  max(cpu_time)    wall_clock(cpu1)
  | Time for scf. initialization                :        1.476 s           1.659 s
  | Boundary condition initialization           :        0.002 s           0.002 s
  | Integration                                 :        0.011 s           0.011 s
  | Solution of K.-S. eqns.                     :        0.167 s           0.193 s
  | Grid partitioning                           :        0.015 s           0.015 s
  | Preloading free-atom quantities on grid     :        0.004 s           0.004 s
  | Free-atom superposition energy              :        0.001 s           0.001 s
  | Total energy evaluation                     :        0.000 s           0.000 s
  | Product basis setup: Total time             :        1.306 s           1.433 s

  Partial memory accounting:
  | Current value for overall tracked memory usage:
  |   Minimum:        0.011 MB (on task 18)
  |   Maximum:        1.482 MB (on task  0)
  |   Average:        0.773 MB
  | Peak value for overall tracked memory usage:
  |   Minimum:        1.542 MB (on task 18 after allocating d_aux_mat)
  |   Maximum:        3.963 MB (on task 24 after allocating ovlp3fn_nosplit%tmploc)
  |   Average:        1.597 MB
  | Largest tracked array allocation so far:
  |   Minimum:        0.956 MB (aux_mat on task  1)
  |   Maximum:        1.688 MB (ovlp3fn_nosplit%dat on task 24)
  |   Average:        1.087 MB
  Note:  These values currently only include a subset of arrays which are explicitly tracked.
  The "true" memory usage will be greater.
------------------------------------------------------------
  Available memory after initialize_scf [GB]:    997.52
  Available memory after allocating mixing [GB]:    997.52
  Evaluating new KS density.
  Integration grid: deviation in total charge (<rho> - N_e) =   3.552714E-15

  Time for density update prior                :  max(cpu_time)    wall_clock(cpu1)
  | self-consistency iterative process          :        0.002 s           0.002 s
  Available memory before start of SCF loop [GB]:    997.51

------------------------------------------------------------
          Begin self-consistency iteration #    1

  Date     :  20260724, Time     :  093632.013
------------------------------------------------------------
  Pulay mixing of updated and previous charge densities.
  Available memory per node after mixing [GB]:    997.51
  Renormalizing the density to the exact electron count on the 3D integration grid.
  | Formal number of electrons (from input files) :      20.0000000000
  | Integrated number of electrons on 3D grid     :      20.0000000000
  | Charge integration error                      :       0.0000000000
  | Normalization factor for density and gradient :       1.0000000000

  Evaluating partitioned Hartree potential by multipole expansion.
  | Original multipole sum: apparent total charge =  -0.535001E-15
  | Sum of charges compensated after spline to logarithmic grids =   0.144132E-05
  | Analytical far-field extrapolation by fixed multipoles:
  | Hartree multipole sum: apparent total charge =  -0.571897E-15
  Summing up the Hartree potential.
  Time summed over all CPUs for potential: real work        0.002 s, elapsed        0.002 s
  | RMS charge density error from multipole expansion :   0.174332E-03

  Integrating Hamiltonian matrix: batch-based integration.
  Time summed over all CPUs for integration: real work        0.100 s, elapsed        0.115 s
  Max. memory consumption per node for dm_cols [GB]:      0.00
  Max. memory consumption per node for fock_matrix [GB]:      0.00
  Calculating non-local Hartree-Fock exchange by two-center RI (RI-LVL).
  screening_threshold (crit_val) =  0.000000100000
  Max. allocated memory per node for ovlp3fn_rcv [GB]:      0.00
  Max. allocated memory per node for fock_matrix_row [GB]:      0.00
  Max. memory consumption per node for m_ovlp_fact11 [GB]:      0.00
  Max. memory consumption per node for d_aux_mem [GB]:      0.00
  Max. memory consumption per node for dm_x_o3fn_aux [GB]:      0.00
  Max. allocated memory per node for tmp1/tmp2 [GB]:      0.00
   final impselect vector           6           2           6           1
   Time for autotuning:    4.3506050000001739E-003
  Exact exchange progress report - outermost block loop i_block: 1 ..       3
  |        1         2         3  
 Total ovlp3fn data transfer [GB]   1.0179679811699316E-003
  Average sparsity of tmp1/2 0.50000000
  Average sparsity of fock_matrix_row 0.10897436
  Full exact exchange energy: weighted long- and short-range EXX    194.734605162116 eV.
  Detailed communication and barrier times:
  | Comm    0:        0.000       0.000       0.000       0.000       0.000       0.000       0.000       0.000       0.000       0.000
  | Comm    1:        0.000       0.000       0.000       0.000       0.000       0.000       0.000       0.000       0.000       0.000
  | Comm    2:        0.000       0.000       0.000       0.000       0.000       0.000       0.000       0.000       0.000       0.000
  | Comm    3:        0.000       0.000       0.000       0.000       0.000       0.000       0.000       0.000       0.000       0.000
  | Comm    4:        0.000       0.000       0.000       0.000       0.000       0.000       0.000       0.000       0.000       0.000
  | Comm    5:        0.000       0.000       0.000       0.000       0.000       0.000       0.000       0.000       0.000       0.000
  | Comm    6:        0.000       0.000       0.000       0.000       0.000       0.000       0.000       0.000       0.000       0.000
  | Comm    7:        0.000       0.000       0.000       0.000       0.000       0.000       0.000       0.000       0.000       0.000
  | Comm    8:        0.000       0.000       0.000       0.000       0.000       0.000       0.000       0.000       0.000       0.000
  | Comm    9:        0.000       0.000       0.000       0.000       0.000       0.000       0.000       0.000       0.000       0.000
  | Comm   10:        0.000       0.000       0.000       0.000       0.000       0.000       0.000       0.000       0.000       0.000
  | Comm   11:        0.000       0.000       0.000       0.000       0.000       0.000       0.000       0.000       0.000       0.000
  | Comm   12:        0.000       0.000       0.000       0.000       0.000       0.000       0.000       0.000       0.000       0.000
  | Comm   13:        0.000       0.000       0.000       0.000       0.000       0.000       0.000       0.000       0.000       0.000
  | Comm   14:        0.000       0.000       0.000       0.000       0.000       0.000       0.000       0.000       0.000       0.000
  | Comm   15:        0.000       0.000       0.000       0.000       0.000       0.000       0.000       0.000       0.000       0.000
  | Comm   16:        0.000       0.000       0.000       0.000       0.000       0.000       0.000       0.000       0.000       0.000
  | Comm   17:        0.000       0.000       0.000       0.000       0.000       0.000       0.000       0.000       0.000       0.000
  | Comm   18:        0.000       0.000       0.000       0.000       0.000       0.000       0.000       0.000       0.000       0.000
  | Comm   19:        0.000       0.000       0.000       0.000       0.000       0.000       0.000       0.000       0.000       0.000
  | Comm   20:        0.000       0.000       0.000       0.000       0.000       0.000       0.000       0.000       0.000       0.000
  | Comm   21:        0.000       0.000       0.000       0.000       0.000       0.000       0.000       0.000       0.000       0.000
  | Comm   22:        0.000       0.000       0.000       0.000       0.000       0.000       0.000       0.000       0.000       0.000
  | Comm   23:        0.000       0.000       0.000       0.000       0.000       0.000       0.000       0.000       0.000       0.000
  | Comm   24:        0.000       0.000       0.000       0.000       0.000       0.000       0.000       0.000       0.000       0.000
  | Comm   25:        0.000       0.000       0.000       0.000       0.000       0.000       0.000       0.000       0.000       0.000
  | Comm   26:        0.000       0.000       0.000       0.000       0.000       0.000       0.000       0.000       0.000       0.000
  | Comm   27:        0.000       0.000       0.000       0.000       0.000       0.000       0.000       0.000       0.000       0.000
  | Comm   28:        0.000       0.000       0.000       0.000       0.000       0.000       0.000       0.000       0.000       0.000
  | Comm   29:        0.000       0.000       0.000       0.000       0.000       0.000       0.000       0.000       0.000       0.000
  | Comm   30:        0.000       0.000       0.000       0.000       0.000       0.000       0.000       0.000       0.000       0.000
  | Comm   31:        0.000       0.000       0.000       0.000       0.000       0.000       0.000       0.000       0.000       0.000
  | Comm   32:        0.000       0.000       0.000       0.000       0.000       0.000       0.000       0.000       0.000       0.000
  | Comm   33:        0.000       0.000       0.000       0.000       0.000       0.000       0.000       0.000       0.000       0.000
  | Comm   34:        0.000       0.000       0.000       0.000       0.000       0.000       0.000       0.000       0.000       0.000
  | Comm   35:        0.000       0.000       0.000       0.000       0.000       0.000       0.000       0.000       0.000       0.000
  | Comm   36:        0.000       0.000       0.000       0.000       0.000       0.000       0.000       0.000       0.000       0.000
  | Comm   37:        0.000       0.000       0.000       0.000       0.000       0.000       0.000       0.000       0.000       0.000
  | Comm   38:        0.000       0.000       0.000       0.000       0.000       0.000       0.000       0.000       0.000       0.000
  | Comm   39:        0.000       0.000       0.000       0.000       0.000       0.000       0.000       0.000       0.000       0.000
  | Comm   40:        0.000       0.000       0.000       0.000       0.000       0.000       0.000       0.000       0.000       0.000
  | Comm   41:        0.000       0.000       0.000       0.000       0.000       0.000       0.000       0.000       0.000       0.000
  | Comm   42:        0.000       0.000       0.000       0.000       0.000       0.000       0.000       0.000       0.000       0.000
  | Comm   43:        0.000       0.000       0.000       0.000       0.000       0.000       0.000       0.000       0.000       0.000
  | Comm   44:        0.000       0.000       0.000       0.000       0.000       0.000       0.000       0.000       0.000       0.000
  | Comm   45:        0.000       0.000       0.000       0.000       0.000       0.000       0.000       0.000       0.000       0.000
  | Comm   46:        0.000       0.000       0.000       0.000       0.000       0.000       0.000       0.000       0.000       0.000
  | Comm   47:        0.000       0.000       0.000       0.000       0.000       0.000       0.000       0.000       0.000       0.000
  | Comm   48:        0.000       0.000       0.000       0.000       0.000       0.000       0.000       0.000       0.000       0.000
  | Comm   49:        0.000       0.000       0.000       0.000       0.000       0.000       0.000       0.000       0.000       0.000
  | Comm   50:        0.000       0.000       0.000       0.000       0.000       0.000       0.000       0.000       0.000       0.000
  | Comm   51:        0.000       0.000       0.000       0.000       0.000       0.000       0.000       0.000       0.000       0.000
  | Comm   52:        0.000       0.000       0.000       0.000       0.000       0.000       0.000       0.000       0.000       0.000
  | Comm   53:        0.000       0.000       0.000       0.000       0.000       0.000       0.000       0.000       0.000       0.000
  | Comm   54:        0.000       0.000       0.000       0.000       0.000       0.000       0.000       0.000       0.000       0.000
  | Comm   55:        0.000       0.000       0.000       0.000       0.000       0.000       0.000       0.000       0.000       0.000
  | Comm   56:        0.000       0.000       0.000       0.000       0.000       0.000       0.000       0.000       0.000       0.000
  | Comm   57:        0.000       0.000       0.000       0.000       0.000       0.000       0.000       0.000       0.000       0.000
  | Comm   58:        0.000       0.000       0.000       0.000       0.000       0.000       0.000       0.000       0.000       0.000
  | Comm   59:        0.000       0.000       0.000       0.000       0.000       0.000       0.000       0.000       0.000       0.000
  | Comm   60:        0.000       0.000       0.000       0.000       0.000       0.000       0.000       0.000       0.000       0.000
  | Comm   61:        0.000       0.000       0.000       0.000       0.000       0.000       0.000       0.000       0.000       0.000
  | Comm   62:        0.000       0.000       0.000       0.000       0.000       0.000       0.000       0.000       0.000       0.000
  | Comm   63:        0.000       0.000       0.000       0.000       0.000       0.000       0.000       0.000       0.000       0.000
  | Imbalance    0:        0.000       0.000       0.000       0.000       0.000       0.000       0.000       0.000       0.000       0.000
  | Imbalance    1:        0.000       0.000       0.000       0.000       0.000       0.000       0.000       0.000       0.000       0.002
  | Imbalance    2:        0.000       0.000       0.000       0.000       0.000       0.000       0.000       0.000       0.000       0.002
  | Imbalance    3:        0.000       0.000       0.000       0.000       0.002       0.000       0.000       0.000       0.000       0.000
  | Imbalance    4:        0.000       0.000       0.000       0.000       0.000       0.000       0.000       0.000       0.000       0.000
  | Imbalance    5:        0.000       0.000       0.000       0.000       0.000       0.000       0.000       0.000       0.000       0.002
  | Imbalance    6:        0.000       0.000       0.000       0.000       0.000       0.000       0.000       0.000       0.000       0.002
  | Imbalance    7:        0.000       0.000       0.000       0.000       0.002       0.000       0.000       0.000       0.000       0.000
  | Imbalance    8:        0.000       0.000       0.000       0.000       0.000       0.000       0.000       0.000       0.000       0.000
  | Imbalance    9:        0.000       0.000       0.000       0.000       0.000       0.000       0.000       0.000       0.000       0.002
  | Imbalance   10:        0.000       0.000       0.000       0.000       0.000       0.000       0.000       0.000       0.000       0.002
  | Imbalance   11:        0.000       0.000       0.000       0.000       0.002       0.000       0.000       0.000       0.000       0.000
  | Imbalance   12:        0.000       0.000       0.000       0.000       0.000       0.000       0.000       0.000       0.000       0.000
  | Imbalance   13:        0.000       0.000       0.000       0.000       0.000       0.000       0.000       0.000       0.000       0.002
  | Imbalance   14:        0.000       0.000       0.000       0.000       0.000       0.000       0.000       0.000       0.000       0.002
  | Imbalance   15:        0.000       0.000       0.000       0.000       0.002       0.000       0.000       0.000       0.000       0.000
  | Imbalance   16:        0.000       0.000       0.000       0.000       0.000       0.000       0.000       0.000       0.000       0.000
  | Imbalance   17:        0.000       0.000       0.000       0.000       0.000       0.000       0.000       0.000       0.000       0.002
  | Imbalance   18:        0.000       0.000       0.000       0.000       0.000       0.000       0.000       0.000       0.000       0.002
  | Imbalance   19:        0.000       0.000       0.000       0.000       0.002       0.000       0.000       0.000       0.000       0.000
  | Imbalance   20:        0.000       0.000       0.000       0.000       0.000       0.000       0.000       0.000       0.000       0.000
  | Imbalance   21:        0.000       0.000       0.000       0.000       0.000       0.000       0.000       0.000       0.000       0.002
  | Imbalance   22:        0.000       0.000       0.000       0.000       0.000       0.000       0.000       0.000       0.000       0.002
  | Imbalance   23:        0.000       0.000       0.000       0.000       0.002       0.000       0.000       0.000       0.000       0.000
  | Imbalance   24:        0.000       0.000       0.000       0.000       0.000       0.000       0.000       0.000       0.000       0.000
  | Imbalance   25:        0.000       0.000       0.000       0.000       0.000       0.000       0.000       0.000       0.000       0.002
  | Imbalance   26:        0.000       0.000       0.000       0.000       0.000       0.000       0.000       0.000       0.000       0.002
  | Imbalance   27:        0.000       0.000       0.000       0.000       0.002       0.000       0.000       0.000       0.000       0.000
  | Imbalance   28:        0.000       0.000       0.000       0.000       0.000       0.000       0.000       0.000       0.000       0.000
  | Imbalance   29:        0.000       0.000       0.000       0.000       0.000       0.000       0.000       0.000       0.000       0.002
  | Imbalance   30:        0.000       0.000       0.000       0.000       0.000       0.000       0.000       0.000       0.000       0.002
  | Imbalance   31:        0.000       0.000       0.000       0.000       0.001       0.000       0.000       0.000       0.000       0.000
  | Imbalance   32:        0.000       0.000       0.000       0.000       0.000       0.000       0.000       0.000       0.000       0.000
  | Imbalance   33:        0.000       0.000       0.000       0.000       0.000       0.000       0.000       0.000       0.000       0.001
  | Imbalance   34:        0.000       0.000       0.000       0.000       0.000       0.000       0.000       0.000       0.000       0.001
  | Imbalance   35:        0.000       0.000       0.000       0.000       0.000       0.000       0.000       0.000       0.000       0.000
  | Imbalance   36:        0.000       0.000       0.000       0.000       0.000       0.000       0.000       0.000       0.000       0.000
  | Imbalance   37:        0.000       0.000       0.000       0.000       0.000       0.000       0.000       0.000       0.000       0.001
  | Imbalance   38:        0.000       0.000       0.000       0.000       0.000       0.000       0.000       0.000       0.000       0.001
  | Imbalance   39:        0.000       0.000       0.000       0.000       0.001       0.000       0.000       0.000       0.000       0.000
  | Imbalance   40:        0.000       0.000       0.000       0.000       0.000       0.000       0.000       0.000       0.000       0.000
  | Imbalance   41:        0.000       0.000       0.000       0.000       0.000       0.000       0.000       0.000       0.000       0.001
  | Imbalance   42:        0.000       0.000       0.000       0.000       0.000       0.000       0.000       0.000       0.000       0.001
  | Imbalance   43:        0.000       0.000       0.000       0.000       0.001       0.000       0.000       0.000       0.000       0.000
  | Imbalance   44:        0.000       0.000       0.000       0.000       0.000       0.000       0.000       0.000       0.000       0.000
  | Imbalance   45:        0.000       0.000       0.000       0.000       0.000       0.000       0.000       0.000       0.000       0.001
  | Imbalance   46:        0.000       0.000       0.000       0.000       0.000       0.000       0.000       0.000       0.000       0.001
  | Imbalance   47:        0.000       0.000       0.000       0.000       0.001       0.000       0.000       0.000       0.000       0.000
  | Imbalance   48:        0.000       0.000       0.000       0.000       0.000       0.000       0.000       0.000       0.000       0.000
  | Imbalance   49:        0.000       0.000       0.000       0.000       0.000       0.000       0.000       0.000       0.000       0.001
  | Imbalance   50:        0.000       0.000       0.000       0.000       0.000       0.000       0.000       0.000       0.000       0.001
  | Imbalance   51:        0.000       0.000       0.000       0.000       0.001       0.000       0.000       0.000       0.000       0.000
  | Imbalance   52:        0.000       0.000       0.000       0.000       0.000       0.000       0.000       0.000       0.000       0.000
  | Imbalance   53:        0.000       0.000       0.000       0.000       0.000       0.000       0.000       0.000       0.000       0.001
  | Imbalance   54:        0.000       0.000       0.000       0.000       0.000       0.000       0.000       0.000       0.000       0.001
  | Imbalance   55:        0.000       0.000       0.000       0.000       0.001       0.000       0.000       0.000       0.000       0.000
  | Imbalance   56:        0.000       0.000       0.000       0.000       0.000       0.000       0.000       0.000       0.000       0.000
  | Imbalance   57:        0.000       0.000       0.000       0.000       0.000       0.000       0.000       0.000       0.000       0.001
  | Imbalance   58:        0.000       0.000       0.000       0.000       0.000       0.000       0.000       0.000       0.000       0.001
  | Imbalance   59:        0.000       0.000       0.000       0.000       0.001       0.000       0.000       0.000       0.000       0.000
  | Imbalance   60:        0.000       0.000       0.000       0.000       0.000       0.000       0.000       0.000       0.000       0.000
  | Imbalance   61:        0.000       0.000       0.000       0.000       0.000       0.000       0.000       0.000       0.000       0.001
  | Imbalance   62:        0.000       0.000       0.000       0.000       0.000       0.000       0.000       0.000       0.000       0.001
  | Imbalance   63:        0.000       0.000       0.000       0.000       0.001       0.000       0.000       0.000       0.000       0.000
  Times            DM_x_o3fn   CM_prod_1   CM_prod_2   tmp2_prod        Sync   Imbalance       Other  Total calc
  | Times    0:        0.000       0.001       0.000       0.000       0.000       0.000       0.016       0.019
  | Times    1:        0.000       0.000       0.000       0.000       0.000       0.002       0.017       0.019
  | Times    2:        0.000       0.000       0.000       0.000       0.000       0.002       0.016       0.019
  | Times    3:        0.000       0.001       0.000       0.000       0.000       0.002       0.016       0.019
  | Times    4:        0.000       0.001       0.000       0.000       0.000       0.000       0.016       0.019
  | Times    5:        0.000       0.000       0.000       0.000       0.000       0.002       0.016       0.019
  | Times    6:        0.000       0.000       0.000       0.000       0.000       0.002       0.016       0.019
  | Times    7:        0.000       0.001       0.000       0.000       0.000       0.002       0.016       0.019
  | Times    8:        0.000       0.001       0.000       0.000       0.001       0.000       0.016       0.019
  | Times    9:        0.000       0.000       0.000       0.000       0.001       0.002       0.016       0.019
  | Times   10:        0.000       0.000       0.000       0.000       0.001       0.002       0.016       0.019
  | Times   11:        0.000       0.001       0.000       0.000       0.000       0.002       0.016       0.019
  | Times   12:        0.000       0.001       0.000       0.000       0.001       0.000       0.016       0.019
  | Times   13:        0.000       0.000       0.000       0.000       0.001       0.002       0.016       0.019
  | Times   14:        0.000       0.000       0.000       0.000       0.001       0.002       0.016       0.019
  | Times   15:        0.000       0.001       0.000       0.000       0.000       0.002       0.016       0.019
  | Times   16:        0.000       0.001       0.000       0.000       0.001       0.000       0.016       0.019
  | Times   17:        0.000       0.000       0.000       0.000       0.001       0.002       0.016       0.019
  | Times   18:        0.000       0.000       0.000       0.000       0.001       0.002       0.016       0.019
  | Times   19:        0.000       0.001       0.000       0.000       0.000       0.002       0.016       0.019
  | Times   20:        0.000       0.001       0.001       0.000       0.001       0.000       0.016       0.019
  | Times   21:        0.000       0.000       0.000       0.000       0.001       0.002       0.016       0.019
  | Times   22:        0.000       0.000       0.000       0.000       0.001       0.002       0.016       0.019
  | Times   23:        0.000       0.001       0.000       0.000       0.000       0.002       0.016       0.019
  | Times   24:        0.000       0.001       0.001       0.000       0.001       0.000       0.016       0.019
  | Times   25:        0.000       0.000       0.000       0.000       0.001       0.002       0.016       0.019
  | Times   26:        0.000       0.000       0.000       0.000       0.001       0.002       0.016       0.019
  | Times   27:        0.000       0.000       0.000       0.000       0.000       0.002       0.016       0.019
  | Times   28:        0.000       0.001       0.001       0.000       0.000       0.000       0.017       0.019
  | Times   29:        0.000       0.000       0.000       0.000       0.000       0.002       0.017       0.019
  | Times   30:        0.000       0.000       0.000       0.000       0.000       0.002       0.017       0.019
  | Times   31:        0.000       0.000       0.000       0.000       0.000       0.002       0.017       0.019
  | Times   32:        0.000       0.000       0.000       0.000       0.000       0.000       0.018       0.019
  | Times   33:        0.000       0.000       0.000       0.000       0.000       0.001       0.018       0.019
  | Times   34:        0.000       0.000       0.000       0.000       0.000       0.001       0.018       0.019
  | Times   35:        0.000       0.000       0.000       0.000       0.000       0.001       0.018       0.019
  | Times   36:        0.000       0.000       0.000       0.000       0.000       0.000       0.018       0.019
  | Times   37:        0.000       0.000       0.000       0.000       0.000       0.001       0.018       0.019
  | Times   38:        0.000       0.000       0.000       0.000       0.000       0.001       0.018       0.019
  | Times   39:        0.000       0.000       0.000       0.000       0.000       0.001       0.018       0.019
  | Times   40:        0.000       0.001       0.000       0.000       0.000       0.000       0.018       0.019
  | Times   41:        0.000       0.000       0.000       0.000       0.000       0.001       0.018       0.019
  | Times   42:        0.000       0.000       0.000       0.000       0.000       0.001       0.018       0.019
  | Times   43:        0.000       0.000       0.000       0.000       0.000       0.001       0.018       0.019
  | Times   44:        0.000       0.000       0.000       0.000       0.000       0.000       0.018       0.019
  | Times   45:        0.000       0.000       0.000       0.000       0.000       0.001       0.018       0.019
  | Times   46:        0.000       0.000       0.000       0.000       0.000       0.001       0.018       0.019
  | Times   47:        0.000       0.000       0.000       0.000       0.000       0.001       0.018       0.019
  | Times   48:        0.000       0.001       0.000       0.000       0.000       0.000       0.018       0.019
  | Times   49:        0.000       0.000       0.000       0.000       0.000       0.001       0.018       0.019
  | Times   50:        0.000       0.000       0.000       0.000       0.000       0.001       0.018       0.019
  | Times   51:        0.000       0.000       0.000       0.000       0.000       0.001       0.018       0.019
  | Times   52:        0.000       0.001       0.000       0.000       0.000       0.000       0.018       0.019
  | Times   53:        0.000       0.000       0.000       0.000       0.000       0.001       0.018       0.019
  | Times   54:        0.000       0.000       0.000       0.000       0.000       0.001       0.018       0.019
  | Times   55:        0.000       0.000       0.000       0.000       0.000       0.001       0.018       0.019
  | Times   56:        0.000       0.000       0.000       0.000       0.000       0.000       0.018       0.019
  | Times   57:        0.000       0.000       0.000       0.000       0.000       0.001       0.018       0.019
  | Times   58:        0.000       0.000       0.000       0.000       0.000       0.001       0.018       0.019
  | Times   59:        0.000       0.000       0.000       0.000       0.000       0.001       0.018       0.019
  | Times   60:        0.000       0.001       0.000       0.000       0.000       0.000       0.018       0.019
  | Times   61:        0.000       0.000       0.000       0.000       0.000       0.001       0.018       0.019
  | Times   62:        0.000       0.000       0.000       0.000       0.000       0.001       0.018       0.019
  | Times   63:        0.000       0.000       0.000       0.000       0.000       0.001       0.018       0.019
  | Times  sum:        0.004       0.022       0.009       0.004       0.022       0.073       1.093       1.227

  Decomposition of Other based on code block (only on MPI task 0):
  Times             Block #1    Block #2    Block #3    Block #4    Block #5    Block #6    Block #7    Block #8
  | Times    0:        0.006       0.000       0.000       0.000       0.000       0.000       0.000       0.000

  Times             Block #9   Block #10   Block #11   Block #12   Block #13   Block #14   Block #15   Block #16
  | Times    0:        0.000       0.000       0.000       0.001       0.000       0.008       0.000       0.000

  Times            Block Sum    Expected
  | Times    0:        0.016       0.016
  Time for Fock matrix mixing     0.037

  Updating Kohn-Sham eigenvalues and eigenvectors using ELSI and the ELPA eigensolver.
  Starting ELPA eigensolver
  Finished transformation to standard eigenproblem
  | Time :     0.000 s
  Finished solving standard eigenproblem
  | Time :     0.001 s
  Finished back-transformation of eigenvectors
  | Time :     0.000 s

  Obtaining occupation numbers and electronic chemical potential using ELSI.
  | Note that, for insulating systems, the printed 'chemical potential' value is not uniquely defined.
  | It can be anywhere in the energy gap, as long as it correctly separates occupied and unoccupied states.
  | In systems with a gap, the physically relevant chemical potential is the VBM or HOMO.

  | Chemical potential (Fermi level):    -6.72321735 eV
  Writing Kohn-Sham eigenvalues.

  State    Occupation    Eigenvalue [Ha]    Eigenvalue [eV]
      1       2.00000        -102.711361        -2794.91833
      2       2.00000          -9.804213         -266.78622
      3       2.00000          -7.442971         -202.53356
      4       2.00000          -7.439249         -202.43226
      5       2.00000          -7.439249         -202.43226
      6       2.00000          -2.191171          -59.62479
      7       2.00000          -1.011188          -27.51583
      8       2.00000          -0.520831          -14.17254
      9       2.00000          -0.500113          -13.60876
     10       2.00000          -0.500113          -13.60876
     11       0.00000           0.005965            0.16233
     12       0.00000           0.102152            2.77969
     13       0.00000           0.102152            2.77969
     14       0.00000           0.155053            4.21920
     15       0.00000           0.214955            5.84921

  Highest occupied state (VBM) at    -13.60876118 eV
  | Occupation number:      2.00000000

  Lowest unoccupied state (CBM) at     0.16232648 eV
  | Occupation number:      0.00000000

  Overall HOMO-LUMO gap:     13.77108765 eV.

  Total energy components:
  | Sum of eigenvalues            :        -279.12091760 Ha       -7595.26661082 eV
  | XC energy correction          :         -15.97801666 Ha        -434.78395477 eV
  | XC potential correction       :          31.74719935 Ha         863.88524831 eV
  | Free-atom electrostatic energy:        -206.44940664 Ha       -5617.77418386 eV
  | Hartree energy correction     :          -0.30856420 Ha          -8.39645905 eV
  | Entropy correction            :          -0.00000000 Ha          -0.00000000 eV
  | ---------------------------
  | Total energy                  :        -470.10970574 Ha      -12792.33596018 eV
  | Total energy, T -> 0          :        -470.10970574 Ha      -12792.33596018 eV  <-- do not rely on this value for anything but (periodic) metals
  | Electronic free energy        :        -470.10970574 Ha      -12792.33596018 eV

  Derived energy quantities:
  | Kinetic energy                :         471.84014028 Ha       12839.42347980 eV
  | Electrostatic energy          :        -911.62441070 Ha      -24806.56235925 eV
  | Energy correction for multipole
  | error in Hartree potential    :          -0.00016521 Ha          -0.00449559 eV
  | Sum of eigenvalues per atom                           :       -3797.63330541 eV
  | Total energy (T->0) per atom                          :       -6396.16798009 eV  <-- do not rely on this value for anything but (periodic) metals
  | Electronic free energy per atom                       :       -6396.16798009 eV
  Evaluating new KS density.
  Integration grid: deviation in total charge (<rho> - N_e) =   3.552714E-15

  Self-consistency convergence accuracy:
  | Change of charge density      :  0.1038E+00
  | Change of unmixed KS density  :  0.3203E+02
  | Change of sum of eigenvalues  : -0.3288E+03 eV
  | Change of total energy        : -0.1944E+03 eV


------------------------------------------------------------
  End self-consistency iteration #     1       :  max(cpu_time)    wall_clock(cpu1)
  | Time for this iteration                     :        0.083 s           0.083 s
  | Charge density update                       :        0.001 s           0.001 s
  | Density mixing                              :        0.000 s           0.000 s
  | Hartree multipole update                    :        0.002 s           0.002 s
  | Hartree multipole summation                 :        0.003 s           0.002 s
  | Integration                                 :        0.002 s           0.002 s
  | Fock matrix evaluation                      :        0.068 s           0.064 s
  | Solution of K.-S. eqns.                     :        0.004 s           0.003 s
  | Total energy evaluation                     :        0.000 s           0.000 s

  Partial memory accounting:
  | Current value for overall tracked memory usage:
  |   Minimum:  -114687.551 MB (on task 14)
  |   Maximum:        1.989 MB (on task 48)
  |   Average:   -26366.766 MB
  | Peak value for overall tracked memory usage:
  |   Minimum:        1.542 MB (on task 18 after allocating d_aux_mat)
  |   Maximum:        3.963 MB (on task 24 after allocating ovlp3fn_nosplit%tmploc)
  |   Average:        1.814 MB
  | Largest tracked array allocation so far:
  |   Minimum:        0.956 MB (aux_mat on task  1)
  |   Maximum:        1.688 MB (ovlp3fn_nosplit%dat on task 24)
  |   Average:        1.087 MB
  Note:  These values currently only include a subset of arrays which are explicitly tracked.
  The "true" memory usage will be greater.
------------------------------------------------------------

------------------------------------------------------------
          Begin self-consistency iteration #    2

  Date     :  20260724, Time     :  093632.359
------------------------------------------------------------
  Pulay mixing of updated and previous charge densities.
  Available memory per node after mixing [GB]:    997.42
  Renormalizing the density to the exact electron count on the 3D integration grid.
  | Formal number of electrons (from input files) :      20.0000000000
  | Integrated number of electrons on 3D grid     :      20.0000000000
  | Charge integration error                      :       0.0000000000
  | Normalization factor for density and gradient :       1.0000000000

  Evaluating partitioned Hartree potential by multipole expansion.
  | Original multipole sum: apparent total charge =  -0.522702E-15
  | Sum of charges compensated after spline to logarithmic grids =   0.131764E-05
  | Analytical far-field extrapolation by fixed multipoles:
  | Hartree multipole sum: apparent total charge =  -0.528851E-15
  Summing up the Hartree potential.
  Time summed over all CPUs for potential: real work        0.001 s, elapsed        0.002 s
  | RMS charge density error from multipole expansion :   0.163245E-03

  Integrating Hamiltonian matrix: batch-based integration.
  Time summed over all CPUs for integration: real work        0.091 s, elapsed        0.106 s
  Calculating non-local Hartree-Fock exchange by two-center RI (RI-LVL).
  screening_threshold (crit_val) =  0.000000100000
  Exact exchange progress report - outermost block loop i_block: 1 ..       3
  |        1         2         3  
 Total ovlp3fn data transfer [GB]   4.3627199192997068E-004
  Average sparsity of tmp1/2 0.50000000
  Average sparsity of fock_matrix_row 0.10897436
  Full exact exchange energy: weighted long- and short-range EXX    195.821210045941 eV.
  Times            DM_x_o3fn   CM_prod_1   CM_prod_2   tmp2_prod        Sync   Imbalance       Other  Total calc
  | Times    0:        0.000       0.001       0.000       0.000       0.000       0.000       0.007       0.009
  | Times    1:        0.000       0.000       0.000       0.000       0.000       0.001       0.007       0.009
  | Times    2:        0.000       0.000       0.000       0.000       0.000       0.002       0.007       0.009
  | Times    3:        0.000       0.000       0.000       0.000       0.000       0.001       0.007       0.009
  | Times    4:        0.000       0.001       0.000       0.000       0.000       0.000       0.007       0.009
  | Times    5:        0.000       0.000       0.000       0.000       0.000       0.001       0.007       0.009
  | Times    6:        0.000       0.000       0.000       0.000       0.000       0.001       0.007       0.009
  | Times    7:        0.000       0.000       0.000       0.000       0.000       0.001       0.007       0.009
  | Times    8:        0.000       0.001       0.000       0.000       0.000       0.000       0.007       0.009
  | Times    9:        0.000       0.000       0.000       0.000       0.000       0.001       0.007       0.009
  | Times   10:        0.000       0.000       0.000       0.000       0.000       0.001       0.007       0.009
  | Times   11:        0.000       0.000       0.000       0.000       0.000       0.001       0.007       0.009
  | Times   12:        0.000       0.001       0.000       0.000       0.000       0.000       0.007       0.009
  | Times   13:        0.000       0.000       0.000       0.000       0.000       0.001       0.007       0.009
  | Times   14:        0.000       0.000       0.000       0.000       0.000       0.002       0.007       0.009
  | Times   15:        0.000       0.000       0.000       0.000       0.000       0.001       0.007       0.009
  | Times   16:        0.000       0.001       0.000       0.000       0.000       0.000       0.007       0.009
  | Times   17:        0.000       0.000       0.000       0.000       0.000       0.001       0.007       0.009
  | Times   18:        0.000       0.000       0.000       0.000       0.000       0.001       0.007       0.009
  | Times   19:        0.000       0.000       0.000       0.000       0.000       0.001       0.007       0.009
  | Times   20:        0.000       0.001       0.000       0.000       0.000       0.000       0.008       0.009
  | Times   21:        0.000       0.000       0.000       0.000       0.000       0.001       0.008       0.009
  | Times   22:        0.000       0.000       0.000       0.000       0.000       0.001       0.008       0.009
  | Times   23:        0.000       0.000       0.000       0.000       0.000       0.001       0.008       0.009
  | Times   24:        0.000       0.001       0.000       0.000       0.000       0.000       0.007       0.009
  | Times   25:        0.000       0.000       0.000       0.000       0.000       0.001       0.007       0.009
  | Times   26:        0.000       0.000       0.000       0.000       0.000       0.002       0.007       0.009
  | Times   27:        0.000       0.000       0.000       0.000       0.000       0.001       0.007       0.009
  | Times   28:        0.000       0.001       0.000       0.000       0.000       0.000       0.007       0.009
  | Times   29:        0.000       0.000       0.000       0.000       0.001       0.002       0.007       0.009
  | Times   30:        0.000       0.000       0.000       0.000       0.000       0.002       0.007       0.009
  | Times   31:        0.000       0.001       0.000       0.000       0.000       0.001       0.007       0.009
  | Times   32:        0.000       0.000       0.000       0.000       0.000       0.000       0.008       0.009
  | Times   33:        0.000       0.000       0.000       0.000       0.000       0.001       0.008       0.009
  | Times   34:        0.000       0.000       0.000       0.000       0.000       0.001       0.008       0.009
  | Times   35:        0.000       0.000       0.000       0.000       0.000       0.001       0.008       0.009
  | Times   36:        0.000       0.001       0.000       0.000       0.000       0.000       0.007       0.009
  | Times   37:        0.000       0.000       0.000       0.000       0.000       0.001       0.007       0.009
  | Times   38:        0.000       0.000       0.000       0.000       0.000       0.001       0.007       0.009
  | Times   39:        0.000       0.000       0.000       0.000       0.000       0.001       0.007       0.009
  | Times   40:        0.000       0.001       0.000       0.000       0.001       0.000       0.007       0.009
  | Times   41:        0.000       0.000       0.000       0.000       0.001       0.002       0.007       0.009
  | Times   42:        0.000       0.000       0.000       0.000       0.001       0.002       0.007       0.009
  | Times   43:        0.000       0.000       0.000       0.000       0.000       0.001       0.007       0.009
  | Times   44:        0.000       0.001       0.000       0.000       0.000       0.000       0.007       0.009
  | Times   45:        0.000       0.000       0.000       0.000       0.000       0.002       0.007       0.009
  | Times   46:        0.000       0.000       0.000       0.000       0.000       0.002       0.007       0.009
  | Times   47:        0.000       0.000       0.000       0.000       0.000       0.001       0.007       0.009
  | Times   48:        0.000       0.001       0.000       0.000       0.001       0.000       0.007       0.009
  | Times   49:        0.000       0.000       0.000       0.000       0.001       0.002       0.007       0.009
  | Times   50:        0.000       0.000       0.000       0.000       0.001       0.002       0.007       0.009
  | Times   51:        0.000       0.000       0.000       0.000       0.000       0.001       0.007       0.009
  | Times   52:        0.000       0.001       0.000       0.000       0.000       0.000       0.007       0.009
  | Times   53:        0.000       0.000       0.000       0.000       0.000       0.002       0.007       0.009
  | Times   54:        0.000       0.000       0.000       0.000       0.000       0.002       0.007       0.009
  | Times   55:        0.000       0.001       0.000       0.000       0.000       0.001       0.007       0.009
  | Times   56:        0.000       0.001       0.000       0.000       0.000       0.000       0.007       0.009
  | Times   57:        0.000       0.000       0.000       0.000       0.000       0.001       0.007       0.009
  | Times   58:        0.000       0.000       0.000       0.000       0.000       0.001       0.007       0.009
  | Times   59:        0.000       0.000       0.000       0.000       0.000       0.001       0.007       0.009
  | Times   60:        0.000       0.001       0.000       0.000       0.000       0.000       0.007       0.009
  | Times   61:        0.000       0.000       0.000       0.000       0.000       0.002       0.007       0.009
  | Times   62:        0.000       0.000       0.000       0.000       0.000       0.002       0.007       0.009
  | Times   63:        0.000       0.000       0.000       0.000       0.000       0.001       0.007       0.009
  | Times  sum:        0.006       0.018       0.008       0.005       0.020       0.064       0.457       0.578

  Decomposition of Other based on code block (only on MPI task 0):
  Times             Block #1    Block #2    Block #3    Block #4    Block #5    Block #6    Block #7    Block #8
  | Times    0:        0.000       0.000       0.000       0.000       0.000       0.000       0.000       0.000

  Times             Block #9   Block #10   Block #11   Block #12   Block #13   Block #14   Block #15   Block #16
  | Times    0:        0.000       0.000       0.000       0.001       0.000       0.005       0.000       0.000

  Times            Block Sum    Expected
  | Times    0:        0.006       0.007
  Time for Fock matrix mixing     0.000

  Updating Kohn-Sham eigenvalues and eigenvectors using ELSI and the ELPA eigensolver.
  Starting ELPA eigensolver
  Finished transformation to standard eigenproblem
  | Time :     0.000 s
  Finished solving standard eigenproblem
  | Time :     0.021 s
  Finished back-transformation of eigenvectors
  | Time :     0.001 s

  Obtaining occupation numbers and electronic chemical potential using ELSI.
  | Note that, for insulating systems, the printed 'chemical potential' value is not uniquely defined.
  | It can be anywhere in the energy gap, as long as it correctly separates occupied and unoccupied states.
  | In systems with a gap, the physically relevant chemical potential is the VBM or HOMO.

  | Chemical potential (Fermi level):    -6.74575002 eV
  Highest occupied state (VBM) at    -13.65449750 eV
  | Occupation number:      2.00000000

  Lowest unoccupied state (CBM) at     0.16299746 eV
  | Occupation number:      0.00000000

  Overall HOMO-LUMO gap:     13.81749496 eV.

  Checking to see if s.c.f. parameters should be adjusted.

  Total energy components:
  | Sum of eigenvalues            :        -279.16842057 Ha       -7596.55923232 eV
  | XC energy correction          :         -15.97582608 Ha        -434.72434622 eV
  | XC potential correction       :          31.74400818 Ha         863.79841219 eV
  | Free-atom electrostatic energy:        -206.44940664 Ha       -5617.77418386 eV
  | Hartree energy correction     :          -0.26112442 Ha          -7.10555692 eV
  | Entropy correction            :          -0.00000000 Ha          -0.00000000 eV
  | ---------------------------
  | Total energy                  :        -470.11076952 Ha      -12792.36490713 eV
  | Total energy, T -> 0          :        -470.11076952 Ha      -12792.36490713 eV  <-- do not rely on this value for anything but (periodic) metals
  | Electronic free energy        :        -470.11076952 Ha      -12792.36490713 eV

  Derived energy quantities:
  | Kinetic energy                :         471.82017023 Ha       12838.88006703 eV
  | Electrostatic energy          :        -911.60780657 Ha      -24806.11053782 eV
  | Energy correction for multipole
  | error in Hartree potential    :          -0.00014867 Ha          -0.00404551 eV
  | Sum of eigenvalues per atom                           :       -3798.27961616 eV
  | Total energy (T->0) per atom                          :       -6396.18245356 eV  <-- do not rely on this value for anything but (periodic) metals
  | Electronic free energy per atom                       :       -6396.18245356 eV
  Evaluating new KS density.
  Integration grid: deviation in total charge (<rho> - N_e) =   3.552714E-15

  Self-consistency convergence accuracy:
  | Change of charge density      :  0.1317E+00
  | Change of unmixed KS density  :  0.7593E-01
  | Change of sum of eigenvalues  : -0.1293E+01 eV
  | Change of total energy        : -0.2895E-01 eV


------------------------------------------------------------
  End self-consistency iteration #     2       :  max(cpu_time)    wall_clock(cpu1)
  | Time for this iteration                     :        0.275 s           0.039 s
  | Charge density update                       :        0.001 s           0.001 s
  | Density mixing                              :        0.240 s           0.001 s
  | Hartree multipole update                    :        0.001 s           0.001 s
  | Hartree multipole summation                 :        0.002 s           0.002 s
  | Integration                                 :        0.002 s           0.002 s
  | Fock matrix evaluation                      :        0.009 s           0.010 s
  | Solution of K.-S. eqns.                     :        0.022 s           0.022 s
  | Total energy evaluation                     :        0.000 s           0.000 s

  Partial memory accounting:
  | Current value for overall tracked memory usage:
  |   Minimum:  -163839.550 MB (on task 14)
  |   Maximum:        1.989 MB (on task 48)
  |   Average:   -36350.766 MB
  | Peak value for overall tracked memory usage:
  |   Minimum:        1.542 MB (on task 18 after allocating d_aux_mat)
  |   Maximum:        3.963 MB (on task 24 after allocating ovlp3fn_nosplit%tmploc)
  |   Average:        1.814 MB
  | Largest tracked array allocation so far:
  |   Minimum:        0.956 MB (aux_mat on task  1)
  |   Maximum:        1.688 MB (ovlp3fn_nosplit%dat on task 24)
  |   Average:        1.087 MB
  Note:  These values currently only include a subset of arrays which are explicitly tracked.
  The "true" memory usage will be greater.
------------------------------------------------------------

------------------------------------------------------------
          Begin self-consistency iteration #    3

  Date     :  20260724, Time     :  093632.496
------------------------------------------------------------
  Pulay mixing of updated and previous charge densities.
  Available memory per node after mixing [GB]:    997.40
  Renormalizing the density to the exact electron count on the 3D integration grid.
  | Formal number of electrons (from input files) :      20.0000000000
  | Integrated number of electrons on 3D grid     :      20.0000000000
  | Charge integration error                      :       0.0000000000
  | Normalization factor for density and gradient :       1.0000000000

  Evaluating partitioned Hartree potential by multipole expansion.
  | Original multipole sum: apparent total charge =   0.186943E-14
  | Sum of charges compensated after spline to logarithmic grids =   0.116489E-04
  | Analytical far-field extrapolation by fixed multipoles:
  | Hartree multipole sum: apparent total charge =   0.172184E-14
  Summing up the Hartree potential.
  Time summed over all CPUs for potential: real work        0.001 s, elapsed        0.001 s
  | RMS charge density error from multipole expansion :   0.125121E-02

  Integrating Hamiltonian matrix: batch-based integration.
  Time summed over all CPUs for integration: real work        0.088 s, elapsed        0.099 s
  Calculating non-local Hartree-Fock exchange by two-center RI (RI-LVL).
  screening_threshold (crit_val) =  0.000000100000
  Exact exchange progress report - outermost block loop i_block: 1 ..       3
  |        1         2         3  
 Total ovlp3fn data transfer [GB]   4.3627199192997068E-004
  Average sparsity of tmp1/2 0.50000000
  Average sparsity of fock_matrix_row 0.10897436
  Full exact exchange energy: weighted long- and short-range EXX    195.832337500103 eV.
  Times            DM_x_o3fn   CM_prod_1   CM_prod_2   tmp2_prod        Sync   Imbalance       Other  Total calc
  | Times    0:        0.000       0.001       0.000       0.000       0.000       0.000       0.007       0.009
  | Times    1:        0.000       0.000       0.000       0.000       0.000       0.001       0.007       0.009
  | Times    2:        0.000       0.000       0.000       0.000       0.000       0.002       0.006       0.009
  | Times    3:        0.000       0.000       0.000       0.000       0.000       0.001       0.007       0.009
  | Times    4:        0.000       0.001       0.000       0.000       0.000       0.000       0.007       0.009
  | Times    5:        0.000       0.000       0.000       0.000       0.000       0.001       0.007       0.009
  | Times    6:        0.000       0.000       0.000       0.000       0.000       0.002       0.006       0.009
  | Times    7:        0.000       0.000       0.000       0.000       0.000       0.001       0.007       0.009
  | Times    8:        0.000       0.001       0.000       0.000       0.000       0.000       0.007       0.009
  | Times    9:        0.000       0.000       0.000       0.000       0.000       0.001       0.007       0.009
  | Times   10:        0.000       0.000       0.000       0.000       0.000       0.001       0.007       0.009
  | Times   11:        0.000       0.000       0.000       0.000       0.000       0.001       0.007       0.009
  | Times   12:        0.000       0.001       0.000       0.000       0.000       0.000       0.007       0.009
  | Times   13:        0.000       0.000       0.000       0.000       0.000       0.001       0.007       0.009
  | Times   14:        0.000       0.000       0.000       0.000       0.000       0.002       0.007       0.009
  | Times   15:        0.000       0.000       0.000       0.000       0.000       0.001       0.007       0.009
  | Times   16:        0.000       0.001       0.000       0.000       0.000       0.000       0.007       0.009
  | Times   17:        0.000       0.000       0.000       0.000       0.000       0.001       0.007       0.009
  | Times   18:        0.000       0.000       0.000       0.000       0.000       0.001       0.007       0.009
  | Times   19:        0.000       0.000       0.000       0.000       0.000       0.001       0.007       0.009
  | Times   20:        0.000       0.001       0.000       0.000       0.000       0.000       0.007       0.009
  | Times   21:        0.000       0.000       0.000       0.000       0.000       0.001       0.007       0.009
  | Times   22:        0.000       0.000       0.000       0.000       0.000       0.001       0.007       0.009
  | Times   23:        0.000       0.000       0.000       0.000       0.000       0.001       0.007       0.009
  | Times   24:        0.000       0.001       0.000       0.000       0.000       0.000       0.007       0.009
  | Times   25:        0.000       0.000       0.000       0.000       0.000       0.001       0.007       0.009
  | Times   26:        0.000       0.000       0.000       0.000       0.000       0.001       0.007       0.009
  | Times   27:        0.000       0.000       0.000       0.000       0.000       0.001       0.007       0.009
  | Times   28:        0.000       0.001       0.000       0.000       0.000       0.000       0.006       0.009
  | Times   29:        0.000       0.000       0.000       0.000       0.000       0.002       0.006       0.009
  | Times   30:        0.000       0.000       0.000       0.000       0.000       0.002       0.006       0.009
  | Times   31:        0.000       0.000       0.000       0.000       0.000       0.001       0.006       0.009
  | Times   32:        0.000       0.001       0.000       0.000       0.000       0.000       0.007       0.009
  | Times   33:        0.000       0.000       0.000       0.000       0.000       0.001       0.007       0.009
  | Times   34:        0.000       0.000       0.000       0.000       0.000       0.001       0.007       0.009
  | Times   35:        0.000       0.000       0.000       0.000       0.000       0.001       0.007       0.009
  | Times   36:        0.000       0.001       0.000       0.000       0.000       0.000       0.007       0.009
  | Times   37:        0.000       0.000       0.000       0.000       0.000       0.001       0.007       0.009
  | Times   38:        0.000       0.000       0.000       0.000       0.000       0.001       0.007       0.009
  | Times   39:        0.000       0.000       0.000       0.000       0.000       0.001       0.007       0.009
  | Times   40:        0.000       0.001       0.000       0.000       0.000       0.000       0.007       0.009
  | Times   41:        0.000       0.000       0.000       0.000       0.000       0.002       0.006       0.009
  | Times   42:        0.000       0.000       0.000       0.000       0.000       0.002       0.006       0.009
  | Times   43:        0.000       0.000       0.000       0.000       0.000       0.001       0.006       0.009
  | Times   44:        0.000       0.001       0.000       0.000       0.000       0.000       0.007       0.009
  | Times   45:        0.000       0.000       0.000       0.000       0.000       0.001       0.007       0.009
  | Times   46:        0.000       0.000       0.000       0.000       0.000       0.001       0.007       0.009
  | Times   47:        0.000       0.000       0.000       0.000       0.000       0.001       0.007       0.009
  | Times   48:        0.000       0.001       0.000       0.000       0.000       0.000       0.007       0.009
  | Times   49:        0.000       0.000       0.000       0.000       0.000       0.002       0.007       0.009
  | Times   50:        0.000       0.000       0.000       0.000       0.000       0.002       0.006       0.009
  | Times   51:        0.000       0.000       0.000       0.000       0.000       0.001       0.007       0.009
  | Times   52:        0.000       0.001       0.000       0.000       0.000       0.000       0.007       0.009
  | Times   53:        0.000       0.000       0.000       0.000       0.000       0.002       0.007       0.009
  | Times   54:        0.000       0.000       0.000       0.000       0.000       0.002       0.006       0.009
  | Times   55:        0.000       0.000       0.000       0.000       0.000       0.001       0.006       0.009
  | Times   56:        0.000       0.001       0.000       0.000       0.000       0.000       0.007       0.009
  | Times   57:        0.000       0.000       0.000       0.000       0.000       0.001       0.007       0.009
  | Times   58:        0.000       0.000       0.000       0.000       0.000       0.001       0.007       0.009
  | Times   59:        0.000       0.000       0.000       0.000       0.000       0.001       0.007       0.009
  | Times   60:        0.000       0.001       0.000       0.000       0.000       0.000       0.007       0.009
  | Times   61:        0.000       0.000       0.000       0.000       0.000       0.001       0.007       0.009
  | Times   62:        0.000       0.000       0.000       0.000       0.000       0.001       0.007       0.009
  | Times   63:        0.000       0.000       0.000       0.000       0.000       0.001       0.007       0.009
  | Times  sum:        0.006       0.017       0.008       0.005       0.018       0.064       0.437       0.555

  Decomposition of Other based on code block (only on MPI task 0):
  Times             Block #1    Block #2    Block #3    Block #4    Block #5    Block #6    Block #7    Block #8
  | Times    0:        0.000       0.000       0.000       0.000       0.000       0.000       0.000       0.000

  Times             Block #9   Block #10   Block #11   Block #12   Block #13   Block #14   Block #15   Block #16
  | Times    0:        0.000       0.000       0.000       0.001       0.000       0.005       0.000       0.000

  Times            Block Sum    Expected
  | Times    0:        0.006       0.007
  Time for Fock matrix mixing     0.000

  Updating Kohn-Sham eigenvalues and eigenvectors using ELSI and the ELPA eigensolver.
  Starting ELPA eigensolver
  Finished transformation to standard eigenproblem
  | Time :     0.000 s
  Finished solving standard eigenproblem
  | Time :     0.000 s
  Finished back-transformation of eigenvectors
  | Time :     0.000 s

  Obtaining occupation numbers and electronic chemical potential using ELSI.
  | Note that, for insulating systems, the printed 'chemical potential' value is not uniquely defined.
  | It can be anywhere in the energy gap, as long as it correctly separates occupied and unoccupied states.
  | In systems with a gap, the physically relevant chemical potential is the VBM or HOMO.

  | Chemical potential (Fermi level):    -4.96434821 eV
  Highest occupied state (VBM) at    -10.02555492 eV
  | Occupation number:      2.00000000

  Lowest unoccupied state (CBM) at     0.09685851 eV
  | Occupation number:      0.00000000

  Overall HOMO-LUMO gap:     10.12241342 eV.

  Total energy components:
  | Sum of eigenvalues            :        -275.40294886 Ha       -7494.09553375 eV
  | XC energy correction          :         -16.16154669 Ha        -439.77806105 eV
  | XC potential correction       :          32.00281964 Ha         870.84103018 eV
  | Free-atom electrostatic energy:        -206.44940664 Ha       -5617.77418386 eV
  | Hartree energy correction     :          -4.07876475 Ha        -110.98883601 eV
  | Entropy correction            :          -0.00000000 Ha          -0.00000000 eV
  | ---------------------------
  | Total energy                  :        -470.08984730 Ha      -12791.79558449 eV
  | Total energy, T -> 0          :        -470.08984730 Ha      -12791.79558449 eV  <-- do not rely on this value for anything but (periodic) metals
  | Electronic free energy        :        -470.08984730 Ha      -12791.79558449 eV

  Derived energy quantities:
  | Kinetic energy                :         473.24976291 Ha       12877.78126307 eV
  | Electrostatic energy          :        -912.83744451 Ha      -24839.57068853 eV
  | Energy correction for multipole
  | error in Hartree potential    :          -0.00152124 Ha          -0.04139497 eV
  | Sum of eigenvalues per atom                           :       -3747.04776687 eV
  | Total energy (T->0) per atom                          :       -6395.89779225 eV  <-- do not rely on this value for anything but (periodic) metals
  | Electronic free energy per atom                       :       -6395.89779225 eV
  Evaluating new KS density.
  Integration grid: deviation in total charge (<rho> - N_e) =   3.552714E-15

  Self-consistency convergence accuracy:
  | Change of charge density      :  0.1336E+00
  | Change of unmixed KS density  :  0.9339E-03
  | Change of sum of eigenvalues  :  0.1025E+03 eV
  | Change of total energy        :  0.5693E+00 eV


------------------------------------------------------------
  End self-consistency iteration #     3       :  max(cpu_time)    wall_clock(cpu1)
  | Time for this iteration                     :        0.293 s           0.212 s
  | Charge density update                       :        0.001 s           0.001 s
  | Density mixing                              :        0.282 s           0.196 s
  | Hartree multipole update                    :        0.001 s           0.001 s
  | Hartree multipole summation                 :        0.002 s           0.002 s
  | Integration                                 :        0.002 s           0.001 s
  | Fock matrix evaluation                      :        0.009 s           0.009 s
  | Solution of K.-S. eqns.                     :        0.001 s           0.002 s
  | Total energy evaluation                     :        0.000 s           0.000 s

  Partial memory accounting:
  | Current value for overall tracked memory usage:
  |   Minimum:  -212991.550 MB (on task 14)
  |   Maximum:        1.989 MB (on task 48)
  |   Average:   -46334.766 MB
  | Peak value for overall tracked memory usage:
  |   Minimum:        1.542 MB (on task 18 after allocating d_aux_mat)
  |   Maximum:        3.963 MB (on task 24 after allocating ovlp3fn_nosplit%tmploc)
  |   Average:        1.814 MB
  | Largest tracked array allocation so far:
  |   Minimum:        0.956 MB (aux_mat on task  1)
  |   Maximum:        1.688 MB (ovlp3fn_nosplit%dat on task 24)
  |   Average:        1.087 MB
  Note:  These values currently only include a subset of arrays which are explicitly tracked.
  The "true" memory usage will be greater.
------------------------------------------------------------

------------------------------------------------------------
          Begin self-consistency iteration #    4

  Date     :  20260724, Time     :  093632.963
------------------------------------------------------------
  Pulay mixing of updated and previous charge densities.
  Available memory per node after mixing [GB]:    997.40
  Renormalizing the density to the exact electron count on the 3D integration grid.
  | Formal number of electrons (from input files) :      20.0000000000
  | Integrated number of electrons on 3D grid     :      20.0000000000
  | Charge integration error                      :       0.0000000000
  | Normalization factor for density and gradient :       1.0000000000

  Evaluating partitioned Hartree potential by multipole expansion.
  | Original multipole sum: apparent total charge =   0.364047E-14
  | Sum of charges compensated after spline to logarithmic grids =   0.128711E-04
  | Analytical far-field extrapolation by fixed multipoles:
  | Hartree multipole sum: apparent total charge =   0.373886E-14
  Summing up the Hartree potential.
  Time summed over all CPUs for potential: real work        0.001 s, elapsed        0.001 s
  | RMS charge density error from multipole expansion :   0.144686E-02

  Integrating Hamiltonian matrix: batch-based integration.
  Time summed over all CPUs for integration: real work        0.088 s, elapsed        0.099 s
  Calculating non-local Hartree-Fock exchange by two-center RI (RI-LVL).
  screening_threshold (crit_val) =  0.000000100000
  Exact exchange progress report - outermost block loop i_block: 1 ..       3
  |        1         2         3  
 Total ovlp3fn data transfer [GB]   4.3627199192997068E-004
  Average sparsity of tmp1/2 0.50000000
  Average sparsity of fock_matrix_row 0.10897436
  Full exact exchange energy: weighted long- and short-range EXX    194.855473929876 eV.
  Times            DM_x_o3fn   CM_prod_1   CM_prod_2   tmp2_prod        Sync   Imbalance       Other  Total calc
  | Times    0:        0.000       0.001       0.000       0.000       0.000       0.000       0.008       0.010
  | Times    1:        0.000       0.000       0.000       0.000       0.000       0.001       0.008       0.010
  | Times    2:        0.000       0.000       0.000       0.000       0.000       0.002       0.008       0.010
  | Times    3:        0.000       0.000       0.000       0.000       0.000       0.001       0.008       0.010
  | Times    4:        0.000       0.001       0.000       0.000       0.000       0.000       0.008       0.010
  | Times    5:        0.000       0.000       0.000       0.000       0.000       0.001       0.008       0.010
  | Times    6:        0.000       0.000       0.000       0.000       0.000       0.002       0.008       0.010
  | Times    7:        0.000       0.000       0.000       0.000       0.000       0.001       0.008       0.010
  | Times    8:        0.000       0.001       0.000       0.000       0.000       0.000       0.008       0.010
  | Times    9:        0.000       0.000       0.000       0.000       0.000       0.001       0.009       0.010
  | Times   10:        0.000       0.000       0.000       0.000       0.000       0.001       0.008       0.010
  | Times   11:        0.000       0.000       0.000       0.000       0.000       0.001       0.009       0.010
  | Times   12:        0.000       0.001       0.000       0.000       0.000       0.000       0.008       0.010
  | Times   13:        0.000       0.000       0.000       0.000       0.000       0.001       0.008       0.010
  | Times   14:        0.000       0.000       0.000       0.000       0.000       0.002       0.008       0.010
  | Times   15:        0.000       0.000       0.000       0.000       0.000       0.001       0.008       0.010
  | Times   16:        0.000       0.001       0.000       0.000       0.000       0.000       0.008       0.010
  | Times   17:        0.000       0.000       0.000       0.000       0.000       0.001       0.009       0.010
  | Times   18:        0.000       0.000       0.000       0.000       0.000       0.001       0.008       0.010
  | Times   19:        0.000       0.000       0.000       0.000       0.000       0.001       0.009       0.010
  | Times   20:        0.000       0.001       0.000       0.000       0.000       0.000       0.008       0.010
  | Times   21:        0.000       0.000       0.000       0.000       0.000       0.002       0.008       0.010
  | Times   22:        0.000       0.000       0.000       0.000       0.000       0.002       0.008       0.010
  | Times   23:        0.000       0.001       0.000       0.000       0.000       0.001       0.008       0.010
  | Times   24:        0.000       0.001       0.000       0.000       0.000       0.000       0.008       0.010
  | Times   25:        0.000       0.000       0.000       0.000       0.000       0.001       0.008       0.010
  | Times   26:        0.000       0.000       0.000       0.000       0.000       0.001       0.008       0.010
  | Times   27:        0.000       0.000       0.000       0.000       0.000       0.001       0.008       0.010
  | Times   28:        0.000       0.001       0.000       0.000       0.000       0.000       0.008       0.010
  | Times   29:        0.000       0.000       0.000       0.000       0.000       0.001       0.008       0.010
  | Times   30:        0.000       0.000       0.000       0.000       0.000       0.002       0.008       0.010
  | Times   31:        0.000       0.000       0.000       0.000       0.000       0.001       0.008       0.010
  | Times   32:        0.000       0.001       0.000       0.000       0.000       0.000       0.008       0.010
  | Times   33:        0.000       0.000       0.000       0.000       0.000       0.002       0.008       0.010
  | Times   34:        0.000       0.000       0.000       0.000       0.000       0.002       0.008       0.010
  | Times   35:        0.000       0.000       0.000       0.000       0.000       0.001       0.008       0.010
  | Times   36:        0.000       0.001       0.000       0.000       0.000       0.000       0.008       0.010
  | Times   37:        0.000       0.000       0.000       0.000       0.000       0.001       0.008       0.010
  | Times   38:        0.000       0.000       0.000       0.000       0.000       0.001       0.008       0.010
  | Times   39:        0.000       0.000       0.000       0.000       0.000       0.001       0.008       0.010
  | Times   40:        0.000       0.001       0.000       0.000       0.000       0.000       0.009       0.010
  | Times   41:        0.000       0.000       0.000       0.000       0.000       0.001       0.008       0.010
  | Times   42:        0.000       0.000       0.000       0.000       0.000       0.001       0.008       0.010
  | Times   43:        0.000       0.000       0.000       0.000       0.000       0.001       0.008       0.010
  | Times   44:        0.000       0.001       0.000       0.000       0.000       0.000       0.008       0.010
  | Times   45:        0.000       0.000       0.000       0.000       0.000       0.002       0.008       0.010
  | Times   46:        0.000       0.000       0.000       0.000       0.000       0.002       0.008       0.010
  | Times   47:        0.000       0.000       0.000       0.000       0.000       0.001       0.008       0.010
  | Times   48:        0.000       0.001       0.000       0.000       0.000       0.000       0.009       0.010
  | Times   49:        0.000       0.000       0.000       0.000       0.000       0.001       0.009       0.010
  | Times   50:        0.000       0.000       0.000       0.000       0.000       0.001       0.008       0.010
  | Times   51:        0.000       0.000       0.000       0.000       0.000       0.001       0.009       0.010
  | Times   52:        0.000       0.001       0.000       0.000       0.000       0.000       0.008       0.010
  | Times   53:        0.000       0.000       0.000       0.000       0.000       0.002       0.008       0.010
  | Times   54:        0.000       0.000       0.000       0.000       0.000       0.002       0.008       0.010
  | Times   55:        0.000       0.000       0.000       0.000       0.000       0.001       0.008       0.010
  | Times   56:        0.000       0.001       0.000       0.000       0.000       0.000       0.008       0.010
  | Times   57:        0.000       0.000       0.000       0.000       0.000       0.001       0.008       0.010
  | Times   58:        0.000       0.000       0.000       0.000       0.000       0.001       0.008       0.010
  | Times   59:        0.000       0.000       0.000       0.000       0.000       0.001       0.008       0.010
  | Times   60:        0.000       0.001       0.000       0.000       0.000       0.000       0.009       0.010
  | Times   61:        0.000       0.000       0.000       0.000       0.000       0.001       0.009       0.010
  | Times   62:        0.000       0.000       0.000       0.000       0.000       0.001       0.008       0.010
  | Times   63:        0.000       0.000       0.000       0.000       0.000       0.001       0.009       0.010
  | Times  sum:        0.006       0.018       0.008       0.005       0.017       0.064       0.526       0.643

  Decomposition of Other based on code block (only on MPI task 0):
  Times             Block #1    Block #2    Block #3    Block #4    Block #5    Block #6    Block #7    Block #8
  | Times    0:        0.000       0.000       0.000       0.000       0.000       0.000       0.000       0.000

  Times             Block #9   Block #10   Block #11   Block #12   Block #13   Block #14   Block #15   Block #16
  | Times    0:        0.000       0.000       0.000       0.002       0.000       0.005       0.000       0.000

  Times            Block Sum    Expected
  | Times    0:        0.007       0.008
  Time for Fock matrix mixing     0.000

  Updating Kohn-Sham eigenvalues and eigenvectors using ELSI and the ELPA eigensolver.
  Starting ELPA eigensolver
  Finished transformation to standard eigenproblem
  | Time :     0.000 s
  Finished solving standard eigenproblem
  | Time :     0.000 s
  Finished back-transformation of eigenvectors
  | Time :     0.001 s

  Obtaining occupation numbers and electronic chemical potential using ELSI.
  | Note that, for insulating systems, the printed 'chemical potential' value is not uniquely defined.
  | It can be anywhere in the energy gap, as long as it correctly separates occupied and unoccupied states.
  | In systems with a gap, the physically relevant chemical potential is the VBM or HOMO.

  | Chemical potential (Fermi level):    -5.21285712 eV
  Highest occupied state (VBM) at    -10.39823202 eV
  | Occupation number:      2.00000000

  Lowest unoccupied state (CBM) at    -0.02748223 eV
  | Occupation number:      0.00000000

  Overall HOMO-LUMO gap:     10.37074979 eV.

  Total energy components:
  | Sum of eigenvalues            :        -276.10861806 Ha       -7513.29776985 eV
  | XC energy correction          :         -16.12276205 Ha        -438.72267742 eV
  | XC potential correction       :          31.94305383 Ha         869.21471974 eV
  | Free-atom electrostatic energy:        -206.44940664 Ha       -5617.77418386 eV
  | Hartree energy correction     :          -3.34035761 Ha         -90.89575521 eV
  | Entropy correction            :          -0.00000000 Ha          -0.00000000 eV
  | ---------------------------
  | Total energy                  :        -470.07809054 Ha      -12791.47566661 eV
  | Total energy, T -> 0          :        -470.07809054 Ha      -12791.47566661 eV  <-- do not rely on this value for anything but (periodic) metals
  | Electronic free energy        :        -470.07809054 Ha      -12791.47566661 eV

  Derived energy quantities:
  | Kinetic energy                :         472.69609454 Ha       12862.71518011 eV
  | Electrostatic energy          :        -912.31880412 Ha      -24825.45776545 eV
  | Energy correction for multipole
  | error in Hartree potential    :          -0.00154795 Ha          -0.04212192 eV
  | Sum of eigenvalues per atom                           :       -3756.64888493 eV
  | Total energy (T->0) per atom                          :       -6395.73783330 eV  <-- do not rely on this value for anything but (periodic) metals
  | Electronic free energy per atom                       :       -6395.73783330 eV
  Evaluating new KS density.
  Integration grid: deviation in total charge (<rho> - N_e) =   3.552714E-15

  Self-consistency convergence accuracy:
  | Change of charge density      :  0.4848E-01
  | Change of unmixed KS density  :  0.7985E-01
  | Change of sum of eigenvalues  : -0.1920E+02 eV
  | Change of total energy        :  0.3199E+00 eV


------------------------------------------------------------
  End self-consistency iteration #     4       :  max(cpu_time)    wall_clock(cpu1)
  | Time for this iteration                     :        0.310 s           0.072 s
  | Charge density update                       :        0.001 s           0.001 s
  | Density mixing                              :        0.294 s           0.055 s
  | Hartree multipole update                    :        0.001 s           0.001 s
  | Hartree multipole summation                 :        0.002 s           0.001 s
  | Integration                                 :        0.002 s           0.002 s
  | Fock matrix evaluation                      :        0.010 s           0.011 s
  | Solution of K.-S. eqns.                     :        0.001 s           0.001 s
  | Total energy evaluation                     :        0.000 s           0.000 s

  Partial memory accounting:
  | Current value for overall tracked memory usage:
  |   Minimum:  -262143.550 MB (on task 14)
  |   Maximum:        1.989 MB (on task 48)
  |   Average:   -56318.766 MB
  | Peak value for overall tracked memory usage:
  |   Minimum:        1.542 MB (on task 18 after allocating d_aux_mat)
  |   Maximum:        3.963 MB (on task 24 after allocating ovlp3fn_nosplit%tmploc)
  |   Average:        1.814 MB
  | Largest tracked array allocation so far:
  |   Minimum:        0.956 MB (aux_mat on task  1)
  |   Maximum:        1.688 MB (ovlp3fn_nosplit%dat on task 24)
  |   Average:        1.087 MB
  Note:  These values currently only include a subset of arrays which are explicitly tracked.
  The "true" memory usage will be greater.
------------------------------------------------------------

------------------------------------------------------------
          Begin self-consistency iteration #    5

  Date     :  20260724, Time     :  093633.198
------------------------------------------------------------
  Pulay mixing of updated and previous charge densities.
  Available memory per node after mixing [GB]:    997.39
  Renormalizing the density to the exact electron count on the 3D integration grid.
  | Formal number of electrons (from input files) :      20.0000000000
  | Integrated number of electrons on 3D grid     :      20.0000000000
  | Charge integration error                      :       0.0000000000
  | Normalization factor for density and gradient :       1.0000000000

  Evaluating partitioned Hartree potential by multipole expansion.
  | Original multipole sum: apparent total charge =   0.349288E-14
  | Sum of charges compensated after spline to logarithmic grids =   0.142072E-04
  | Analytical far-field extrapolation by fixed multipoles:
  | Hartree multipole sum: apparent total charge =   0.462437E-14
  Summing up the Hartree potential.
  Time summed over all CPUs for potential: real work        0.001 s, elapsed        0.001 s
  | RMS charge density error from multipole expansion :   0.170138E-02

  Integrating Hamiltonian matrix: batch-based integration.
  Time summed over all CPUs for integration: real work        0.089 s, elapsed        0.118 s => Consider using load balancing!
  Calculating non-local Hartree-Fock exchange by two-center RI (RI-LVL).
  screening_threshold (crit_val) =  0.000000100000
  Exact exchange progress report - outermost block loop i_block: 1 ..       3
  |        1         2         3  
 Total ovlp3fn data transfer [GB]   4.3627199192997068E-004
  Average sparsity of tmp1/2 0.50000000
  Average sparsity of fock_matrix_row 0.10897436
  Full exact exchange energy: weighted long- and short-range EXX    194.983365729313 eV.
  Times            DM_x_o3fn   CM_prod_1   CM_prod_2   tmp2_prod        Sync   Imbalance       Other  Total calc
  | Times    0:        0.000       0.001       0.000       0.000       0.000       0.000       0.008       0.010
  | Times    1:        0.000       0.000       0.000       0.000       0.000       0.002       0.008       0.010
  | Times    2:        0.000       0.000       0.000       0.000       0.000       0.002       0.008       0.010
  | Times    3:        0.000       0.001       0.000       0.000       0.000       0.001       0.008       0.010
  | Times    4:        0.000       0.001       0.000       0.000       0.000       0.000       0.008       0.010
  | Times    5:        0.000       0.000       0.000       0.000       0.000       0.001       0.008       0.010
  | Times    6:        0.000       0.000       0.000       0.000       0.000       0.002       0.008       0.010
  | Times    7:        0.000       0.001       0.000       0.000       0.000       0.001       0.008       0.010
  | Times    8:        0.000       0.001       0.000       0.000       0.000       0.000       0.008       0.010
  | Times    9:        0.000       0.000       0.000       0.000       0.000       0.001       0.008       0.010
  | Times   10:        0.000       0.000       0.000       0.000       0.000       0.001       0.008       0.010
  | Times   11:        0.000       0.000       0.000       0.000       0.000       0.001       0.008       0.010
  | Times   12:        0.000       0.001       0.000       0.000       0.000       0.000       0.008       0.010
  | Times   13:        0.000       0.000       0.000       0.000       0.000       0.001       0.008       0.010
  | Times   14:        0.000       0.000       0.000       0.000       0.000       0.002       0.008       0.010
  | Times   15:        0.000       0.001       0.000       0.000       0.000       0.001       0.008       0.010
  | Times   16:        0.000       0.001       0.000       0.000       0.000       0.000       0.008       0.010
  | Times   17:        0.000       0.000       0.000       0.000       0.000       0.001       0.008       0.010
  | Times   18:        0.000       0.000       0.000       0.000       0.000       0.001       0.008       0.010
  | Times   19:        0.000       0.000       0.000       0.000       0.000       0.001       0.009       0.010
  | Times   20:        0.000       0.001       0.000       0.000       0.000       0.000       0.008       0.010
  | Times   21:        0.000       0.000       0.000       0.000       0.000       0.002       0.008       0.010
  | Times   22:        0.000       0.000       0.000       0.000       0.000       0.002       0.008       0.010
  | Times   23:        0.000       0.001       0.000       0.000       0.000       0.001       0.008       0.010
  | Times   24:        0.000       0.001       0.000       0.000       0.000       0.000       0.008       0.010
  | Times   25:        0.000       0.000       0.000       0.000       0.000       0.001       0.008       0.010
  | Times   26:        0.000       0.000       0.000       0.000       0.000       0.002       0.008       0.010
  | Times   27:        0.000       0.000       0.000       0.000       0.000       0.001       0.008       0.010
  | Times   28:        0.000       0.001       0.000       0.000       0.000       0.000       0.008       0.010
  | Times   29:        0.000       0.000       0.000       0.000       0.000       0.001       0.008       0.010
  | Times   30:        0.000       0.000       0.000       0.000       0.000       0.002       0.008       0.010
  | Times   31:        0.000       0.000       0.000       0.000       0.000       0.001       0.008       0.010
  | Times   32:        0.000       0.001       0.000       0.000       0.000       0.000       0.008       0.010
  | Times   33:        0.000       0.000       0.000       0.000       0.000       0.002       0.008       0.010
  | Times   34:        0.000       0.000       0.000       0.000       0.000       0.002       0.008       0.010
  | Times   35:        0.000       0.000       0.000       0.000       0.000       0.001       0.008       0.010
  | Times   36:        0.000       0.001       0.000       0.000       0.000       0.000       0.009       0.010
  | Times   37:        0.000       0.000       0.000       0.000       0.000       0.001       0.008       0.010
  | Times   38:        0.000       0.000       0.000       0.000       0.000       0.001       0.008       0.010
  | Times   39:        0.000       0.000       0.000       0.000       0.000       0.001       0.008       0.010
  | Times   40:        0.000       0.001       0.000       0.000       0.000       0.000       0.008       0.010
  | Times   41:        0.000       0.000       0.000       0.000       0.000       0.001       0.008       0.010
  | Times   42:        0.000       0.000       0.000       0.000       0.000       0.001       0.008       0.010
  | Times   43:        0.000       0.000       0.000       0.000       0.000       0.001       0.008       0.010
  | Times   44:        0.000       0.001       0.000       0.000       0.000       0.000       0.008       0.010
  | Times   45:        0.000       0.000       0.000       0.000       0.000       0.002       0.008       0.010
  | Times   46:        0.000       0.000       0.000       0.000       0.000       0.002       0.008       0.010
  | Times   47:        0.000       0.000       0.000       0.000       0.000       0.001       0.008       0.010
  | Times   48:        0.000       0.001       0.000       0.000       0.000       0.000       0.009       0.010
  | Times   49:        0.000       0.000       0.000       0.000       0.000       0.001       0.009       0.010
  | Times   50:        0.000       0.000       0.000       0.000       0.000       0.001       0.009       0.010
  | Times   51:        0.000       0.000       0.000       0.000       0.000       0.001       0.009       0.010
  | Times   52:        0.000       0.001       0.000       0.000       0.000       0.000       0.008       0.010
  | Times   53:        0.000       0.000       0.000       0.000       0.000       0.002       0.008       0.010
  | Times   54:        0.000       0.000       0.000       0.000       0.000       0.002       0.008       0.010
  | Times   55:        0.000       0.000       0.000       0.000       0.000       0.001       0.008       0.010
  | Times   56:        0.000       0.001       0.000       0.000       0.000       0.000       0.009       0.010
  | Times   57:        0.000       0.000       0.000       0.000       0.000       0.001       0.008       0.010
  | Times   58:        0.000       0.000       0.000       0.000       0.000       0.001       0.008       0.010
  | Times   59:        0.000       0.000       0.000       0.000       0.000       0.001       0.008       0.010
  | Times   60:        0.000       0.001       0.000       0.000       0.000       0.000       0.009       0.010
  | Times   61:        0.000       0.000       0.000       0.000       0.000       0.001       0.009       0.010
  | Times   62:        0.000       0.000       0.000       0.000       0.000       0.001       0.009       0.010
  | Times   63:        0.000       0.000       0.000       0.000       0.000       0.001       0.009       0.010
  | Times  sum:        0.006       0.019       0.008       0.005       0.017       0.064       0.524       0.642

  Decomposition of Other based on code block (only on MPI task 0):
  Times             Block #1    Block #2    Block #3    Block #4    Block #5    Block #6    Block #7    Block #8
  | Times    0:        0.000       0.000       0.000       0.000       0.000       0.000       0.000       0.000

  Times             Block #9   Block #10   Block #11   Block #12   Block #13   Block #14   Block #15   Block #16
  | Times    0:        0.000       0.000       0.000       0.002       0.000       0.005       0.000       0.000

  Times            Block Sum    Expected
  | Times    0:        0.007       0.008
  Time for Fock matrix mixing     0.000

  Updating Kohn-Sham eigenvalues and eigenvectors using ELSI and the ELPA eigensolver.
  Starting ELPA eigensolver
  Finished transformation to standard eigenproblem
  | Time :     0.000 s
  Finished solving standard eigenproblem
  | Time :     0.001 s
  Finished back-transformation of eigenvectors
  | Time :     0.000 s

  Obtaining occupation numbers and electronic chemical potential using ELSI.
  | Note that, for insulating systems, the printed 'chemical potential' value is not uniquely defined.
  | It can be anywhere in the energy gap, as long as it correctly separates occupied and unoccupied states.
  | In systems with a gap, the physically relevant chemical potential is the VBM or HOMO.

  | Chemical potential (Fermi level):    -5.35914796 eV
  Highest occupied state (VBM) at    -10.40543306 eV
  | Occupation number:      2.00000000

  Lowest unoccupied state (CBM) at    -0.31286287 eV
  | Occupation number:      0.00000000

  Overall HOMO-LUMO gap:     10.09257019 eV.

  Total energy components:
  | Sum of eigenvalues            :        -276.29644056 Ha       -7518.40868015 eV
  | XC energy correction          :         -16.11219886 Ha        -438.43523819 eV
  | XC potential correction       :          31.92480903 Ha         868.71825348 eV
  | Free-atom electrostatic energy:        -206.44940664 Ha       -5617.77418386 eV
  | Hartree energy correction     :          -3.14127800 Ha         -85.47852359 eV
  | Entropy correction            :          -0.00000000 Ha          -0.00000000 eV
  | ---------------------------
  | Total energy                  :        -470.07451504 Ha      -12791.37837230 eV
  | Total energy, T -> 0          :        -470.07451504 Ha      -12791.37837230 eV  <-- do not rely on this value for anything but (periodic) metals
  | Electronic free energy        :        -470.07451504 Ha      -12791.37837230 eV

  Derived energy quantities:
  | Kinetic energy                :         472.45605792 Ha       12856.18345153 eV
  | Electrostatic energy          :        -912.09166710 Ha      -24819.27705266 eV
  | Energy correction for multipole
  | error in Hartree potential    :          -0.00163511 Ha          -0.04449363 eV
  | Sum of eigenvalues per atom                           :       -3759.20434007 eV
  | Total energy (T->0) per atom                          :       -6395.68918615 eV  <-- do not rely on this value for anything but (periodic) metals
  | Electronic free energy per atom                       :       -6395.68918615 eV
  Evaluating new KS density.
  Integration grid: deviation in total charge (<rho> - N_e) =   7.105427E-15

  Self-consistency convergence accuracy:
  | Change of charge density      :  0.9943E-02
  | Change of unmixed KS density  :  0.1153E-01
  | Change of sum of eigenvalues  : -0.5111E+01 eV
  | Change of total energy        :  0.9729E-01 eV


------------------------------------------------------------
  End self-consistency iteration #     5       :  max(cpu_time)    wall_clock(cpu1)
  | Time for this iteration                     :        0.441 s           0.298 s
  | Charge density update                       :        0.001 s           0.001 s
  | Density mixing                              :        0.426 s           0.280 s
  | Hartree multipole update                    :        0.001 s           0.001 s
  | Hartree multipole summation                 :        0.002 s           0.002 s
  | Integration                                 :        0.002 s           0.002 s
  | Fock matrix evaluation                      :        0.011 s           0.011 s
  | Solution of K.-S. eqns.                     :        0.001 s           0.001 s
  | Total energy evaluation                     :        0.000 s           0.000 s

  Partial memory accounting:
  | Current value for overall tracked memory usage:
  |   Minimum:  -311295.550 MB (on task 14)
  |   Maximum:        1.989 MB (on task 48)
  |   Average:   -66302.766 MB
  | Peak value for overall tracked memory usage:
  |   Minimum:        1.542 MB (on task 18 after allocating d_aux_mat)
  |   Maximum:        3.963 MB (on task 24 after allocating ovlp3fn_nosplit%tmploc)
  |   Average:        1.814 MB
  | Largest tracked array allocation so far:
  |   Minimum:        0.956 MB (aux_mat on task  1)
  |   Maximum:        1.688 MB (ovlp3fn_nosplit%dat on task 24)
  |   Average:        1.087 MB
  Note:  These values currently only include a subset of arrays which are explicitly tracked.
  The "true" memory usage will be greater.
------------------------------------------------------------

------------------------------------------------------------
          Begin self-consistency iteration #    6

  Date     :  20260724, Time     :  093633.857
------------------------------------------------------------
  Pulay mixing of updated and previous charge densities.
  Available memory per node after mixing [GB]:    997.39
  Renormalizing the density to the exact electron count on the 3D integration grid.
  | Formal number of electrons (from input files) :      20.0000000000
  | Integrated number of electrons on 3D grid     :      20.0000000000
  | Charge integration error                      :       0.0000000000
  | Normalization factor for density and gradient :       1.0000000000

  Evaluating partitioned Hartree potential by multipole expansion.
  | Original multipole sum: apparent total charge =   0.452598E-14
  | Sum of charges compensated after spline to logarithmic grids =   0.144877E-04
  | Analytical far-field extrapolation by fixed multipoles:
  | Hartree multipole sum: apparent total charge =   0.428001E-14
  Summing up the Hartree potential.
  Time summed over all CPUs for potential: real work        0.001 s, elapsed        0.001 s
  | RMS charge density error from multipole expansion :   0.166884E-02

  Integrating Hamiltonian matrix: batch-based integration.
  Time summed over all CPUs for integration: real work        0.089 s, elapsed        0.104 s
  Calculating non-local Hartree-Fock exchange by two-center RI (RI-LVL).
  screening_threshold (crit_val) =  0.000000100000
  Exact exchange progress report - outermost block loop i_block: 1 ..       3
  |        1         2         3  
 Total ovlp3fn data transfer [GB]   4.3627199192997068E-004
  Average sparsity of tmp1/2 0.50000000
  Average sparsity of fock_matrix_row 0.10897436
  Full exact exchange energy: weighted long- and short-range EXX    194.992192242799 eV.
  Times            DM_x_o3fn   CM_prod_1   CM_prod_2   tmp2_prod        Sync   Imbalance       Other  Total calc
  | Times    0:        0.000       0.001       0.000       0.000       0.000       0.000       0.006       0.009
  | Times    1:        0.000       0.000       0.000       0.000       0.000       0.002       0.007       0.009
  | Times    2:        0.000       0.000       0.000       0.000       0.000       0.002       0.006       0.009
  | Times    3:        0.000       0.001       0.000       0.000       0.000       0.001       0.007       0.009
  | Times    4:        0.000       0.001       0.000       0.000       0.000       0.000       0.007       0.009
  | Times    5:        0.000       0.000       0.000       0.000       0.000       0.001       0.007       0.009
  | Times    6:        0.000       0.000       0.000       0.000       0.000       0.002       0.007       0.009
  | Times    7:        0.000       0.000       0.000       0.000       0.000       0.001       0.007       0.009
  | Times    8:        0.000       0.001       0.000       0.000       0.000       0.000       0.006       0.009
  | Times    9:        0.000       0.000       0.000       0.000       0.000       0.002       0.007       0.009
  | Times   10:        0.000       0.000       0.000       0.000       0.000       0.002       0.006       0.009
  | Times   11:        0.000       0.001       0.000       0.000       0.000       0.001       0.007       0.009
  | Times   12:        0.000       0.001       0.000       0.000       0.000       0.000       0.007       0.009
  | Times   13:        0.000       0.000       0.000       0.000       0.000       0.001       0.007       0.009
  | Times   14:        0.000       0.000       0.000       0.000       0.000       0.002       0.007       0.009
  | Times   15:        0.000       0.000       0.000       0.000       0.000       0.001       0.007       0.009
  | Times   16:        0.000       0.001       0.000       0.000       0.000       0.000       0.006       0.009
  | Times   17:        0.000       0.000       0.000       0.000       0.000       0.002       0.006       0.009
  | Times   18:        0.000       0.000       0.000       0.000       0.000       0.002       0.006       0.009
  | Times   19:        0.000       0.001       0.000       0.000       0.000       0.001       0.007       0.009
  | Times   20:        0.000       0.001       0.000       0.000       0.000       0.000       0.007       0.009
  | Times   21:        0.000       0.000       0.000       0.000       0.000       0.002       0.007       0.009
  | Times   22:        0.000       0.000       0.000       0.000       0.000       0.002       0.007       0.009
  | Times   23:        0.000       0.001       0.000       0.000       0.000       0.001       0.007       0.009
  | Times   24:        0.000       0.001       0.000       0.000       0.000       0.000       0.006       0.009
  | Times   25:        0.000       0.000       0.000       0.000       0.000       0.002       0.006       0.009
  | Times   26:        0.000       0.000       0.000       0.000       0.000       0.002       0.006       0.009
  | Times   27:        0.000       0.001       0.000       0.000       0.000       0.002       0.006       0.009
  | Times   28:        0.000       0.001       0.000       0.000       0.000       0.000       0.007       0.009
  | Times   29:        0.000       0.000       0.000       0.000       0.000       0.002       0.007       0.009
  | Times   30:        0.000       0.000       0.000       0.000       0.000       0.002       0.007       0.009
  | Times   31:        0.000       0.000       0.000       0.000       0.000       0.001       0.007       0.009
  | Times   32:        0.000       0.001       0.000       0.000       0.000       0.000       0.007       0.009
  | Times   33:        0.000       0.000       0.000       0.000       0.000       0.001       0.007       0.009
  | Times   34:        0.000       0.000       0.000       0.000       0.000       0.001       0.007       0.009
  | Times   35:        0.000       0.000       0.000       0.000       0.000       0.001       0.007       0.009
  | Times   36:        0.000       0.001       0.000       0.000       0.000       0.000       0.007       0.009
  | Times   37:        0.000       0.000       0.000       0.000       0.000       0.001       0.007       0.009
  | Times   38:        0.000       0.000       0.000       0.000       0.000       0.001       0.007       0.009
  | Times   39:        0.000       0.000       0.000       0.000       0.000       0.001       0.007       0.009
  | Times   40:        0.000       0.001       0.000       0.000       0.000       0.000       0.007       0.009
  | Times   41:        0.000       0.000       0.000       0.000       0.000       0.002       0.007       0.009
  | Times   42:        0.000       0.000       0.000       0.000       0.000       0.002       0.007       0.009
  | Times   43:        0.000       0.000       0.000       0.000       0.000       0.001       0.007       0.009
  | Times   44:        0.000       0.001       0.000       0.000       0.000       0.000       0.008       0.009
  | Times   45:        0.000       0.000       0.000       0.000       0.000       0.001       0.007       0.009
  | Times   46:        0.000       0.000       0.000       0.000       0.000       0.001       0.007       0.009
  | Times   47:        0.000       0.000       0.000       0.000       0.000       0.001       0.007       0.009
  | Times   48:        0.000       0.001       0.000       0.000       0.000       0.000       0.007       0.009
  | Times   49:        0.000       0.000       0.000       0.000       0.000       0.002       0.007       0.009
  | Times   50:        0.000       0.000       0.000       0.000       0.000       0.002       0.007       0.009
  | Times   51:        0.000       0.000       0.000       0.000       0.000       0.001       0.007       0.009
  | Times   52:        0.000       0.001       0.000       0.000       0.000       0.000       0.007       0.009
  | Times   53:        0.000       0.000       0.000       0.000       0.000       0.002       0.007       0.009
  | Times   54:        0.000       0.000       0.000       0.000       0.000       0.002       0.007       0.009
  | Times   55:        0.000       0.000       0.000       0.000       0.000       0.001       0.007       0.009
  | Times   56:        0.000       0.001       0.000       0.000       0.000       0.000       0.007       0.009
  | Times   57:        0.000       0.000       0.000       0.000       0.000       0.001       0.007       0.009
  | Times   58:        0.000       0.000       0.000       0.000       0.000       0.001       0.007       0.009
  | Times   59:        0.000       0.000       0.000       0.000       0.000       0.001       0.007       0.009
  | Times   60:        0.000       0.001       0.000       0.000       0.000       0.000       0.008       0.009
  | Times   61:        0.000       0.000       0.000       0.000       0.000       0.001       0.007       0.009
  | Times   62:        0.000       0.000       0.000       0.000       0.000       0.001       0.007       0.009
  | Times   63:        0.000       0.000       0.000       0.000       0.000       0.001       0.007       0.009
  | Times  sum:        0.006       0.021       0.008       0.005       0.016       0.070       0.444       0.571

  Decomposition of Other based on code block (only on MPI task 0):
  Times             Block #1    Block #2    Block #3    Block #4    Block #5    Block #6    Block #7    Block #8
  | Times    0:        0.000       0.000       0.000       0.000       0.000       0.000       0.000       0.000

  Times             Block #9   Block #10   Block #11   Block #12   Block #13   Block #14   Block #15   Block #16
  | Times    0:        0.000       0.000       0.000       0.001       0.000       0.005       0.000       0.000

  Times            Block Sum    Expected
  | Times    0:        0.006       0.006
  Time for Fock matrix mixing     0.000

  Updating Kohn-Sham eigenvalues and eigenvectors using ELSI and the ELPA eigensolver.
  Starting ELPA eigensolver
  Finished transformation to standard eigenproblem
  | Time :     0.001 s
  Finished solving standard eigenproblem
  | Time :     0.023 s
  Finished back-transformation of eigenvectors
  | Time :     0.000 s

  Obtaining occupation numbers and electronic chemical potential using ELSI.
  | Note that, for insulating systems, the printed 'chemical potential' value is not uniquely defined.
  | It can be anywhere in the energy gap, as long as it correctly separates occupied and unoccupied states.
  | In systems with a gap, the physically relevant chemical potential is the VBM or HOMO.

  | Chemical potential (Fermi level):    -5.28456300 eV
  Highest occupied state (VBM) at    -10.22744148 eV
  | Occupation number:      2.00000000

  Lowest unoccupied state (CBM) at    -0.34168451 eV
  | Occupation number:      0.00000000

  Overall HOMO-LUMO gap:      9.88575697 eV.

  Total energy components:
  | Sum of eigenvalues            :        -276.04457135 Ha       -7511.55497009 eV
  | XC energy correction          :         -16.12623732 Ha        -438.81724428 eV
  | XC potential correction       :          31.94522985 Ha         869.27393229 eV
  | Free-atom electrostatic energy:        -206.44940664 Ha       -5617.77418386 eV
  | Hartree energy correction     :          -3.40224947 Ha         -92.57991856 eV
  | Entropy correction            :          -0.00000000 Ha          -0.00000000 eV
  | ---------------------------
  | Total energy                  :        -470.07723493 Ha      -12791.45238451 eV
  | Total energy, T -> 0          :        -470.07723493 Ha      -12791.45238451 eV  <-- do not rely on this value for anything but (periodic) metals
  | Electronic free energy        :        -470.07723493 Ha      -12791.45238451 eV

  Derived energy quantities:
  | Kinetic energy                :         472.62969613 Ha       12860.90838738 eV
  | Electrostatic energy          :        -912.25320647 Ha      -24823.67276272 eV
  | Energy correction for multipole
  | error in Hartree potential    :          -0.00161319 Ha          -0.04389724 eV
  | Sum of eigenvalues per atom                           :       -3755.77748505 eV
  | Total energy (T->0) per atom                          :       -6395.72619225 eV  <-- do not rely on this value for anything but (periodic) metals
  | Electronic free energy per atom                       :       -6395.72619225 eV
  Evaluating new KS density.
  Integration grid: deviation in total charge (<rho> - N_e) =   3.552714E-15

  Self-consistency convergence accuracy:
  | Change of charge density      :  0.1226E-01
  | Change of unmixed KS density  :  0.2655E-02
  | Change of sum of eigenvalues  :  0.6854E+01 eV
  | Change of total energy        : -0.7401E-01 eV


------------------------------------------------------------
  End self-consistency iteration #     6       :  max(cpu_time)    wall_clock(cpu1)
  | Time for this iteration                     :        0.382 s           0.039 s
  | Charge density update                       :        0.001 s           0.001 s
  | Density mixing                              :        0.343 s           0.000 s
  | Hartree multipole update                    :        0.001 s           0.001 s
  | Hartree multipole summation                 :        0.002 s           0.002 s
  | Integration                                 :        0.002 s           0.002 s
  | Fock matrix evaluation                      :        0.010 s           0.009 s
  | Solution of K.-S. eqns.                     :        0.024 s           0.024 s
  | Total energy evaluation                     :        0.000 s           0.000 s

  Partial memory accounting:
  | Current value for overall tracked memory usage:
  |   Minimum:  -360447.541 MB (on task  2)
  |   Maximum:        1.989 MB (on task 48)
  |   Average:   -76286.765 MB
  | Peak value for overall tracked memory usage:
  |   Minimum:        1.542 MB (on task 18 after allocating d_aux_mat)
  |   Maximum:        3.963 MB (on task 24 after allocating ovlp3fn_nosplit%tmploc)
  |   Average:        1.814 MB
  | Largest tracked array allocation so far:
  |   Minimum:        0.956 MB (aux_mat on task  1)
  |   Maximum:        1.688 MB (ovlp3fn_nosplit%dat on task 24)
  |   Average:        1.087 MB
  Note:  These values currently only include a subset of arrays which are explicitly tracked.
  The "true" memory usage will be greater.
------------------------------------------------------------

------------------------------------------------------------
          Begin self-consistency iteration #    7

  Date     :  20260724, Time     :  093634.117
------------------------------------------------------------
  Pulay mixing of updated and previous charge densities.
  Available memory per node after mixing [GB]:    997.41
  Renormalizing the density to the exact electron count on the 3D integration grid.
  | Formal number of electrons (from input files) :      20.0000000000
  | Integrated number of electrons on 3D grid     :      20.0000000000
  | Charge integration error                      :       0.0000000000
  | Normalization factor for density and gradient :       1.0000000000

  Evaluating partitioned Hartree potential by multipole expansion.
  | Original multipole sum: apparent total charge =   0.255816E-14
  | Sum of charges compensated after spline to logarithmic grids =   0.145255E-04
  | Analytical far-field extrapolation by fixed multipoles:
  | Hartree multipole sum: apparent total charge =   0.413242E-14
  Summing up the Hartree potential.
  Time summed over all CPUs for potential: real work        0.001 s, elapsed        0.001 s
  | RMS charge density error from multipole expansion :   0.166784E-02

  Integrating Hamiltonian matrix: batch-based integration.
  Time summed over all CPUs for integration: real work        0.089 s, elapsed        0.105 s
  Calculating non-local Hartree-Fock exchange by two-center RI (RI-LVL).
  screening_threshold (crit_val) =  0.000000100000
  Exact exchange progress report - outermost block loop i_block: 1 ..       3
  |        1         2         3  
 Total ovlp3fn data transfer [GB]   4.3627199192997068E-004
  Average sparsity of tmp1/2 0.50000000
  Average sparsity of fock_matrix_row 0.10897436
  Full exact exchange energy: weighted long- and short-range EXX    194.924012001442 eV.
  Times            DM_x_o3fn   CM_prod_1   CM_prod_2   tmp2_prod        Sync   Imbalance       Other  Total calc
  | Times    0:        0.000       0.001       0.000       0.000       0.000       0.000       0.007       0.010
  | Times    1:        0.000       0.000       0.000       0.000       0.000       0.001       0.008       0.010
  | Times    2:        0.000       0.000       0.000       0.000       0.000       0.002       0.007       0.010
  | Times    3:        0.000       0.000       0.000       0.000       0.000       0.001       0.008       0.010
  | Times    4:        0.000       0.001       0.000       0.000       0.000       0.000       0.008       0.010
  | Times    5:        0.000       0.000       0.000       0.000       0.000       0.001       0.008       0.010
  | Times    6:        0.000       0.000       0.000       0.000       0.000       0.001       0.008       0.010
  | Times    7:        0.000       0.000       0.000       0.000       0.000       0.001       0.008       0.010
  | Times    8:        0.000       0.001       0.000       0.000       0.000       0.000       0.008       0.010
  | Times    9:        0.000       0.000       0.000       0.000       0.000       0.001       0.008       0.010
  | Times   10:        0.000       0.000       0.000       0.000       0.000       0.001       0.008       0.010
  | Times   11:        0.000       0.000       0.000       0.000       0.000       0.001       0.008       0.010
  | Times   12:        0.000       0.001       0.000       0.000       0.000       0.000       0.008       0.010
  | Times   13:        0.000       0.000       0.000       0.000       0.000       0.001       0.008       0.010
  | Times   14:        0.000       0.000       0.000       0.000       0.000       0.002       0.008       0.010
  | Times   15:        0.000       0.000       0.000       0.000       0.000       0.001       0.008       0.010
  | Times   16:        0.000       0.001       0.000       0.000       0.000       0.000       0.008       0.010
  | Times   17:        0.000       0.000       0.000       0.000       0.000       0.001       0.008       0.010
  | Times   18:        0.000       0.000       0.000       0.000       0.000       0.001       0.008       0.010
  | Times   19:        0.000       0.000       0.000       0.000       0.000       0.001       0.008       0.010
  | Times   20:        0.000       0.001       0.000       0.000       0.000       0.000       0.008       0.010
  | Times   21:        0.000       0.000       0.000       0.000       0.000       0.001       0.008       0.010
  | Times   22:        0.000       0.000       0.000       0.000       0.000       0.001       0.008       0.010
  | Times   23:        0.000       0.000       0.000       0.000       0.000       0.001       0.008       0.010
  | Times   24:        0.000       0.001       0.000       0.000       0.000       0.000       0.008       0.010
  | Times   25:        0.000       0.000       0.000       0.000       0.000       0.001       0.008       0.010
  | Times   26:        0.000       0.000       0.000       0.000       0.000       0.001       0.008       0.010
  | Times   27:        0.000       0.000       0.000       0.000       0.000       0.001       0.008       0.010
  | Times   28:        0.000       0.001       0.000       0.000       0.000       0.000       0.007       0.010
  | Times   29:        0.000       0.000       0.000       0.000       0.000       0.002       0.007       0.010
  | Times   30:        0.000       0.000       0.000       0.000       0.000       0.002       0.007       0.010
  | Times   31:        0.000       0.000       0.000       0.000       0.000       0.001       0.007       0.010
  | Times   32:        0.000       0.001       0.000       0.000       0.000       0.000       0.008       0.010
  | Times   33:        0.000       0.000       0.000       0.000       0.000       0.001       0.008       0.010
  | Times   34:        0.000       0.000       0.000       0.000       0.000       0.001       0.008       0.010
  | Times   35:        0.000       0.000       0.000       0.000       0.000       0.001       0.008       0.010
  | Times   36:        0.000       0.001       0.000       0.000       0.000       0.000       0.008       0.010
  | Times   37:        0.000       0.000       0.000       0.000       0.000       0.001       0.008       0.010
  | Times   38:        0.000       0.000       0.000       0.000       0.000       0.001       0.008       0.010
  | Times   39:        0.000       0.000       0.000       0.000       0.000       0.001       0.008       0.010
  | Times   40:        0.000       0.001       0.000       0.000       0.000       0.000       0.007       0.010
  | Times   41:        0.000       0.000       0.000       0.000       0.000       0.002       0.007       0.010
  | Times   42:        0.000       0.000       0.000       0.000       0.000       0.002       0.007       0.010
  | Times   43:        0.000       0.000       0.000       0.000       0.000       0.001       0.007       0.010
  | Times   44:        0.000       0.001       0.000       0.000       0.000       0.000       0.008       0.010
  | Times   45:        0.000       0.000       0.000       0.000       0.000       0.002       0.007       0.010
  | Times   46:        0.000       0.000       0.000       0.000       0.000       0.002       0.007       0.010
  | Times   47:        0.000       0.000       0.000       0.000       0.000       0.001       0.007       0.010
  | Times   48:        0.000       0.001       0.000       0.000       0.000       0.000       0.008       0.010
  | Times   49:        0.000       0.000       0.000       0.000       0.000       0.001       0.008       0.010
  | Times   50:        0.000       0.000       0.000       0.000       0.000       0.001       0.008       0.010
  | Times   51:        0.000       0.000       0.000       0.000       0.000       0.001       0.008       0.010
  | Times   52:        0.000       0.001       0.000       0.000       0.000       0.000       0.008       0.010
  | Times   53:        0.000       0.000       0.000       0.000       0.000       0.002       0.008       0.010
  | Times   54:        0.000       0.000       0.000       0.000       0.000       0.002       0.008       0.010
  | Times   55:        0.000       0.000       0.000       0.000       0.000       0.001       0.008       0.010
  | Times   56:        0.000       0.001       0.000       0.000       0.000       0.000       0.007       0.010
  | Times   57:        0.000       0.000       0.000       0.000       0.000       0.002       0.007       0.010
  | Times   58:        0.000       0.000       0.000       0.000       0.000       0.002       0.007       0.010
  | Times   59:        0.000       0.000       0.000       0.000       0.000       0.001       0.007       0.010
  | Times   60:        0.000       0.001       0.000       0.000       0.000       0.000       0.008       0.010
  | Times   61:        0.000       0.000       0.000       0.000       0.000       0.001       0.008       0.010
  | Times   62:        0.000       0.000       0.000       0.000       0.000       0.001       0.008       0.010
  | Times   63:        0.000       0.000       0.000       0.000       0.000       0.001       0.008       0.010
  | Times  sum:        0.006       0.018       0.008       0.005       0.015       0.063       0.498       0.613

  Decomposition of Other based on code block (only on MPI task 0):
  Times             Block #1    Block #2    Block #3    Block #4    Block #5    Block #6    Block #7    Block #8
  | Times    0:        0.000       0.000       0.000       0.000       0.000       0.000       0.000       0.000

  Times             Block #9   Block #10   Block #11   Block #12   Block #13   Block #14   Block #15   Block #16
  | Times    0:        0.000       0.000       0.000       0.002       0.000       0.005       0.000       0.000

  Times            Block Sum    Expected
  | Times    0:        0.007       0.007
  Time for Fock matrix mixing     0.000

  Updating Kohn-Sham eigenvalues and eigenvectors using ELSI and the ELPA eigensolver.
  Starting ELPA eigensolver
  Finished transformation to standard eigenproblem
  | Time :     0.000 s
  Finished solving standard eigenproblem
  | Time :     0.001 s
  Finished back-transformation of eigenvectors
  | Time :     0.000 s

  Obtaining occupation numbers and electronic chemical potential using ELSI.
  | Note that, for insulating systems, the printed 'chemical potential' value is not uniquely defined.
  | It can be anywhere in the energy gap, as long as it correctly separates occupied and unoccupied states.
  | In systems with a gap, the physically relevant chemical potential is the VBM or HOMO.

  | Chemical potential (Fermi level):    -5.27767231 eV
  Highest occupied state (VBM) at    -10.21814802 eV
  | Occupation number:      2.00000000

  Lowest unoccupied state (CBM) at    -0.33719660 eV
  | Occupation number:      0.00000000

  Overall HOMO-LUMO gap:      9.88095141 eV.

  Total energy components:
  | Sum of eigenvalues            :        -276.03000455 Ha       -7511.15858745 eV
  | XC energy correction          :         -16.12717243 Ha        -438.84268996 eV
  | XC potential correction       :          31.94651439 Ha         869.30888656 eV
  | Free-atom electrostatic energy:        -206.44940664 Ha       -5617.77418386 eV
  | Hartree energy correction     :          -3.41733410 Ha         -92.99039208 eV
  | Entropy correction            :          -0.00000000 Ha          -0.00000000 eV
  | ---------------------------
  | Total energy                  :        -470.07740333 Ha      -12791.45696679 eV
  | Total energy, T -> 0          :        -470.07740333 Ha      -12791.45696679 eV  <-- do not rely on this value for anything but (periodic) metals
  | Electronic free energy        :        -470.07740333 Ha      -12791.45696679 eV

  Derived energy quantities:
  | Kinetic energy                :         472.64327826 Ha       12861.27797610 eV
  | Electrostatic energy          :        -912.26607745 Ha      -24824.02299986 eV
  | Energy correction for multipole
  | error in Hartree potential    :          -0.00160231 Ha          -0.04360107 eV
  | Sum of eigenvalues per atom                           :       -3755.57929373 eV
  | Total energy (T->0) per atom                          :       -6395.72848340 eV  <-- do not rely on this value for anything but (periodic) metals
  | Electronic free energy per atom                       :       -6395.72848340 eV
  Evaluating new KS density.
  Integration grid: deviation in total charge (<rho> - N_e) =   1.065814E-14

  Self-consistency convergence accuracy:
  | Change of charge density      :  0.1301E-02
  | Change of unmixed KS density  :  0.5057E-02
  | Change of sum of eigenvalues  :  0.3964E+00 eV
  | Change of total energy        : -0.4582E-02 eV


------------------------------------------------------------
  End self-consistency iteration #     7       :  max(cpu_time)    wall_clock(cpu1)
  | Time for this iteration                     :        0.359 s           0.157 s
  | Charge density update                       :        0.001 s           0.001 s
  | Density mixing                              :        0.344 s           0.140 s
  | Hartree multipole update                    :        0.001 s           0.001 s
  | Hartree multipole summation                 :        0.002 s           0.002 s
  | Integration                                 :        0.002 s           0.002 s
  | Fock matrix evaluation                      :        0.010 s           0.010 s
  | Solution of K.-S. eqns.                     :        0.001 s           0.001 s
  | Total energy evaluation                     :        0.000 s           0.000 s

  Partial memory accounting:
  | Current value for overall tracked memory usage:
  |   Minimum:  -409599.541 MB (on task  2)
  |   Maximum:        1.989 MB (on task 48)
  |   Average:   -86270.765 MB
  | Peak value for overall tracked memory usage:
  |   Minimum:        1.542 MB (on task 18 after allocating d_aux_mat)
  |   Maximum:        3.963 MB (on task 24 after allocating ovlp3fn_nosplit%tmploc)
  |   Average:        1.814 MB
  | Largest tracked array allocation so far:
  |   Minimum:        0.956 MB (aux_mat on task  1)
  |   Maximum:        1.688 MB (ovlp3fn_nosplit%dat on task 24)
  |   Average:        1.087 MB
  Note:  These values currently only include a subset of arrays which are explicitly tracked.
  The "true" memory usage will be greater.
------------------------------------------------------------

------------------------------------------------------------
          Begin self-consistency iteration #    8

  Date     :  20260724, Time     :  093634.305
------------------------------------------------------------
  Pulay mixing of updated and previous charge densities.
  Available memory per node after mixing [GB]:    997.41
  Renormalizing the density to the exact electron count on the 3D integration grid.
  | Formal number of electrons (from input files) :      20.0000000000
  | Integrated number of electrons on 3D grid     :      20.0000000000
  | Charge integration error                      :       0.0000000000
  | Normalization factor for density and gradient :       1.0000000000

  Evaluating partitioned Hartree potential by multipole expansion.
  | Original multipole sum: apparent total charge =   0.132828E-14
  | Sum of charges compensated after spline to logarithmic grids =   0.144667E-04
  | Analytical far-field extrapolation by fixed multipoles:
  | Hartree multipole sum: apparent total charge =   0.196782E-15
  Summing up the Hartree potential.
  Time summed over all CPUs for potential: real work        0.001 s, elapsed        0.001 s
  | RMS charge density error from multipole expansion :   0.166405E-02

  Integrating Hamiltonian matrix: batch-based integration.
  Time summed over all CPUs for integration: real work        0.089 s, elapsed        0.104 s
  Calculating non-local Hartree-Fock exchange by two-center RI (RI-LVL).
  screening_threshold (crit_val) =  0.000000100000
  Exact exchange progress report - outermost block loop i_block: 1 ..       3
  |        1         2         3  
 Total ovlp3fn data transfer [GB]   4.3627199192997068E-004
  Average sparsity of tmp1/2 0.50000000
  Average sparsity of fock_matrix_row 0.10897436
  Full exact exchange energy: weighted long- and short-range EXX    194.918823889396 eV.
  Times            DM_x_o3fn   CM_prod_1   CM_prod_2   tmp2_prod        Sync   Imbalance       Other  Total calc
  | Times    0:        0.000       0.001       0.000       0.000       0.000       0.000       0.007       0.009
  | Times    1:        0.000       0.000       0.000       0.000       0.000       0.001       0.007       0.009
  | Times    2:        0.000       0.000       0.000       0.000       0.000       0.002       0.007       0.009
  | Times    3:        0.000       0.000       0.000       0.000       0.000       0.001       0.007       0.009
  | Times    4:        0.000       0.001       0.000       0.000       0.000       0.000       0.007       0.009
  | Times    5:        0.000       0.000       0.000       0.000       0.000       0.001       0.007       0.009
  | Times    6:        0.000       0.000       0.000       0.000       0.000       0.002       0.007       0.009
  | Times    7:        0.000       0.000       0.000       0.000       0.000       0.001       0.007       0.009
  | Times    8:        0.000       0.001       0.000       0.000       0.000       0.000       0.007       0.009
  | Times    9:        0.000       0.000       0.000       0.000       0.000       0.001       0.007       0.009
  | Times   10:        0.000       0.000       0.000       0.000       0.000       0.001       0.007       0.009
  | Times   11:        0.000       0.000       0.000       0.000       0.000       0.001       0.007       0.009
  | Times   12:        0.000       0.001       0.000       0.000       0.000       0.000       0.007       0.009
  | Times   13:        0.000       0.000       0.000       0.000       0.000       0.001       0.007       0.009
  | Times   14:        0.000       0.000       0.000       0.000       0.000       0.002       0.007       0.009
  | Times   15:        0.000       0.000       0.000       0.000       0.000       0.001       0.007       0.009
  | Times   16:        0.000       0.001       0.000       0.000       0.000       0.000       0.007       0.009
  | Times   17:        0.000       0.000       0.000       0.000       0.000       0.001       0.007       0.009
  | Times   18:        0.000       0.000       0.000       0.000       0.000       0.001       0.007       0.009
  | Times   19:        0.000       0.000       0.000       0.000       0.000       0.001       0.007       0.009
  | Times   20:        0.000       0.001       0.000       0.000       0.000       0.000       0.007       0.009
  | Times   21:        0.000       0.000       0.000       0.000       0.000       0.001       0.007       0.009
  | Times   22:        0.000       0.000       0.000       0.000       0.000       0.001       0.007       0.009
  | Times   23:        0.000       0.000       0.000       0.000       0.000       0.001       0.007       0.009
  | Times   24:        0.000       0.001       0.000       0.000       0.000       0.000       0.006       0.009
  | Times   25:        0.000       0.000       0.000       0.000       0.000       0.002       0.006       0.009
  | Times   26:        0.000       0.000       0.000       0.000       0.000       0.002       0.006       0.009
  | Times   27:        0.000       0.000       0.000       0.000       0.000       0.001       0.006       0.009
  | Times   28:        0.000       0.001       0.000       0.000       0.000       0.000       0.007       0.009
  | Times   29:        0.000       0.000       0.000       0.000       0.000       0.001       0.007       0.009
  | Times   30:        0.000       0.000       0.000       0.000       0.000       0.001       0.007       0.009
  | Times   31:        0.000       0.000       0.000       0.000       0.000       0.001       0.007       0.009
  | Times   32:        0.000       0.001       0.000       0.000       0.000       0.000       0.007       0.009
  | Times   33:        0.000       0.000       0.000       0.000       0.000       0.001       0.007       0.009
  | Times   34:        0.000       0.000       0.000       0.000       0.000       0.001       0.007       0.009
  | Times   35:        0.000       0.000       0.000       0.000       0.000       0.001       0.007       0.009
  | Times   36:        0.000       0.001       0.000       0.000       0.000       0.000       0.007       0.009
  | Times   37:        0.000       0.000       0.000       0.000       0.000       0.001       0.007       0.009
  | Times   38:        0.000       0.000       0.000       0.000       0.000       0.001       0.007       0.009
  | Times   39:        0.000       0.000       0.000       0.000       0.000       0.001       0.007       0.009
  | Times   40:        0.000       0.001       0.000       0.000       0.000       0.000       0.007       0.009
  | Times   41:        0.000       0.000       0.000       0.000       0.000       0.002       0.006       0.009
  | Times   42:        0.000       0.000       0.000       0.000       0.000       0.002       0.006       0.009
  | Times   43:        0.000       0.000       0.000       0.000       0.000       0.001       0.006       0.009
  | Times   44:        0.000       0.001       0.000       0.000       0.000       0.000       0.007       0.009
  | Times   45:        0.000       0.000       0.000       0.000       0.000       0.002       0.007       0.009
  | Times   46:        0.000       0.000       0.000       0.000       0.000       0.002       0.007       0.009
  | Times   47:        0.000       0.000       0.000       0.000       0.000       0.001       0.007       0.009
  | Times   48:        0.000       0.001       0.000       0.000       0.000       0.000       0.007       0.009
  | Times   49:        0.000       0.000       0.000       0.000       0.000       0.001       0.007       0.009
  | Times   50:        0.000       0.000       0.000       0.000       0.000       0.001       0.007       0.009
  | Times   51:        0.000       0.000       0.000       0.000       0.000       0.001       0.007       0.009
  | Times   52:        0.000       0.001       0.000       0.000       0.000       0.000       0.007       0.009
  | Times   53:        0.000       0.000       0.000       0.000       0.000       0.002       0.007       0.009
  | Times   54:        0.000       0.000       0.000       0.000       0.000       0.002       0.007       0.009
  | Times   55:        0.000       0.000       0.000       0.000       0.000       0.001       0.007       0.009
  | Times   56:        0.000       0.001       0.000       0.000       0.000       0.000       0.007       0.009
  | Times   57:        0.000       0.000       0.000       0.000       0.000       0.001       0.007       0.009
  | Times   58:        0.000       0.000       0.000       0.000       0.000       0.001       0.007       0.009
  | Times   59:        0.000       0.000       0.000       0.000       0.000       0.001       0.007       0.009
  | Times   60:        0.000       0.001       0.000       0.000       0.000       0.000       0.007       0.009
  | Times   61:        0.000       0.000       0.000       0.000       0.000       0.001       0.007       0.009
  | Times   62:        0.000       0.000       0.000       0.000       0.000       0.001       0.007       0.009
  | Times   63:        0.000       0.000       0.000       0.000       0.000       0.001       0.007       0.009
  | Times  sum:        0.006       0.018       0.008       0.005       0.015       0.063       0.442       0.556

  Decomposition of Other based on code block (only on MPI task 0):
  Times             Block #1    Block #2    Block #3    Block #4    Block #5    Block #6    Block #7    Block #8
  | Times    0:        0.000       0.000       0.000       0.000       0.000       0.000       0.000       0.000

  Times             Block #9   Block #10   Block #11   Block #12   Block #13   Block #14   Block #15   Block #16
  | Times    0:        0.000       0.000       0.000       0.001       0.000       0.005       0.000       0.000

  Times            Block Sum    Expected
  | Times    0:        0.006       0.007
  Time for Fock matrix mixing     0.034

  Updating Kohn-Sham eigenvalues and eigenvectors using ELSI and the ELPA eigensolver.
  Starting ELPA eigensolver
  Finished transformation to standard eigenproblem
  | Time :     0.000 s
  Finished solving standard eigenproblem
  | Time :     0.001 s
  Finished back-transformation of eigenvectors
  | Time :     0.000 s

  Obtaining occupation numbers and electronic chemical potential using ELSI.
  | Note that, for insulating systems, the printed 'chemical potential' value is not uniquely defined.
  | It can be anywhere in the energy gap, as long as it correctly separates occupied and unoccupied states.
  | In systems with a gap, the physically relevant chemical potential is the VBM or HOMO.

  | Chemical potential (Fermi level):    -5.29175460 eV
  Highest occupied state (VBM) at    -10.25468074 eV
  | Occupation number:      2.00000000

  Lowest unoccupied state (CBM) at    -0.32882846 eV
  | Occupation number:      0.00000000

  Overall HOMO-LUMO gap:      9.92585228 eV.

  Total energy components:
  | Sum of eigenvalues            :        -276.07000859 Ha       -7512.24715264 eV
  | XC energy correction          :         -16.12531762 Ha        -438.79221792 eV
  | XC potential correction       :          31.94362910 Ha         869.23037382 eV
  | Free-atom electrostatic energy:        -206.44940664 Ha       -5617.77418386 eV
  | Hartree energy correction     :          -3.37577853 Ha         -91.85960757 eV
  | Entropy correction            :          -0.00000000 Ha          -0.00000000 eV
  | ---------------------------
  | Total energy                  :        -470.07688228 Ha      -12791.44278817 eV
  | Total energy, T -> 0          :        -470.07688228 Ha      -12791.44278817 eV  <-- do not rely on this value for anything but (periodic) metals
  | Electronic free energy        :        -470.07688228 Ha      -12791.44278817 eV

  Derived energy quantities:
  | Kinetic energy                :         472.62946894 Ha       12860.90220528 eV
  | Electrostatic energy          :        -912.25391134 Ha      -24823.69194315 eV
  | Energy correction for multipole
  | error in Hartree potential    :          -0.00157292 Ha          -0.04280146 eV
  | Sum of eigenvalues per atom                           :       -3756.12357632 eV
  | Total energy (T->0) per atom                          :       -6395.72139408 eV  <-- do not rely on this value for anything but (periodic) metals
  | Electronic free energy per atom                       :       -6395.72139408 eV
  Evaluating new KS density.
  Integration grid: deviation in total charge (<rho> - N_e) =   3.552714E-15

  Self-consistency convergence accuracy:
  | Change of charge density      :  0.1759E-02
  | Change of unmixed KS density  :  0.3432E-03
  | Change of sum of eigenvalues  : -0.1089E+01 eV
  | Change of total energy        :  0.1418E-01 eV


------------------------------------------------------------
  End self-consistency iteration #     8       :  max(cpu_time)    wall_clock(cpu1)
  | Time for this iteration                     :        0.294 s           0.277 s
  | Charge density update                       :        0.001 s           0.002 s
  | Density mixing                              :        0.243 s           0.226 s
  | Hartree multipole update                    :        0.001 s           0.001 s
  | Hartree multipole summation                 :        0.002 s           0.002 s
  | Integration                                 :        0.002 s           0.002 s
  | Fock matrix evaluation                      :        0.043 s           0.043 s
  | Solution of K.-S. eqns.                     :        0.001 s           0.001 s
  | Total energy evaluation                     :        0.000 s           0.000 s

  Partial memory accounting:
  | Current value for overall tracked memory usage:
  |   Minimum:  -458751.541 MB (on task  2)
  |   Maximum:        1.989 MB (on task 48)
  |   Average:   -96254.765 MB
  | Peak value for overall tracked memory usage:
  |   Minimum:        1.542 MB (on task 18 after allocating d_aux_mat)
  |   Maximum:        3.963 MB (on task 24 after allocating ovlp3fn_nosplit%tmploc)
  |   Average:        1.814 MB
  | Largest tracked array allocation so far:
  |   Minimum:        0.956 MB (aux_mat on task  1)
  |   Maximum:        1.688 MB (ovlp3fn_nosplit%dat on task 24)
  |   Average:        1.087 MB
  Note:  These values currently only include a subset of arrays which are explicitly tracked.
  The "true" memory usage will be greater.
------------------------------------------------------------

------------------------------------------------------------
          Begin self-consistency iteration #    9

  Date     :  20260724, Time     :  093634.683
------------------------------------------------------------
  Pulay mixing of updated and previous charge densities.
  Available memory per node after mixing [GB]:    997.41
  Renormalizing the density to the exact electron count on the 3D integration grid.
  | Formal number of electrons (from input files) :      20.0000000000
  | Integrated number of electrons on 3D grid     :      20.0000000000
  | Charge integration error                      :       0.0000000000
  | Normalization factor for density and gradient :       1.0000000000

  Evaluating partitioned Hartree potential by multipole expansion.
  | Original multipole sum: apparent total charge =  -0.295173E-15
  | Sum of charges compensated after spline to logarithmic grids =   0.144814E-04
  | Analytical far-field extrapolation by fixed multipoles:
  | Hartree multipole sum: apparent total charge =  -0.541150E-15
  Summing up the Hartree potential.
  Time summed over all CPUs for potential: real work        0.001 s, elapsed        0.001 s
  | RMS charge density error from multipole expansion :   0.166192E-02

  Integrating Hamiltonian matrix: batch-based integration.
  Time summed over all CPUs for integration: real work        0.090 s, elapsed        0.106 s
  Calculating non-local Hartree-Fock exchange by two-center RI (RI-LVL).
  screening_threshold (crit_val) =  0.000000100000
  Exact exchange progress report - outermost block loop i_block: 1 ..       3
  |        1         2         3  
 Total ovlp3fn data transfer [GB]   4.3627199192997068E-004
  Average sparsity of tmp1/2 0.50000000
  Average sparsity of fock_matrix_row 0.10897436
  Full exact exchange energy: weighted long- and short-range EXX    194.928536914330 eV.
  Times            DM_x_o3fn   CM_prod_1   CM_prod_2   tmp2_prod        Sync   Imbalance       Other  Total calc
  | Times    0:        0.000       0.001       0.000       0.000       0.000       0.000       0.007       0.010
  | Times    1:        0.000       0.000       0.000       0.000       0.000       0.001       0.008       0.010
  | Times    2:        0.000       0.000       0.000       0.000       0.000       0.002       0.007       0.010
  | Times    3:        0.000       0.000       0.000       0.000       0.000       0.001       0.008       0.010
  | Times    4:        0.000       0.001       0.000       0.000       0.000       0.000       0.008       0.010
  | Times    5:        0.000       0.000       0.000       0.000       0.000       0.001       0.008       0.010
  | Times    6:        0.000       0.000       0.000       0.000       0.000       0.002       0.007       0.010
  | Times    7:        0.000       0.000       0.000       0.000       0.000       0.001       0.008       0.010
  | Times    8:        0.000       0.001       0.000       0.000       0.000       0.000       0.008       0.010
  | Times    9:        0.000       0.000       0.000       0.000       0.000       0.001       0.008       0.010
  | Times   10:        0.000       0.000       0.000       0.000       0.000       0.001       0.008       0.010
  | Times   11:        0.000       0.000       0.000       0.000       0.000       0.001       0.008       0.010
  | Times   12:        0.000       0.001       0.000       0.000       0.000       0.000       0.008       0.010
  | Times   13:        0.000       0.000       0.000       0.000       0.000       0.001       0.008       0.010
  | Times   14:        0.000       0.000       0.000       0.000       0.000       0.002       0.008       0.010
  | Times   15:        0.000       0.000       0.000       0.000       0.000       0.001       0.008       0.010
  | Times   16:        0.000       0.001       0.000       0.000       0.000       0.000       0.008       0.010
  | Times   17:        0.000       0.000       0.000       0.000       0.000       0.001       0.008       0.010
  | Times   18:        0.000       0.000       0.000       0.000       0.000       0.001       0.008       0.010
  | Times   19:        0.000       0.000       0.000       0.000       0.000       0.001       0.008       0.010
  | Times   20:        0.000       0.001       0.000       0.000       0.000       0.000       0.008       0.010
  | Times   21:        0.000       0.000       0.000       0.000       0.000       0.002       0.008       0.010
  | Times   22:        0.000       0.000       0.000       0.000       0.000       0.002       0.007       0.010
  | Times   23:        0.000       0.001       0.000       0.000       0.000       0.001       0.008       0.010
  | Times   24:        0.000       0.001       0.000       0.000       0.000       0.000       0.008       0.010
  | Times   25:        0.000       0.000       0.000       0.000       0.000       0.001       0.008       0.010
  | Times   26:        0.000       0.000       0.000       0.000       0.000       0.002       0.008       0.010
  | Times   27:        0.000       0.000       0.000       0.000       0.000       0.001       0.008       0.010
  | Times   28:        0.000       0.001       0.000       0.000       0.000       0.000       0.008       0.010
  | Times   29:        0.000       0.000       0.000       0.000       0.000       0.001       0.008       0.010
  | Times   30:        0.000       0.000       0.000       0.000       0.000       0.001       0.008       0.010
  | Times   31:        0.000       0.000       0.000       0.000       0.000       0.001       0.008       0.010
  | Times   32:        0.000       0.001       0.000       0.000       0.000       0.000       0.008       0.010
  | Times   33:        0.000       0.000       0.000       0.000       0.000       0.002       0.007       0.010
  | Times   34:        0.000       0.000       0.000       0.000       0.000       0.002       0.007       0.010
  | Times   35:        0.000       0.000       0.000       0.000       0.000       0.001       0.007       0.010
  | Times   36:        0.000       0.001       0.000       0.000       0.000       0.000       0.008       0.010
  | Times   37:        0.000       0.000       0.000       0.000       0.000       0.001       0.008       0.010
  | Times   38:        0.000       0.000       0.000       0.000       0.000       0.001       0.008       0.010
  | Times   39:        0.000       0.000       0.000       0.000       0.000       0.001       0.008       0.010
  | Times   40:        0.000       0.001       0.000       0.000       0.000       0.000       0.008       0.010
  | Times   41:        0.000       0.000       0.000       0.000       0.000       0.001       0.008       0.010
  | Times   42:        0.000       0.000       0.000       0.000       0.000       0.001       0.008       0.010
  | Times   43:        0.000       0.000       0.000       0.000       0.000       0.001       0.008       0.010
  | Times   44:        0.000       0.001       0.000       0.000       0.000       0.000       0.008       0.010
  | Times   45:        0.000       0.000       0.000       0.000       0.000       0.002       0.008       0.010
  | Times   46:        0.000       0.000       0.000       0.000       0.000       0.002       0.007       0.010
  | Times   47:        0.000       0.000       0.000       0.000       0.000       0.001       0.007       0.010
  | Times   48:        0.000       0.001       0.000       0.000       0.000       0.000       0.008       0.010
  | Times   49:        0.000       0.000       0.000       0.000       0.000       0.001       0.008       0.010
  | Times   50:        0.000       0.000       0.000       0.000       0.000       0.001       0.008       0.010
  | Times   51:        0.000       0.000       0.000       0.000       0.000       0.001       0.008       0.010
  | Times   52:        0.000       0.001       0.000       0.000       0.000       0.000       0.008       0.010
  | Times   53:        0.000       0.000       0.000       0.000       0.000       0.002       0.008       0.010
  | Times   54:        0.000       0.000       0.000       0.000       0.000       0.002       0.007       0.010
  | Times   55:        0.000       0.000       0.000       0.000       0.000       0.001       0.008       0.010
  | Times   56:        0.000       0.001       0.000       0.000       0.000       0.000       0.008       0.010
  | Times   57:        0.000       0.000       0.000       0.000       0.000       0.001       0.008       0.010
  | Times   58:        0.000       0.000       0.000       0.000       0.000       0.001       0.008       0.010
  | Times   59:        0.000       0.000       0.000       0.000       0.000       0.001       0.008       0.010
  | Times   60:        0.000       0.001       0.000       0.000       0.000       0.000       0.008       0.010
  | Times   61:        0.000       0.000       0.000       0.000       0.000       0.001       0.008       0.010
  | Times   62:        0.000       0.000       0.000       0.000       0.000       0.001       0.008       0.010
  | Times   63:        0.000       0.000       0.000       0.000       0.000       0.001       0.008       0.010
  | Times  sum:        0.006       0.018       0.008       0.005       0.015       0.063       0.500       0.614

  Decomposition of Other based on code block (only on MPI task 0):
  Times             Block #1    Block #2    Block #3    Block #4    Block #5    Block #6    Block #7    Block #8
  | Times    0:        0.000       0.000       0.000       0.000       0.000       0.000       0.000       0.000

  Times             Block #9   Block #10   Block #11   Block #12   Block #13   Block #14   Block #15   Block #16
  | Times    0:        0.000       0.000       0.000       0.002       0.000       0.005       0.000       0.000

  Times            Block Sum    Expected
  | Times    0:        0.007       0.007
  Time for Fock matrix mixing     0.000

  Updating Kohn-Sham eigenvalues and eigenvectors using ELSI and the ELPA eigensolver.
  Starting ELPA eigensolver
  Finished transformation to standard eigenproblem
  | Time :     0.000 s
  Finished solving standard eigenproblem
  | Time :     0.001 s
  Finished back-transformation of eigenvectors
  | Time :     0.000 s

  Obtaining occupation numbers and electronic chemical potential using ELSI.
  | Note that, for insulating systems, the printed 'chemical potential' value is not uniquely defined.
  | It can be anywhere in the energy gap, as long as it correctly separates occupied and unoccupied states.
  | In systems with a gap, the physically relevant chemical potential is the VBM or HOMO.

  | Chemical potential (Fermi level):    -5.28860037 eV
  Highest occupied state (VBM) at    -10.24894305 eV
  | Occupation number:      2.00000000

  Lowest unoccupied state (CBM) at    -0.32825769 eV
  | Occupation number:      0.00000000

  Overall HOMO-LUMO gap:      9.92068536 eV.

  Total energy components:
  | Sum of eigenvalues            :        -276.06149960 Ha       -7512.01561134 eV
  | XC energy correction          :         -16.12581689 Ha        -438.80580369 eV
  | XC potential correction       :          31.94428617 Ha         869.24825365 eV
  | Free-atom electrostatic energy:        -206.44940664 Ha       -5617.77418386 eV
  | Hartree energy correction     :          -3.38451356 Ha         -92.09729995 eV
  | Entropy correction            :          -0.00000000 Ha          -0.00000000 eV
  | ---------------------------
  | Total energy                  :        -470.07695052 Ha      -12791.44464519 eV
  | Total energy, T -> 0          :        -470.07695052 Ha      -12791.44464519 eV  <-- do not rely on this value for anything but (periodic) metals
  | Electronic free energy        :        -470.07695052 Ha      -12791.44464519 eV

  Derived energy quantities:
  | Kinetic energy                :         472.63539481 Ha       12861.06345661 eV
  | Electrostatic energy          :        -912.25947369 Ha      -24823.84330235 eV
  | Energy correction for multipole
  | error in Hartree potential    :          -0.00156693 Ha          -0.04263844 eV
  | Sum of eigenvalues per atom                           :       -3756.00780567 eV
  | Total energy (T->0) per atom                          :       -6395.72232259 eV  <-- do not rely on this value for anything but (periodic) metals
  | Electronic free energy per atom                       :       -6395.72232259 eV
  Evaluating new KS density.
  Integration grid: deviation in total charge (<rho> - N_e) =   3.552714E-15

  Self-consistency convergence accuracy:
  | Change of charge density      :  0.2585E-03
  | Change of unmixed KS density  :  0.8724E-03
  | Change of sum of eigenvalues  :  0.2315E+00 eV
  | Change of total energy        : -0.1857E-02 eV


------------------------------------------------------------
  End self-consistency iteration #     9       :  max(cpu_time)    wall_clock(cpu1)
  | Time for this iteration                     :        0.285 s           0.199 s
  | Charge density update                       :        0.001 s           0.001 s
  | Density mixing                              :        0.270 s           0.181 s
  | Hartree multipole update                    :        0.001 s           0.001 s
  | Hartree multipole summation                 :        0.002 s           0.002 s
  | Integration                                 :        0.002 s           0.002 s
  | Fock matrix evaluation                      :        0.010 s           0.010 s
  | Solution of K.-S. eqns.                     :        0.001 s           0.001 s
  | Total energy evaluation                     :        0.000 s           0.000 s

  Partial memory accounting:
  | Current value for overall tracked memory usage:
  |   Minimum:  -507903.541 MB (on task  2)
  |   Maximum:        1.989 MB (on task 48)
  |   Average:  -106238.765 MB
  | Peak value for overall tracked memory usage:
  |   Minimum:        1.542 MB (on task 18 after allocating d_aux_mat)
  |   Maximum:        3.963 MB (on task 24 after allocating ovlp3fn_nosplit%tmploc)
  |   Average:        1.814 MB
  | Largest tracked array allocation so far:
  |   Minimum:        0.956 MB (aux_mat on task  1)
  |   Maximum:        1.688 MB (ovlp3fn_nosplit%dat on task 24)
  |   Average:        1.087 MB
  Note:  These values currently only include a subset of arrays which are explicitly tracked.
  The "true" memory usage will be greater.
------------------------------------------------------------

------------------------------------------------------------
          Begin self-consistency iteration #   10

  Date     :  20260724, Time     :  093635.161
------------------------------------------------------------
  Pulay mixing of updated and previous charge densities.
  Available memory per node after mixing [GB]:    997.41
  Renormalizing the density to the exact electron count on the 3D integration grid.
  | Formal number of electrons (from input files) :      20.0000000000
  | Integrated number of electrons on 3D grid     :      20.0000000000
  | Charge integration error                      :       0.0000000000
  | Normalization factor for density and gradient :       1.0000000000

  Evaluating partitioned Hartree potential by multipole expansion.
  | Original multipole sum: apparent total charge =  -0.983910E-16
  | Sum of charges compensated after spline to logarithmic grids =   0.144862E-04
  | Analytical far-field extrapolation by fixed multipoles:
  | Hartree multipole sum: apparent total charge =  -0.491955E-15
  Summing up the Hartree potential.
  Time summed over all CPUs for potential: real work        0.002 s, elapsed        0.003 s
  | RMS charge density error from multipole expansion :   0.166165E-02

  Integrating Hamiltonian matrix: batch-based integration.
  Time summed over all CPUs for integration: real work        0.090 s, elapsed        0.119 s => Consider using load balancing!
  Calculating non-local Hartree-Fock exchange by two-center RI (RI-LVL).
  screening_threshold (crit_val) =  0.000000100000
  Exact exchange progress report - outermost block loop i_block: 1 ..       3
  |        1         2         3  
 Total ovlp3fn data transfer [GB]   4.3627199192997068E-004
  Average sparsity of tmp1/2 0.50000000
  Average sparsity of fock_matrix_row 0.10897436
  Full exact exchange energy: weighted long- and short-range EXX    194.925779188375 eV.
  Times            DM_x_o3fn   CM_prod_1   CM_prod_2   tmp2_prod        Sync   Imbalance       Other  Total calc
  | Times    0:        0.000       0.001       0.000       0.000       0.000       0.000       0.007       0.010
  | Times    1:        0.000       0.000       0.000       0.000       0.000       0.001       0.008       0.010
  | Times    2:        0.000       0.000       0.000       0.000       0.000       0.002       0.007       0.010
  | Times    3:        0.000       0.000       0.000       0.000       0.000       0.001       0.008       0.010
  | Times    4:        0.000       0.001       0.000       0.000       0.000       0.000       0.009       0.010
  | Times    5:        0.000       0.000       0.000       0.000       0.000       0.001       0.008       0.010
  | Times    6:        0.000       0.000       0.000       0.000       0.000       0.001       0.008       0.010
  | Times    7:        0.000       0.000       0.000       0.000       0.000       0.001       0.008       0.010
  | Times    8:        0.000       0.001       0.000       0.000       0.000       0.000       0.008       0.010
  | Times    9:        0.000       0.000       0.000       0.000       0.000       0.001       0.008       0.010
  | Times   10:        0.000       0.000       0.000       0.000       0.000       0.002       0.007       0.010
  | Times   11:        0.000       0.000       0.000       0.000       0.000       0.001       0.008       0.010
  | Times   12:        0.000       0.001       0.000       0.000       0.000       0.000       0.008       0.010
  | Times   13:        0.000       0.000       0.000       0.000       0.000       0.001       0.008       0.010
  | Times   14:        0.000       0.000       0.000       0.000       0.000       0.002       0.008       0.010
  | Times   15:        0.000       0.000       0.000       0.000       0.000       0.001       0.008       0.010
  | Times   16:        0.000       0.001       0.000       0.000       0.000       0.000       0.008       0.010
  | Times   17:        0.000       0.000       0.000       0.000       0.000       0.001       0.008       0.010
  | Times   18:        0.000       0.000       0.000       0.000       0.000       0.001       0.008       0.010
  | Times   19:        0.000       0.000       0.000       0.000       0.000       0.001       0.008       0.010
  | Times   20:        0.000       0.001       0.000       0.000       0.000       0.000       0.008       0.010
  | Times   21:        0.000       0.000       0.000       0.000       0.000       0.002       0.008       0.010
  | Times   22:        0.000       0.000       0.000       0.000       0.000       0.002       0.007       0.010
  | Times   23:        0.000       0.001       0.000       0.000       0.000       0.001       0.007       0.010
  | Times   24:        0.000       0.001       0.000       0.000       0.000       0.000       0.008       0.010
  | Times   25:        0.000       0.000       0.000       0.000       0.000       0.001       0.008       0.010
  | Times   26:        0.000       0.000       0.000       0.000       0.000       0.001       0.008       0.010
  | Times   27:        0.000       0.000       0.000       0.000       0.000       0.001       0.008       0.010
  | Times   28:        0.000       0.001       0.000       0.000       0.000       0.000       0.008       0.010
  | Times   29:        0.000       0.000       0.000       0.000       0.000       0.001       0.008       0.010
  | Times   30:        0.000       0.000       0.000       0.000       0.000       0.001       0.008       0.010
  | Times   31:        0.000       0.000       0.000       0.000       0.000       0.001       0.008       0.010
  | Times   32:        0.000       0.001       0.000       0.000       0.000       0.000       0.008       0.010
  | Times   33:        0.000       0.000       0.000       0.000       0.000       0.001       0.008       0.010
  | Times   34:        0.000       0.000       0.000       0.000       0.000       0.001       0.008       0.010
  | Times   35:        0.000       0.000       0.000       0.000       0.000       0.001       0.008       0.010
  | Times   36:        0.000       0.001       0.000       0.000       0.000       0.000       0.008       0.010
  | Times   37:        0.000       0.000       0.000       0.000       0.000       0.002       0.007       0.010
  | Times   38:        0.000       0.000       0.000       0.000       0.000       0.002       0.007       0.010
  | Times   39:        0.000       0.000       0.000       0.000       0.000       0.001       0.007       0.010
  | Times   40:        0.000       0.001       0.000       0.000       0.000       0.000       0.008       0.010
  | Times   41:        0.000       0.000       0.000       0.000       0.000       0.001       0.008       0.010
  | Times   42:        0.000       0.000       0.000       0.000       0.000       0.001       0.008       0.010
  | Times   43:        0.000       0.000       0.000       0.000       0.000       0.001       0.008       0.010
  | Times   44:        0.000       0.001       0.000       0.000       0.000       0.000       0.008       0.010
  | Times   45:        0.000       0.000       0.000       0.000       0.000       0.001       0.008       0.010
  | Times   46:        0.000       0.000       0.000       0.000       0.000       0.001       0.008       0.010
  | Times   47:        0.000       0.000       0.000       0.000       0.000       0.001       0.008       0.010
  | Times   48:        0.000       0.001       0.000       0.000       0.000       0.000       0.008       0.010
  | Times   49:        0.000       0.000       0.000       0.000       0.000       0.002       0.008       0.010
  | Times   50:        0.000       0.000       0.000       0.000       0.000       0.002       0.007       0.010
  | Times   51:        0.000       0.000       0.000       0.000       0.000       0.001       0.007       0.010
  | Times   52:        0.000       0.001       0.000       0.000       0.000       0.000       0.008       0.010
  | Times   53:        0.000       0.000       0.000       0.000       0.000       0.002       0.008       0.010
  | Times   54:        0.000       0.000       0.000       0.000       0.000       0.002       0.007       0.010
  | Times   55:        0.000       0.000       0.000       0.000       0.000       0.001       0.008       0.010
  | Times   56:        0.000       0.001       0.000       0.000       0.000       0.000       0.008       0.010
  | Times   57:        0.000       0.000       0.000       0.000       0.000       0.001       0.008       0.010
  | Times   58:        0.000       0.000       0.000       0.000       0.000       0.001       0.008       0.010
  | Times   59:        0.000       0.000       0.000       0.000       0.000       0.001       0.008       0.010
  | Times   60:        0.000       0.001       0.000       0.000       0.000       0.000       0.008       0.010
  | Times   61:        0.000       0.000       0.000       0.000       0.000       0.001       0.008       0.010
  | Times   62:        0.000       0.000       0.000       0.000       0.000       0.001       0.008       0.010
  | Times   63:        0.000       0.000       0.000       0.000       0.000       0.001       0.008       0.010
  | Times  sum:        0.006       0.018       0.008       0.005       0.015       0.063       0.502       0.615

  Decomposition of Other based on code block (only on MPI task 0):
  Times             Block #1    Block #2    Block #3    Block #4    Block #5    Block #6    Block #7    Block #8
  | Times    0:        0.000       0.000       0.000       0.000       0.000       0.000       0.000       0.000

  Times             Block #9   Block #10   Block #11   Block #12   Block #13   Block #14   Block #15   Block #16
  | Times    0:        0.000       0.000       0.000       0.002       0.000       0.005       0.000       0.000

  Times            Block Sum    Expected
  | Times    0:        0.007       0.007
  Time for Fock matrix mixing     0.000

  Updating Kohn-Sham eigenvalues and eigenvectors using ELSI and the ELPA eigensolver.
  Starting ELPA eigensolver
  Finished transformation to standard eigenproblem
  | Time :     0.001 s
  Finished solving standard eigenproblem
  | Time :     0.000 s
  Finished back-transformation of eigenvectors
  | Time :     0.000 s

  Obtaining occupation numbers and electronic chemical potential using ELSI.
  | Note that, for insulating systems, the printed 'chemical potential' value is not uniquely defined.
  | It can be anywhere in the energy gap, as long as it correctly separates occupied and unoccupied states.
  | In systems with a gap, the physically relevant chemical potential is the VBM or HOMO.

  | Chemical potential (Fermi level):    -5.29074966 eV
  Highest occupied state (VBM) at    -10.25516057 eV
  | Occupation number:      2.00000000

  Lowest unoccupied state (CBM) at    -0.32633875 eV
  | Occupation number:      0.00000000

  Overall HOMO-LUMO gap:      9.92882183 eV.

  Total energy components:
  | Sum of eigenvalues            :        -276.06918220 Ha       -7512.22466554 eV
  | XC energy correction          :         -16.12546668 Ha        -438.79627399 eV
  | XC potential correction       :          31.94364947 Ha         869.23092806 eV
  | Free-atom electrostatic energy:        -206.44940664 Ha       -5617.77418386 eV
  | Hartree energy correction     :          -3.37640585 Ha         -91.87667777 eV
  | Entropy correction            :          -0.00000000 Ha          -0.00000000 eV
  | ---------------------------
  | Total energy                  :        -470.07681190 Ha      -12791.44087310 eV
  | Total energy, T -> 0          :        -470.07681190 Ha      -12791.44087310 eV  <-- do not rely on this value for anything but (periodic) metals
  | Electronic free energy        :        -470.07681190 Ha      -12791.44087310 eV

  Derived energy quantities:
  | Kinetic energy                :         472.63141608 Ha       12860.95518982 eV
  | Electrostatic energy          :        -912.25590171 Ha      -24823.74610386 eV
  | Energy correction for multipole
  | error in Hartree potential    :          -0.00155671 Ha          -0.04236031 eV
  | Sum of eigenvalues per atom                           :       -3756.11233277 eV
  | Total energy (T->0) per atom                          :       -6395.72043655 eV  <-- do not rely on this value for anything but (periodic) metals
  | Electronic free energy per atom                       :       -6395.72043655 eV
  Evaluating new KS density.
  Integration grid: deviation in total charge (<rho> - N_e) =   1.065814E-14

  Self-consistency convergence accuracy:
  | Change of charge density      :  0.4039E-03
  | Change of unmixed KS density  :  0.1950E-03
  | Change of sum of eigenvalues  : -0.2091E+00 eV
  | Change of total energy        :  0.3772E-02 eV


------------------------------------------------------------
  End self-consistency iteration #    10       :  max(cpu_time)    wall_clock(cpu1)
  | Time for this iteration                     :        0.288 s           0.023 s
  | Charge density update                       :        0.001 s           0.001 s
  | Density mixing                              :        0.270 s           0.004 s
  | Hartree multipole update                    :        0.001 s           0.001 s
  | Hartree multipole summation                 :        0.003 s           0.003 s
  | Integration                                 :        0.002 s           0.002 s
  | Fock matrix evaluation                      :        0.011 s           0.010 s
  | Solution of K.-S. eqns.                     :        0.001 s           0.001 s
  | Total energy evaluation                     :        0.000 s           0.000 s

  Partial memory accounting:
  | Current value for overall tracked memory usage:
  |   Minimum:  -557055.541 MB (on task  2)
  |   Maximum:        1.989 MB (on task 48)
  |   Average:  -116222.765 MB
  | Peak value for overall tracked memory usage:
  |   Minimum:        1.542 MB (on task 18 after allocating d_aux_mat)
  |   Maximum:        3.963 MB (on task 24 after allocating ovlp3fn_nosplit%tmploc)
  |   Average:        1.814 MB
  | Largest tracked array allocation so far:
  |   Minimum:        0.956 MB (aux_mat on task  1)
  |   Maximum:        1.688 MB (ovlp3fn_nosplit%dat on task 24)
  |   Average:        1.087 MB
  Note:  These values currently only include a subset of arrays which are explicitly tracked.
  The "true" memory usage will be greater.
------------------------------------------------------------

------------------------------------------------------------
          Begin self-consistency iteration #   11

  Date     :  20260724, Time     :  093635.258
------------------------------------------------------------
  Pulay mixing of updated and previous charge densities.
  Available memory per node after mixing [GB]:    997.41
  Renormalizing the density to the exact electron count on the 3D integration grid.
  | Formal number of electrons (from input files) :      20.0000000000
  | Integrated number of electrons on 3D grid     :      20.0000000000
  | Charge integration error                      :       0.0000000000
  | Normalization factor for density and gradient :       1.0000000000

  Evaluating partitioned Hartree potential by multipole expansion.
  | Original multipole sum: apparent total charge =  -0.295173E-15
  | Sum of charges compensated after spline to logarithmic grids =   0.144875E-04
  | Analytical far-field extrapolation by fixed multipoles:
  | Hartree multipole sum: apparent total charge =  -0.541150E-15
  Summing up the Hartree potential.
  Time summed over all CPUs for potential: real work        0.001 s, elapsed        0.001 s
  | RMS charge density error from multipole expansion :   0.166201E-02

  Integrating Hamiltonian matrix: batch-based integration.
  Time summed over all CPUs for integration: real work        0.089 s, elapsed        0.105 s
  Calculating non-local Hartree-Fock exchange by two-center RI (RI-LVL).
  screening_threshold (crit_val) =  0.000000100000
  Exact exchange progress report - outermost block loop i_block: 1 ..       3
  |        1         2         3  
 Total ovlp3fn data transfer [GB]   4.3627199192997068E-004
  Average sparsity of tmp1/2 0.50000000
  Average sparsity of fock_matrix_row 0.10897436
  Full exact exchange energy: weighted long- and short-range EXX    194.926893731498 eV.
  Times            DM_x_o3fn   CM_prod_1   CM_prod_2   tmp2_prod        Sync   Imbalance       Other  Total calc
  | Times    0:        0.000       0.001       0.000       0.000       0.000       0.000       0.007       0.009
  | Times    1:        0.000       0.000       0.000       0.000       0.000       0.002       0.007       0.009
  | Times    2:        0.000       0.000       0.000       0.000       0.000       0.002       0.007       0.009
  | Times    3:        0.000       0.001       0.000       0.000       0.000       0.002       0.007       0.010
  | Times    4:        0.000       0.001       0.000       0.000       0.000       0.000       0.007       0.010
  | Times    5:        0.000       0.000       0.000       0.000       0.000       0.002       0.007       0.009
  | Times    6:        0.000       0.000       0.000       0.000       0.000       0.002       0.007       0.009
  | Times    7:        0.000       0.001       0.000       0.000       0.000       0.002       0.007       0.009
  | Times    8:        0.000       0.001       0.000       0.000       0.000       0.000       0.007       0.009
  | Times    9:        0.000       0.000       0.000       0.000       0.000       0.002       0.007       0.009
  | Times   10:        0.000       0.000       0.000       0.000       0.000       0.002       0.007       0.009
  | Times   11:        0.000       0.000       0.000       0.000       0.000       0.001       0.008       0.009
  | Times   12:        0.000       0.001       0.000       0.000       0.000       0.000       0.007       0.009
  | Times   13:        0.000       0.000       0.000       0.000       0.000       0.002       0.007       0.009
  | Times   14:        0.000       0.000       0.000       0.000       0.000       0.002       0.007       0.009
  | Times   15:        0.000       0.001       0.000       0.000       0.000       0.001       0.007       0.009
  | Times   16:        0.000       0.001       0.000       0.000       0.000       0.000       0.007       0.009
  | Times   17:        0.000       0.000       0.000       0.000       0.000       0.001       0.007       0.009
  | Times   18:        0.000       0.000       0.000       0.000       0.000       0.002       0.007       0.009
  | Times   19:        0.000       0.000       0.000       0.000       0.000       0.001       0.008       0.009
  | Times   20:        0.000       0.001       0.001       0.000       0.000       0.000       0.007       0.009
  | Times   21:        0.000       0.000       0.000       0.000       0.000       0.002       0.007       0.009
  | Times   22:        0.000       0.000       0.000       0.000       0.000       0.002       0.007       0.009
  | Times   23:        0.000       0.001       0.000       0.000       0.000       0.001       0.007       0.009
  | Times   24:        0.000       0.001       0.000       0.000       0.000       0.000       0.007       0.009
  | Times   25:        0.000       0.000       0.000       0.000       0.000       0.002       0.007       0.009
  | Times   26:        0.000       0.000       0.000       0.000       0.000       0.002       0.007       0.009
  | Times   27:        0.000       0.000       0.000       0.000       0.000       0.001       0.007       0.009
  | Times   28:        0.000       0.001       0.000       0.000       0.000       0.000       0.008       0.009
  | Times   29:        0.000       0.000       0.000       0.000       0.000       0.001       0.008       0.009
  | Times   30:        0.000       0.000       0.000       0.000       0.000       0.001       0.008       0.009
  | Times   31:        0.000       0.000       0.000       0.000       0.000       0.001       0.008       0.009
  | Times   32:        0.000       0.001       0.000       0.000       0.000       0.000       0.007       0.009
  | Times   33:        0.000       0.000       0.000       0.000       0.000       0.002       0.007       0.009
  | Times   34:        0.000       0.000       0.000       0.000       0.000       0.002       0.007       0.009
  | Times   35:        0.000       0.000       0.000       0.000       0.000       0.001       0.007       0.009
  | Times   36:        0.000       0.001       0.000       0.000       0.000       0.000       0.008       0.009
  | Times   37:        0.000       0.000       0.000       0.000       0.000       0.001       0.008       0.009
  | Times   38:        0.000       0.000       0.000       0.000       0.000       0.001       0.008       0.009
  | Times   39:        0.000       0.000       0.000       0.000       0.000       0.001       0.008       0.009
  | Times   40:        0.000       0.001       0.000       0.000       0.000       0.000       0.008       0.009
  | Times   41:        0.000       0.000       0.000       0.000       0.000       0.001       0.008       0.009
  | Times   42:        0.000       0.000       0.000       0.000       0.000       0.001       0.008       0.009
  | Times   43:        0.000       0.000       0.000       0.000       0.000       0.001       0.008       0.009
  | Times   44:        0.000       0.001       0.000       0.000       0.000       0.000       0.008       0.009
  | Times   45:        0.000       0.000       0.000       0.000       0.000       0.002       0.007       0.009
  | Times   46:        0.000       0.000       0.000       0.000       0.000       0.002       0.007       0.009
  | Times   47:        0.000       0.000       0.000       0.000       0.000       0.001       0.007       0.009
  | Times   48:        0.000       0.001       0.000       0.000       0.000       0.000       0.008       0.009
  | Times   49:        0.000       0.000       0.000       0.000       0.000       0.001       0.008       0.009
  | Times   50:        0.000       0.000       0.000       0.000       0.000       0.001       0.008       0.009
  | Times   51:        0.000       0.000       0.000       0.000       0.000       0.001       0.008       0.009
  | Times   52:        0.000       0.001       0.000       0.000       0.000       0.000       0.008       0.009
  | Times   53:        0.000       0.000       0.000       0.000       0.000       0.002       0.007       0.009
  | Times   54:        0.000       0.000       0.000       0.000       0.000       0.002       0.007       0.009
  | Times   55:        0.000       0.000       0.000       0.000       0.000       0.001       0.007       0.009
  | Times   56:        0.000       0.001       0.000       0.000       0.000       0.000       0.008       0.009
  | Times   57:        0.000       0.000       0.000       0.000       0.000       0.001       0.008       0.009
  | Times   58:        0.000       0.000       0.000       0.000       0.000       0.001       0.008       0.009
  | Times   59:        0.000       0.000       0.000       0.000       0.000       0.001       0.008       0.009
  | Times   60:        0.000       0.001       0.000       0.000       0.000       0.000       0.008       0.009
  | Times   61:        0.000       0.000       0.000       0.000       0.000       0.001       0.008       0.009
  | Times   62:        0.000       0.000       0.000       0.000       0.000       0.001       0.008       0.009
  | Times   63:        0.000       0.000       0.000       0.000       0.000       0.001       0.008       0.009
  | Times  sum:        0.006       0.020       0.009       0.005       0.015       0.072       0.480       0.607

  Decomposition of Other based on code block (only on MPI task 0):
  Times             Block #1    Block #2    Block #3    Block #4    Block #5    Block #6    Block #7    Block #8
  | Times    0:        0.000       0.000       0.000       0.000       0.000       0.000       0.000       0.000

  Times             Block #9   Block #10   Block #11   Block #12   Block #13   Block #14   Block #15   Block #16
  | Times    0:        0.000       0.000       0.000       0.002       0.000       0.005       0.000       0.000

  Times            Block Sum    Expected
  | Times    0:        0.006       0.007
  Time for Fock matrix mixing     0.000

  Updating Kohn-Sham eigenvalues and eigenvectors using ELSI and the ELPA eigensolver.
  Starting ELPA eigensolver
  Finished transformation to standard eigenproblem
  | Time :     0.000 s
  Finished solving standard eigenproblem
  | Time :     0.001 s
  Finished back-transformation of eigenvectors
  | Time :     0.000 s

  Obtaining occupation numbers and electronic chemical potential using ELSI.
  | Note that, for insulating systems, the printed 'chemical potential' value is not uniquely defined.
  | It can be anywhere in the energy gap, as long as it correctly separates occupied and unoccupied states.
  | In systems with a gap, the physically relevant chemical potential is the VBM or HOMO.

  | Chemical potential (Fermi level):    -5.29073079 eV
  Highest occupied state (VBM) at    -10.25546502 eV
  | Occupation number:      2.00000000

  Lowest unoccupied state (CBM) at    -0.32599656 eV
  | Occupation number:      0.00000000

  Overall HOMO-LUMO gap:      9.92946846 eV.

  Total energy components:
  | Sum of eigenvalues            :        -276.06955061 Ha       -7512.23469033 eV
  | XC energy correction          :         -16.12545507 Ha        -438.79595805 eV
  | XC potential correction       :          31.94364279 Ha         869.23074640 eV
  | Free-atom electrostatic energy:        -206.44940664 Ha       -5617.77418386 eV
  | Hartree energy correction     :          -3.37604542 Ha         -91.86687000 eV
  | Entropy correction            :          -0.00000000 Ha          -0.00000000 eV
  | ---------------------------
  | Total energy                  :        -470.07681494 Ha      -12791.44095584 eV
  | Total energy, T -> 0          :        -470.07681494 Ha      -12791.44095584 eV  <-- do not rely on this value for anything but (periodic) metals
  | Electronic free energy        :        -470.07681494 Ha      -12791.44095584 eV

  Derived energy quantities:
  | Kinetic energy                :         472.63141897 Ha       12860.95526827 eV
  | Electrostatic energy          :        -912.25590299 Ha      -24823.74613878 eV
  | Energy correction for multipole
  | error in Hartree potential    :          -0.00155710 Ha          -0.04237080 eV
  | Sum of eigenvalues per atom                           :       -3756.11734516 eV
  | Total energy (T->0) per atom                          :       -6395.72047792 eV  <-- do not rely on this value for anything but (periodic) metals
  | Electronic free energy per atom                       :       -6395.72047792 eV
  Evaluating new KS density.
  Integration grid: deviation in total charge (<rho> - N_e) =   7.105427E-15

  Self-consistency convergence accuracy:
  | Change of charge density      :  0.4465E-04
  | Change of unmixed KS density  :  0.1707E-03
  | Change of sum of eigenvalues  : -0.1002E-01 eV
  | Change of total energy        : -0.8274E-04 eV


------------------------------------------------------------
  End self-consistency iteration #    11       :  max(cpu_time)    wall_clock(cpu1)
  | Time for this iteration                     :        0.282 s           0.282 s
  | Charge density update                       :        0.001 s           0.000 s
  | Density mixing                              :        0.265 s           0.265 s
  | Hartree multipole update                    :        0.001 s           0.001 s
  | Hartree multipole summation                 :        0.002 s           0.002 s
  | Integration                                 :        0.002 s           0.002 s
  | Fock matrix evaluation                      :        0.010 s           0.010 s
  | Solution of K.-S. eqns.                     :        0.001 s           0.001 s
  | Total energy evaluation                     :        0.000 s           0.001 s

  Partial memory accounting:
  | Current value for overall tracked memory usage:
  |   Minimum:  -606207.541 MB (on task  2)
  |   Maximum:        1.989 MB (on task 48)
  |   Average:  -126206.765 MB
  | Peak value for overall tracked memory usage:
  |   Minimum:        1.542 MB (on task 18 after allocating d_aux_mat)
  |   Maximum:        3.963 MB (on task 24 after allocating ovlp3fn_nosplit%tmploc)
  |   Average:        1.814 MB
  | Largest tracked array allocation so far:
  |   Minimum:        0.956 MB (aux_mat on task  1)
  |   Maximum:        1.688 MB (ovlp3fn_nosplit%dat on task 24)
  |   Average:        1.087 MB
  Note:  These values currently only include a subset of arrays which are explicitly tracked.
  The "true" memory usage will be greater.
------------------------------------------------------------

------------------------------------------------------------
          Begin self-consistency iteration #   12

  Date     :  20260724, Time     :  093635.564
------------------------------------------------------------
  Pulay mixing of updated and previous charge densities.
  Available memory per node after mixing [GB]:    997.41
  Renormalizing the density to the exact electron count on the 3D integration grid.
  | Formal number of electrons (from input files) :      20.0000000000
  | Integrated number of electrons on 3D grid     :      20.0000000000
  | Charge integration error                      :       0.0000000000
  | Normalization factor for density and gradient :       1.0000000000

  Evaluating partitioned Hartree potential by multipole expansion.
  | Original multipole sum: apparent total charge =  -0.983910E-15
  | Sum of charges compensated after spline to logarithmic grids =   0.144878E-04
  | Analytical far-field extrapolation by fixed multipoles:
  | Hartree multipole sum: apparent total charge =  -0.983910E-15
  Summing up the Hartree potential.
  Time summed over all CPUs for potential: real work        0.001 s, elapsed        0.001 s
  | RMS charge density error from multipole expansion :   0.166202E-02

  Integrating Hamiltonian matrix: batch-based integration.
  Time summed over all CPUs for integration: real work        0.089 s, elapsed        0.100 s
  Calculating non-local Hartree-Fock exchange by two-center RI (RI-LVL).
  screening_threshold (crit_val) =  0.000000100000
  Exact exchange progress report - outermost block loop i_block: 1 ..       3
  |        1         2         3  
 Total ovlp3fn data transfer [GB]   4.3627199192997068E-004
  Average sparsity of tmp1/2 0.50000000
  Average sparsity of fock_matrix_row 0.10897436
  Full exact exchange energy: weighted long- and short-range EXX    194.927033057934 eV.
  Times            DM_x_o3fn   CM_prod_1   CM_prod_2   tmp2_prod        Sync   Imbalance       Other  Total calc
  | Times    0:        0.000       0.001       0.000       0.000       0.000       0.000       0.007       0.009
  | Times    1:        0.000       0.000       0.000       0.000       0.000       0.001       0.007       0.009
  | Times    2:        0.000       0.000       0.000       0.000       0.000       0.002       0.007       0.009
  | Times    3:        0.000       0.000       0.000       0.000       0.000       0.001       0.007       0.009
  | Times    4:        0.000       0.001       0.000       0.000       0.000       0.000       0.008       0.009
  | Times    5:        0.000       0.000       0.000       0.000       0.000       0.001       0.008       0.009
  | Times    6:        0.000       0.000       0.000       0.000       0.000       0.001       0.008       0.009
  | Times    7:        0.000       0.000       0.000       0.000       0.000       0.001       0.008       0.009
  | Times    8:        0.000       0.001       0.000       0.000       0.000       0.000       0.008       0.009
  | Times    9:        0.000       0.000       0.000       0.000       0.000       0.001       0.008       0.009
  | Times   10:        0.000       0.000       0.000       0.000       0.000       0.001       0.008       0.009
  | Times   11:        0.000       0.000       0.000       0.000       0.000       0.001       0.008       0.009
  | Times   12:        0.000       0.001       0.000       0.000       0.000       0.000       0.008       0.009
  | Times   13:        0.000       0.000       0.000       0.000       0.000       0.001       0.008       0.009
  | Times   14:        0.000       0.000       0.000       0.000       0.000       0.001       0.008       0.009
  | Times   15:        0.000       0.000       0.000       0.000       0.000       0.001       0.008       0.009
  | Times   16:        0.000       0.001       0.000       0.000       0.000       0.000       0.007       0.009
  | Times   17:        0.000       0.000       0.000       0.000       0.000       0.002       0.007       0.009
  | Times   18:        0.000       0.000       0.000       0.000       0.000       0.002       0.007       0.009
  | Times   19:        0.000       0.000       0.000       0.000       0.000       0.001       0.007       0.009
  | Times   20:        0.000       0.001       0.000       0.000       0.000       0.000       0.008       0.009
  | Times   21:        0.000       0.000       0.000       0.000       0.000       0.001       0.008       0.009
  | Times   22:        0.000       0.000       0.000       0.000       0.000       0.001       0.008       0.009
  | Times   23:        0.000       0.000       0.000       0.000       0.000       0.001       0.008       0.009
  | Times   24:        0.000       0.001       0.000       0.000       0.000       0.000       0.007       0.009
  | Times   25:        0.000       0.000       0.000       0.000       0.000       0.002       0.007       0.009
  | Times   26:        0.000       0.000       0.000       0.000       0.000       0.002       0.007       0.009
  | Times   27:        0.000       0.000       0.000       0.000       0.000       0.001       0.007       0.009
  | Times   28:        0.000       0.001       0.000       0.000       0.000       0.000       0.007       0.009
  | Times   29:        0.000       0.000       0.000       0.000       0.000       0.002       0.007       0.009
  | Times   30:        0.000       0.000       0.000       0.000       0.000       0.002       0.007       0.009
  | Times   31:        0.000       0.000       0.000       0.000       0.000       0.001       0.007       0.009
  | Times   32:        0.000       0.001       0.000       0.000       0.000       0.000       0.007       0.009
  | Times   33:        0.000       0.000       0.000       0.000       0.000       0.002       0.007       0.009
  | Times   34:        0.000       0.000       0.000       0.000       0.000       0.002       0.007       0.009
  | Times   35:        0.000       0.000       0.000       0.000       0.000       0.001       0.007       0.009
  | Times   36:        0.000       0.001       0.000       0.000       0.000       0.000       0.008       0.009
  | Times   37:        0.000       0.000       0.000       0.000       0.000       0.001       0.008       0.009
  | Times   38:        0.000       0.000       0.000       0.000       0.000       0.001       0.007       0.009
  | Times   39:        0.000       0.000       0.000       0.000       0.000       0.001       0.008       0.009
  | Times   40:        0.000       0.001       0.000       0.000       0.000       0.000       0.007       0.009
  | Times   41:        0.000       0.000       0.000       0.000       0.000       0.002       0.007       0.009
  | Times   42:        0.000       0.000       0.000       0.000       0.000       0.002       0.007       0.009
  | Times   43:        0.000       0.000       0.000       0.000       0.000       0.001       0.007       0.009
  | Times   44:        0.000       0.001       0.000       0.000       0.000       0.000       0.008       0.009
  | Times   45:        0.000       0.000       0.000       0.000       0.000       0.001       0.008       0.009
  | Times   46:        0.000       0.000       0.000       0.000       0.000       0.001       0.008       0.009
  | Times   47:        0.000       0.000       0.000       0.000       0.000       0.001       0.008       0.009
  | Times   48:        0.000       0.001       0.000       0.000       0.000       0.000       0.007       0.009
  | Times   49:        0.000       0.000       0.000       0.000       0.000       0.002       0.007       0.009
  | Times   50:        0.000       0.000       0.000       0.000       0.000       0.002       0.007       0.009
  | Times   51:        0.000       0.000       0.000       0.000       0.000       0.001       0.007       0.009
  | Times   52:        0.000       0.001       0.000       0.000       0.000       0.000       0.007       0.009
  | Times   53:        0.000       0.000       0.000       0.000       0.000       0.002       0.007       0.009
  | Times   54:        0.000       0.000       0.000       0.000       0.000       0.002       0.007       0.009
  | Times   55:        0.000       0.000       0.000       0.000       0.000       0.001       0.007       0.009
  | Times   56:        0.000       0.001       0.000       0.000       0.000       0.000       0.007       0.009
  | Times   57:        0.000       0.000       0.000       0.000       0.000       0.002       0.007       0.009
  | Times   58:        0.000       0.000       0.000       0.000       0.000       0.002       0.007       0.009
  | Times   59:        0.000       0.000       0.000       0.000       0.000       0.001       0.007       0.009
  | Times   60:        0.000       0.001       0.000       0.000       0.000       0.000       0.008       0.009
  | Times   61:        0.000       0.000       0.000       0.000       0.000       0.001       0.008       0.009
  | Times   62:        0.000       0.000       0.000       0.000       0.000       0.001       0.008       0.009
  | Times   63:        0.000       0.000       0.000       0.000       0.000       0.001       0.008       0.009
  | Times  sum:        0.006       0.018       0.008       0.005       0.015       0.065       0.469       0.585

  Decomposition of Other based on code block (only on MPI task 0):
  Times             Block #1    Block #2    Block #3    Block #4    Block #5    Block #6    Block #7    Block #8
  | Times    0:        0.000       0.000       0.000       0.000       0.000       0.000       0.000       0.000

  Times             Block #9   Block #10   Block #11   Block #12   Block #13   Block #14   Block #15   Block #16
  | Times    0:        0.000       0.000       0.000       0.002       0.000       0.004       0.000       0.000

  Times            Block Sum    Expected
  | Times    0:        0.006       0.007
  Time for Fock matrix mixing     0.018

  Updating Kohn-Sham eigenvalues and eigenvectors using ELSI and the ELPA eigensolver.
  Starting ELPA eigensolver
  Finished transformation to standard eigenproblem
  | Time :     0.001 s
  Finished solving standard eigenproblem
  | Time :     0.000 s
  Finished back-transformation of eigenvectors
  | Time :     0.000 s

  Obtaining occupation numbers and electronic chemical potential using ELSI.
  | Note that, for insulating systems, the printed 'chemical potential' value is not uniquely defined.
  | It can be anywhere in the energy gap, as long as it correctly separates occupied and unoccupied states.
  | In systems with a gap, the physically relevant chemical potential is the VBM or HOMO.

  | Chemical potential (Fermi level):    -5.29072650 eV
  Highest occupied state (VBM) at    -10.25542311 eV
  | Occupation number:      2.00000000

  Lowest unoccupied state (CBM) at    -0.32602990 eV
  | Occupation number:      0.00000000

  Overall HOMO-LUMO gap:      9.92939321 eV.

  Total energy components:
  | Sum of eigenvalues            :        -276.06950490 Ha       -7512.23344652 eV
  | XC energy correction          :         -16.12545795 Ha        -438.79603647 eV
  | XC potential correction       :          31.94364614 Ha         869.23083746 eV
  | Free-atom electrostatic energy:        -206.44940664 Ha       -5617.77418386 eV
  | Hartree energy correction     :          -3.37609185 Ha         -91.86813334 eV
  | Entropy correction            :          -0.00000000 Ha          -0.00000000 eV
  | ---------------------------
  | Total energy                  :        -470.07681519 Ha      -12791.44096273 eV
  | Total energy, T -> 0          :        -470.07681519 Ha      -12791.44096273 eV  <-- do not rely on this value for anything but (periodic) metals
  | Electronic free energy        :        -470.07681519 Ha      -12791.44096273 eV

  Derived energy quantities:
  | Kinetic energy                :         472.63144041 Ha       12860.95585173 eV
  | Electrostatic energy          :        -912.25592286 Ha      -24823.74667940 eV
  | Energy correction for multipole
  | error in Hartree potential    :          -0.00155704 Ha          -0.04236919 eV
  | Sum of eigenvalues per atom                           :       -3756.11672326 eV
  | Total energy (T->0) per atom                          :       -6395.72048136 eV  <-- do not rely on this value for anything but (periodic) metals
  | Electronic free energy per atom                       :       -6395.72048136 eV
  Evaluating new KS density.
  Integration grid: deviation in total charge (<rho> - N_e) =   7.105427E-15

  Self-consistency convergence accuracy:
  | Change of charge density      :  0.7799E-05
  | Change of unmixed KS density  :  0.2272E-04
  | Change of sum of eigenvalues  :  0.1244E-02 eV
  | Change of total energy        : -0.6892E-05 eV


------------------------------------------------------------
  End self-consistency iteration #    12       :  max(cpu_time)    wall_clock(cpu1)
  | Time for this iteration                     :        0.273 s           0.264 s
  | Charge density update                       :        0.001 s           0.000 s
  | Density mixing                              :        0.236 s           0.226 s
  | Hartree multipole update                    :        0.001 s           0.002 s
  | Hartree multipole summation                 :        0.002 s           0.001 s
  | Integration                                 :        0.002 s           0.002 s
  | Fock matrix evaluation                      :        0.030 s           0.027 s
  | Solution of K.-S. eqns.                     :        0.001 s           0.001 s
  | Total energy evaluation                     :        0.000 s           0.001 s

  Partial memory accounting:
  | Current value for overall tracked memory usage:
  |   Minimum:  -655359.541 MB (on task  2)
  |   Maximum:        1.989 MB (on task 48)
  |   Average:  -136190.765 MB
  | Peak value for overall tracked memory usage:
  |   Minimum:        1.542 MB (on task 18 after allocating d_aux_mat)
  |   Maximum:        3.963 MB (on task 24 after allocating ovlp3fn_nosplit%tmploc)
  |   Average:        1.814 MB
  | Largest tracked array allocation so far:
  |   Minimum:        0.956 MB (aux_mat on task  1)
  |   Maximum:        1.688 MB (ovlp3fn_nosplit%dat on task 24)
  |   Average:        1.087 MB
  Note:  These values currently only include a subset of arrays which are explicitly tracked.
  The "true" memory usage will be greater.
------------------------------------------------------------

------------------------------------------------------------
          Begin self-consistency iteration #   13

  Date     :  20260724, Time     :  093635.906
------------------------------------------------------------
  Pulay mixing of updated and previous charge densities.
  Available memory per node after mixing [GB]:    997.41
  Renormalizing the density to the exact electron count on the 3D integration grid.
  | Formal number of electrons (from input files) :      20.0000000000
  | Integrated number of electrons on 3D grid     :      20.0000000000
  | Charge integration error                      :       0.0000000000
  | Normalization factor for density and gradient :       1.0000000000

  Evaluating partitioned Hartree potential by multipole expansion.
  | Original multipole sum: apparent total charge =  -0.300092E-14
  | Sum of charges compensated after spline to logarithmic grids =   0.144878E-04
  | Analytical far-field extrapolation by fixed multipoles:
  | Hartree multipole sum: apparent total charge =  -0.388644E-14
  Summing up the Hartree potential.
  Time summed over all CPUs for potential: real work        0.001 s, elapsed        0.001 s
  | RMS charge density error from multipole expansion :   0.166207E-02

  Integrating Hamiltonian matrix: batch-based integration.
  Time summed over all CPUs for integration: real work        0.088 s, elapsed        0.103 s
  Calculating non-local Hartree-Fock exchange by two-center RI (RI-LVL).
  screening_threshold (crit_val) =  0.000000100000
  Exact exchange progress report - outermost block loop i_block: 1 ..       3
  |        1         2         3  
 Total ovlp3fn data transfer [GB]   4.3627199192997068E-004
  Average sparsity of tmp1/2 0.50000000
  Average sparsity of fock_matrix_row 0.10897436
  Full exact exchange energy: weighted long- and short-range EXX    194.927011840203 eV.
  Times            DM_x_o3fn   CM_prod_1   CM_prod_2   tmp2_prod        Sync   Imbalance       Other  Total calc
  | Times    0:        0.000       0.001       0.000       0.000       0.000       0.000       0.006       0.009
  | Times    1:        0.000       0.000       0.000       0.000       0.000       0.002       0.006       0.009
  | Times    2:        0.000       0.000       0.000       0.000       0.000       0.002       0.006       0.009
  | Times    3:        0.000       0.000       0.000       0.000       0.000       0.002       0.006       0.009
  | Times    4:        0.000       0.001       0.000       0.000       0.000       0.000       0.006       0.009
  | Times    5:        0.000       0.000       0.000       0.000       0.000       0.002       0.006       0.009
  | Times    6:        0.000       0.000       0.000       0.000       0.000       0.002       0.006       0.009
  | Times    7:        0.000       0.001       0.000       0.000       0.000       0.002       0.006       0.009
  | Times    8:        0.000       0.001       0.000       0.000       0.000       0.000       0.007       0.009
  | Times    9:        0.000       0.000       0.000       0.000       0.000       0.002       0.007       0.009
  | Times   10:        0.000       0.000       0.000       0.000       0.000       0.002       0.007       0.009
  | Times   11:        0.000       0.000       0.000       0.000       0.000       0.001       0.007       0.009
  | Times   12:        0.000       0.001       0.000       0.000       0.000       0.000       0.007       0.009
  | Times   13:        0.000       0.000       0.000       0.000       0.000       0.002       0.007       0.009
  | Times   14:        0.000       0.000       0.000       0.000       0.000       0.002       0.007       0.009
  | Times   15:        0.000       0.000       0.000       0.000       0.000       0.001       0.007       0.009
  | Times   16:        0.000       0.001       0.000       0.000       0.000       0.000       0.006       0.009
  | Times   17:        0.000       0.000       0.000       0.000       0.000       0.002       0.006       0.009
  | Times   18:        0.000       0.000       0.000       0.000       0.000       0.002       0.006       0.009
  | Times   19:        0.000       0.000       0.000       0.000       0.000       0.002       0.006       0.009
  | Times   20:        0.000       0.001       0.000       0.000       0.000       0.000       0.007       0.009
  | Times   21:        0.000       0.000       0.000       0.000       0.000       0.002       0.007       0.009
  | Times   22:        0.000       0.000       0.000       0.000       0.000       0.002       0.007       0.009
  | Times   23:        0.000       0.000       0.000       0.000       0.000       0.001       0.007       0.009
  | Times   24:        0.000       0.001       0.001       0.000       0.000       0.000       0.007       0.009
  | Times   25:        0.000       0.000       0.000       0.000       0.000       0.002       0.007       0.009
  | Times   26:        0.000       0.000       0.000       0.000       0.000       0.002       0.007       0.009
  | Times   27:        0.000       0.000       0.000       0.000       0.000       0.002       0.007       0.009
  | Times   28:        0.000       0.001       0.001       0.000       0.000       0.000       0.007       0.009
  | Times   29:        0.000       0.000       0.000       0.000       0.000       0.002       0.007       0.009
  | Times   30:        0.000       0.000       0.000       0.000       0.000       0.002       0.007       0.009
  | Times   31:        0.000       0.000       0.000       0.000       0.000       0.002       0.007       0.009
  | Times   32:        0.000       0.001       0.000       0.000       0.000       0.000       0.007       0.009
  | Times   33:        0.000       0.000       0.000       0.000       0.000       0.002       0.007       0.009
  | Times   34:        0.000       0.000       0.000       0.000       0.000       0.002       0.007       0.009
  | Times   35:        0.000       0.000       0.000       0.000       0.000       0.001       0.007       0.009
  | Times   36:        0.000       0.001       0.000       0.000       0.000       0.000       0.007       0.009
  | Times   37:        0.000       0.000       0.000       0.000       0.000       0.001       0.007       0.009
  | Times   38:        0.000       0.000       0.000       0.000       0.000       0.001       0.007       0.009
  | Times   39:        0.000       0.000       0.000       0.000       0.000       0.001       0.007       0.009
  | Times   40:        0.000       0.001       0.000       0.000       0.000       0.000       0.007       0.009
  | Times   41:        0.000       0.000       0.000       0.000       0.000       0.002       0.007       0.009
  | Times   42:        0.000       0.000       0.000       0.000       0.000       0.002       0.007       0.009
  | Times   43:        0.000       0.000       0.000       0.000       0.000       0.001       0.007       0.009
  | Times   44:        0.000       0.001       0.000       0.000       0.000       0.000       0.008       0.009
  | Times   45:        0.000       0.000       0.000       0.000       0.000       0.001       0.007       0.009
  | Times   46:        0.000       0.000       0.000       0.000       0.000       0.001       0.007       0.009
  | Times   47:        0.000       0.000       0.000       0.000       0.000       0.001       0.007       0.009
  | Times   48:        0.000       0.001       0.000       0.000       0.000       0.000       0.007       0.009
  | Times   49:        0.000       0.000       0.000       0.000       0.000       0.002       0.007       0.009
  | Times   50:        0.000       0.000       0.000       0.000       0.000       0.002       0.007       0.009
  | Times   51:        0.000       0.000       0.000       0.000       0.000       0.001       0.007       0.009
  | Times   52:        0.000       0.001       0.000       0.000       0.000       0.000       0.007       0.009
  | Times   53:        0.000       0.000       0.000       0.000       0.000       0.002       0.007       0.009
  | Times   54:        0.000       0.000       0.000       0.000       0.000       0.002       0.007       0.009
  | Times   55:        0.000       0.001       0.000       0.000       0.000       0.001       0.007       0.009
  | Times   56:        0.000       0.001       0.000       0.000       0.000       0.000       0.007       0.009
  | Times   57:        0.000       0.000       0.000       0.000       0.000       0.001       0.007       0.009
  | Times   58:        0.000       0.000       0.000       0.000       0.000       0.001       0.007       0.009
  | Times   59:        0.000       0.000       0.000       0.000       0.000       0.001       0.007       0.009
  | Times   60:        0.000       0.001       0.000       0.000       0.000       0.000       0.008       0.009
  | Times   61:        0.000       0.000       0.000       0.000       0.000       0.001       0.008       0.009
  | Times   62:        0.000       0.000       0.000       0.000       0.000       0.001       0.007       0.009
  | Times   63:        0.000       0.000       0.000       0.000       0.000       0.001       0.007       0.009
  | Times  sum:        0.006       0.022       0.009       0.005       0.015       0.078       0.437       0.572

  Decomposition of Other based on code block (only on MPI task 0):
  Times             Block #1    Block #2    Block #3    Block #4    Block #5    Block #6    Block #7    Block #8
  | Times    0:        0.000       0.000       0.000       0.000       0.000       0.000       0.000       0.000

  Times             Block #9   Block #10   Block #11   Block #12   Block #13   Block #14   Block #15   Block #16
  | Times    0:        0.000       0.000       0.000       0.001       0.000       0.005       0.000       0.000

  Times            Block Sum    Expected
  | Times    0:        0.006       0.006
  Time for Fock matrix mixing     0.000

  Updating Kohn-Sham eigenvalues and eigenvectors using ELSI and the ELPA eigensolver.
  Starting ELPA eigensolver
  Finished transformation to standard eigenproblem
  | Time :     0.000 s
  Finished solving standard eigenproblem
  | Time :     0.000 s
  Finished back-transformation of eigenvectors
  | Time :     0.000 s

  Obtaining occupation numbers and electronic chemical potential using ELSI.
  | Note that, for insulating systems, the printed 'chemical potential' value is not uniquely defined.
  | It can be anywhere in the energy gap, as long as it correctly separates occupied and unoccupied states.
  | In systems with a gap, the physically relevant chemical potential is the VBM or HOMO.

  | Chemical potential (Fermi level):    -5.29072806 eV
  Highest occupied state (VBM) at    -10.25544130 eV
  | Occupation number:      2.00000000

  Lowest unoccupied state (CBM) at    -0.32601482 eV
  | Occupation number:      0.00000000

  Overall HOMO-LUMO gap:      9.92942648 eV.

  Total energy components:
  | Sum of eigenvalues            :        -276.06952736 Ha       -7512.23405767 eV
  | XC energy correction          :         -16.12545608 Ha        -438.79598553 eV
  | XC potential correction       :          31.94364445 Ha         869.23079159 eV
  | Free-atom electrostatic energy:        -206.44940664 Ha       -5617.77418386 eV
  | Hartree energy correction     :          -3.37606902 Ha         -91.86751230 eV
  | Entropy correction            :          -0.00000000 Ha          -0.00000000 eV
  | ---------------------------
  | Total energy                  :        -470.07681464 Ha      -12791.44094778 eV
  | Total energy, T -> 0          :        -470.07681464 Ha      -12791.44094778 eV  <-- do not rely on this value for anything but (periodic) metals
  | Electronic free energy        :        -470.07681464 Ha      -12791.44094778 eV

  Derived energy quantities:
  | Kinetic energy                :         472.63141335 Ha       12860.95511536 eV
  | Electrostatic energy          :        -912.25589573 Ha      -24823.74594119 eV
  | Energy correction for multipole
  | error in Hartree potential    :          -0.00155697 Ha          -0.04236739 eV
  | Sum of eigenvalues per atom                           :       -3756.11702884 eV
  | Total energy (T->0) per atom                          :       -6395.72047389 eV  <-- do not rely on this value for anything but (periodic) metals
  | Electronic free energy per atom                       :       -6395.72047389 eV
  Evaluating new KS density.
  Integration grid: deviation in total charge (<rho> - N_e) =   3.552714E-15

  Self-consistency convergence accuracy:
  | Change of charge density      :  0.7365E-05
  | Change of unmixed KS density  :  0.2157E-05
  | Change of sum of eigenvalues  : -0.6112E-03 eV
  | Change of total energy        :  0.1495E-04 eV


------------------------------------------------------------
  End self-consistency iteration #    13       :  max(cpu_time)    wall_clock(cpu1)
  | Time for this iteration                     :        0.277 s           0.213 s
  | Charge density update                       :        0.001 s           0.001 s
  | Density mixing                              :        0.263 s           0.197 s
  | Hartree multipole update                    :        0.001 s           0.001 s
  | Hartree multipole summation                 :        0.002 s           0.001 s
  | Integration                                 :        0.002 s           0.002 s
  | Fock matrix evaluation                      :        0.009 s           0.010 s
  | Solution of K.-S. eqns.                     :        0.001 s           0.001 s
  | Total energy evaluation                     :        0.000 s           0.000 s

  Partial memory accounting:
  | Current value for overall tracked memory usage:
  |   Minimum:  -704511.541 MB (on task  2)
  |   Maximum:        1.989 MB (on task 48)
  |   Average:  -146174.765 MB
  | Peak value for overall tracked memory usage:
  |   Minimum:        1.542 MB (on task 18 after allocating d_aux_mat)
  |   Maximum:        3.963 MB (on task 24 after allocating ovlp3fn_nosplit%tmploc)
  |   Average:        1.814 MB
  | Largest tracked array allocation so far:
  |   Minimum:        0.956 MB (aux_mat on task  1)
  |   Maximum:        1.688 MB (ovlp3fn_nosplit%dat on task 24)
  |   Average:        1.087 MB
  Note:  These values currently only include a subset of arrays which are explicitly tracked.
  The "true" memory usage will be greater.
------------------------------------------------------------

------------------------------------------------------------
          Begin self-consistency iteration #   14

  Date     :  20260724, Time     :  093636.363
------------------------------------------------------------
  Pulay mixing of updated and previous charge densities.
  Available memory per node after mixing [GB]:    997.41
  Renormalizing the density to the exact electron count on the 3D integration grid.
  | Formal number of electrons (from input files) :      20.0000000000
  | Integrated number of electrons on 3D grid     :      20.0000000000
  | Charge integration error                      :       0.0000000000
  | Normalization factor for density and gradient :       1.0000000000

  Evaluating partitioned Hartree potential by multipole expansion.
  | Original multipole sum: apparent total charge =   0.349288E-14
  | Sum of charges compensated after spline to logarithmic grids =   0.144878E-04
  | Analytical far-field extrapolation by fixed multipoles:
  | Hartree multipole sum: apparent total charge =   0.403403E-14
  Summing up the Hartree potential.
  Time summed over all CPUs for potential: real work        0.001 s, elapsed        0.001 s
  | RMS charge density error from multipole expansion :   0.166206E-02

  Integrating Hamiltonian matrix: batch-based integration.
  Time summed over all CPUs for integration: real work        0.089 s, elapsed        0.104 s
  Calculating non-local Hartree-Fock exchange by two-center RI (RI-LVL).
  screening_threshold (crit_val) =  0.000000100000
  Exact exchange progress report - outermost block loop i_block: 1 ..       2
  |        1         2  
 Total ovlp3fn data transfer [GB]   2.9084799461998045E-004
  Average sparsity of tmp1/2 0.50000000
  Average sparsity of fock_matrix_row 0.10897436
  Full exact exchange energy: weighted long- and short-range EXX    194.927045740309 eV.
  Times            DM_x_o3fn   CM_prod_1   CM_prod_2   tmp2_prod        Sync   Imbalance       Other  Total calc
  | Times    0:        0.000       0.001       0.000       0.000       0.000       0.000       0.007       0.009
  | Times    1:        0.000       0.000       0.000       0.000       0.000       0.001       0.007       0.009
  | Times    2:        0.000       0.000       0.000       0.000       0.000       0.001       0.007       0.009
  | Times    3:        0.000       0.000       0.000       0.000       0.000       0.001       0.007       0.009
  | Times    4:        0.000       0.001       0.000       0.000       0.000       0.000       0.007       0.009
  | Times    5:        0.000       0.000       0.000       0.000       0.000       0.001       0.007       0.009
  | Times    6:        0.000       0.000       0.000       0.000       0.000       0.002       0.007       0.009
  | Times    7:        0.000       0.000       0.000       0.000       0.000       0.001       0.007       0.009
  | Times    8:        0.000       0.001       0.000       0.000       0.000       0.000       0.007       0.009
  | Times    9:        0.000       0.000       0.000       0.000       0.000       0.001       0.007       0.009
  | Times   10:        0.000       0.000       0.000       0.000       0.000       0.001       0.007       0.009
  | Times   11:        0.000       0.000       0.000       0.000       0.000       0.001       0.007       0.009
  | Times   12:        0.000       0.001       0.000       0.000       0.000       0.000       0.007       0.009
  | Times   13:        0.000       0.000       0.000       0.000       0.000       0.001       0.007       0.009
  | Times   14:        0.000       0.000       0.000       0.000       0.000       0.001       0.007       0.009
  | Times   15:        0.000       0.000       0.000       0.000       0.000       0.001       0.007       0.009
  | Times   16:        0.000       0.001       0.000       0.000       0.000       0.000       0.007       0.009
  | Times   17:        0.000       0.000       0.000       0.000       0.000       0.001       0.007       0.009
  | Times   18:        0.000       0.000       0.000       0.000       0.000       0.001       0.007       0.009
  | Times   19:        0.000       0.000       0.000       0.000       0.000       0.001       0.007       0.009
  | Times   20:        0.000       0.001       0.000       0.000       0.000       0.000       0.007       0.009
  | Times   21:        0.000       0.000       0.000       0.000       0.000       0.001       0.007       0.009
  | Times   22:        0.000       0.000       0.000       0.000       0.000       0.002       0.007       0.009
  | Times   23:        0.000       0.000       0.000       0.000       0.000       0.001       0.007       0.009
  | Times   24:        0.000       0.001       0.000       0.000       0.000       0.000       0.007       0.009
  | Times   25:        0.000       0.000       0.000       0.000       0.000       0.001       0.007       0.009
  | Times   26:        0.000       0.000       0.000       0.000       0.000       0.001       0.007       0.009
  | Times   27:        0.000       0.000       0.000       0.000       0.000       0.001       0.007       0.009
  | Times   28:        0.000       0.001       0.000       0.000       0.000       0.000       0.007       0.009
  | Times   29:        0.000       0.000       0.000       0.000       0.000       0.001       0.007       0.009
  | Times   30:        0.000       0.000       0.000       0.000       0.000       0.001       0.007       0.009
  | Times   31:        0.000       0.000       0.000       0.000       0.000       0.001       0.007       0.009
  | Times   32:        0.000       0.000       0.000       0.000       0.000       0.000       0.008       0.009
  | Times   33:        0.000       0.000       0.000       0.000       0.000       0.001       0.008       0.009
  | Times   34:        0.000       0.000       0.000       0.000       0.000       0.001       0.008       0.009
  | Times   35:        0.000       0.000       0.000       0.000       0.000       0.000       0.008       0.009
  | Times   36:        0.000       0.001       0.000       0.000       0.000       0.000       0.007       0.009
  | Times   37:        0.000       0.000       0.000       0.000       0.000       0.002       0.006       0.009
  | Times   38:        0.000       0.000       0.000       0.000       0.000       0.002       0.006       0.009
  | Times   39:        0.000       0.000       0.000       0.000       0.000       0.001       0.006       0.009
  | Times   40:        0.000       0.001       0.000       0.000       0.000       0.000       0.007       0.009
  | Times   41:        0.000       0.000       0.000       0.000       0.000       0.002       0.006       0.009
  | Times   42:        0.000       0.000       0.000       0.000       0.000       0.002       0.006       0.009
  | Times   43:        0.000       0.000       0.000       0.000       0.000       0.001       0.006       0.009
  | Times   44:        0.000       0.001       0.000       0.000       0.000       0.000       0.007       0.009
  | Times   45:        0.000       0.000       0.000       0.000       0.000       0.002       0.007       0.009
  | Times   46:        0.000       0.000       0.000       0.000       0.000       0.002       0.007       0.009
  | Times   47:        0.000       0.000       0.000       0.000       0.000       0.001       0.007       0.009
  | Times   48:        0.000       0.001       0.000       0.000       0.000       0.000       0.007       0.009
  | Times   49:        0.000       0.000       0.000       0.000       0.000       0.001       0.007       0.009
  | Times   50:        0.000       0.000       0.000       0.000       0.000       0.001       0.007       0.009
  | Times   51:        0.000       0.000       0.000       0.000       0.000       0.001       0.007       0.009
  | Times   52:        0.000       0.001       0.001       0.000       0.000       0.000       0.006       0.009
  | Times   53:        0.000       0.000       0.000       0.000       0.000       0.002       0.006       0.009
  | Times   54:        0.000       0.000       0.000       0.000       0.000       0.002       0.006       0.009
  | Times   55:        0.000       0.001       0.000       0.000       0.000       0.001       0.006       0.009
  | Times   56:        0.000       0.001       0.000       0.000       0.000       0.000       0.007       0.009
  | Times   57:        0.000       0.000       0.000       0.000       0.000       0.001       0.007       0.009
  | Times   58:        0.000       0.000       0.000       0.000       0.000       0.001       0.007       0.009
  | Times   59:        0.000       0.000       0.000       0.000       0.000       0.001       0.007       0.009
  | Times   60:        0.000       0.001       0.000       0.000       0.000       0.000       0.007       0.009
  | Times   61:        0.000       0.000       0.000       0.000       0.000       0.002       0.007       0.009
  | Times   62:        0.000       0.000       0.000       0.000       0.000       0.002       0.007       0.009
  | Times   63:        0.000       0.000       0.000       0.000       0.000       0.001       0.007       0.009
  | Times  sum:        0.006       0.017       0.008       0.005       0.015       0.063       0.444       0.557

  Decomposition of Other based on code block (only on MPI task 0):
  Times             Block #1    Block #2    Block #3    Block #4    Block #5    Block #6    Block #7    Block #8
  | Times    0:        0.000       0.000       0.000       0.000       0.000       0.000       0.000       0.000

  Times             Block #9   Block #10   Block #11   Block #12   Block #13   Block #14   Block #15   Block #16
  | Times    0:        0.000       0.000       0.000       0.001       0.000       0.004       0.000       0.000

  Times            Block Sum    Expected
  | Times    0:        0.006       0.007
  Time for Fock matrix mixing     0.000

  Updating Kohn-Sham eigenvalues and eigenvectors using ELSI and the ELPA eigensolver.
  Starting ELPA eigensolver
  Finished transformation to standard eigenproblem
  | Time :     0.001 s
  Finished solving standard eigenproblem
  | Time :     0.000 s
  Finished back-transformation of eigenvectors
  | Time :     0.000 s

  Obtaining occupation numbers and electronic chemical potential using ELSI.
  | Note that, for insulating systems, the printed 'chemical potential' value is not uniquely defined.
  | It can be anywhere in the energy gap, as long as it correctly separates occupied and unoccupied states.
  | In systems with a gap, the physically relevant chemical potential is the VBM or HOMO.

  | Chemical potential (Fermi level):    -5.29073820 eV
  Highest occupied state (VBM) at    -10.25548617 eV
  | Occupation number:      2.00000000

  Lowest unoccupied state (CBM) at    -0.32599022 eV
  | Occupation number:      0.00000000

  Overall HOMO-LUMO gap:      9.92949596 eV.

  Total energy components:
  | Sum of eigenvalues            :        -276.06957635 Ha       -7512.23539089 eV
  | XC energy correction          :         -16.12545410 Ha        -438.79593165 eV
  | XC potential correction       :          31.94364090 Ha         869.23069475 eV
  | Free-atom electrostatic energy:        -206.44940664 Ha       -5617.77418386 eV
  | Hartree energy correction     :          -3.37601764 Ha         -91.86611417 eV
  | Entropy correction            :          -0.00000000 Ha          -0.00000000 eV
  | ---------------------------
  | Total energy                  :        -470.07681384 Ha      -12791.44092582 eV
  | Total energy, T -> 0          :        -470.07681384 Ha      -12791.44092582 eV  <-- do not rely on this value for anything but (periodic) metals
  | Electronic free energy        :        -470.07681384 Ha      -12791.44092582 eV

  Derived energy quantities:
  | Kinetic energy                :         472.63139704 Ha       12860.95467168 eV
  | Electrostatic energy          :        -912.25588157 Ha      -24823.74555565 eV
  | Energy correction for multipole
  | error in Hartree potential    :          -0.00155689 Ha          -0.04236517 eV
  | Sum of eigenvalues per atom                           :       -3756.11769545 eV
  | Total energy (T->0) per atom                          :       -6395.72046291 eV  <-- do not rely on this value for anything but (periodic) metals
  | Electronic free energy per atom                       :       -6395.72046291 eV
  Evaluating new KS density.
  Integration grid: deviation in total charge (<rho> - N_e) =   0.000000E+00

  Self-consistency convergence accuracy:
  | Change of charge density      :  0.2743E-05
  | Change of unmixed KS density  :  0.3643E-05
  | Change of sum of eigenvalues  : -0.1333E-02 eV
  | Change of total energy        :  0.2196E-04 eV


------------------------------------------------------------
  End self-consistency iteration #    14       :  max(cpu_time)    wall_clock(cpu1)
  | Time for this iteration                     :        0.286 s           0.061 s
  | Charge density update                       :        0.001 s           0.001 s
  | Density mixing                              :        0.272 s           0.045 s
  | Hartree multipole update                    :        0.001 s           0.001 s
  | Hartree multipole summation                 :        0.002 s           0.002 s
  | Integration                                 :        0.002 s           0.001 s
  | Fock matrix evaluation                      :        0.009 s           0.009 s
  | Solution of K.-S. eqns.                     :        0.001 s           0.001 s
  | Total energy evaluation                     :        0.000 s           0.000 s

  Partial memory accounting:
  | Current value for overall tracked memory usage:
  |   Minimum:  -753663.523 MB (on task 54)
  |   Maximum:        1.989 MB (on task 48)
  |   Average:  -156158.765 MB
  | Peak value for overall tracked memory usage:
  |   Minimum:        1.542 MB (on task 18 after allocating d_aux_mat)
  |   Maximum:        3.963 MB (on task 24 after allocating ovlp3fn_nosplit%tmploc)
  |   Average:        1.814 MB
  | Largest tracked array allocation so far:
  |   Minimum:        0.956 MB (aux_mat on task  1)
  |   Maximum:        1.688 MB (ovlp3fn_nosplit%dat on task 24)
  |   Average:        1.087 MB
  Note:  These values currently only include a subset of arrays which are explicitly tracked.
  The "true" memory usage will be greater.
------------------------------------------------------------

------------------------------------------------------------
          Begin self-consistency iteration #   15

  Date     :  20260724, Time     :  093636.686
------------------------------------------------------------
  Pulay mixing of updated and previous charge densities.
  Available memory per node after mixing [GB]:    997.40
  Renormalizing the density to the exact electron count on the 3D integration grid.
  | Formal number of electrons (from input files) :      20.0000000000
  | Integrated number of electrons on 3D grid     :      20.0000000000
  | Charge integration error                      :       0.0000000000
  | Normalization factor for density and gradient :       1.0000000000

  Evaluating partitioned Hartree potential by multipole expansion.
  | Original multipole sum: apparent total charge =  -0.245977E-14
  | Sum of charges compensated after spline to logarithmic grids =   0.144879E-04
  | Analytical far-field extrapolation by fixed multipoles:
  | Hartree multipole sum: apparent total charge =  -0.157426E-14
  Summing up the Hartree potential.
  Time summed over all CPUs for potential: real work        0.001 s, elapsed        0.001 s
  | RMS charge density error from multipole expansion :   0.166206E-02

  Integrating Hamiltonian matrix: batch-based integration.
  Time summed over all CPUs for integration: real work        0.088 s, elapsed        0.098 s
  Calculating non-local Hartree-Fock exchange by two-center RI (RI-LVL).
  screening_threshold (crit_val) =  0.000000100000
  Exact exchange progress report - outermost block loop i_block: 1 ..       3
  |        1         2         3  
 Total ovlp3fn data transfer [GB]   4.3627199192997068E-004
  Average sparsity of tmp1/2 0.50000000
  Average sparsity of fock_matrix_row 0.10897436
  Full exact exchange energy: weighted long- and short-range EXX    194.927054589662 eV.
  Times            DM_x_o3fn   CM_prod_1   CM_prod_2   tmp2_prod        Sync   Imbalance       Other  Total calc
  | Times    0:        0.000       0.001       0.000       0.000       0.000       0.000       0.006       0.008
  | Times    1:        0.000       0.000       0.000       0.000       0.000       0.001       0.006       0.008
  | Times    2:        0.000       0.000       0.000       0.000       0.000       0.002       0.006       0.008
  | Times    3:        0.000       0.000       0.000       0.000       0.000       0.001       0.007       0.009
  | Times    4:        0.000       0.001       0.000       0.000       0.000       0.000       0.006       0.008
  | Times    5:        0.000       0.000       0.000       0.000       0.000       0.001       0.006       0.008
  | Times    6:        0.000       0.000       0.000       0.000       0.000       0.002       0.006       0.008
  | Times    7:        0.000       0.000       0.000       0.000       0.000       0.001       0.006       0.008
  | Times    8:        0.000       0.001       0.000       0.000       0.000       0.000       0.007       0.008
  | Times    9:        0.000       0.000       0.000       0.000       0.000       0.001       0.007       0.008
  | Times   10:        0.000       0.000       0.000       0.000       0.000       0.001       0.007       0.008
  | Times   11:        0.000       0.000       0.000       0.000       0.000       0.001       0.007       0.008
  | Times   12:        0.000       0.001       0.000       0.000       0.000       0.000       0.007       0.008
  | Times   13:        0.000       0.000       0.000       0.000       0.000       0.001       0.007       0.008
  | Times   14:        0.000       0.000       0.000       0.000       0.000       0.001       0.007       0.008
  | Times   15:        0.000       0.000       0.000       0.000       0.000       0.001       0.007       0.008
  | Times   16:        0.000       0.001       0.000       0.000       0.000       0.000       0.006       0.008
  | Times   17:        0.000       0.000       0.000       0.000       0.000       0.001       0.006       0.008
  | Times   18:        0.000       0.000       0.000       0.000       0.000       0.002       0.006       0.008
  | Times   19:        0.000       0.000       0.000       0.000       0.000       0.001       0.006       0.008
  | Times   20:        0.000       0.001       0.000       0.000       0.000       0.000       0.007       0.008
  | Times   21:        0.000       0.000       0.000       0.000       0.000       0.001       0.007       0.008
  | Times   22:        0.000       0.000       0.000       0.000       0.000       0.001       0.007       0.008
  | Times   23:        0.000       0.000       0.000       0.000       0.000       0.001       0.007       0.008
  | Times   24:        0.000       0.001       0.000       0.000       0.000       0.000       0.006       0.008
  | Times   25:        0.000       0.000       0.000       0.000       0.000       0.002       0.006       0.008
  | Times   26:        0.000       0.000       0.000       0.000       0.000       0.002       0.006       0.008
  | Times   27:        0.000       0.000       0.000       0.000       0.000       0.001       0.006       0.008
  | Times   28:        0.000       0.001       0.000       0.000       0.000       0.000       0.007       0.008
  | Times   29:        0.000       0.000       0.000       0.000       0.000       0.001       0.007       0.008
  | Times   30:        0.000       0.000       0.000       0.000       0.000       0.001       0.007       0.008
  | Times   31:        0.000       0.000       0.000       0.000       0.000       0.001       0.007       0.008
  | Times   32:        0.000       0.001       0.000       0.000       0.000       0.000       0.007       0.008
  | Times   33:        0.000       0.000       0.000       0.000       0.000       0.001       0.007       0.008
  | Times   34:        0.000       0.000       0.000       0.000       0.000       0.001       0.007       0.008
  | Times   35:        0.000       0.000       0.000       0.000       0.000       0.001       0.007       0.008
  | Times   36:        0.000       0.001       0.000       0.000       0.000       0.000       0.007       0.008
  | Times   37:        0.000       0.000       0.000       0.000       0.000       0.001       0.007       0.008
  | Times   38:        0.000       0.000       0.000       0.000       0.000       0.001       0.007       0.008
  | Times   39:        0.000       0.000       0.000       0.000       0.000       0.001       0.007       0.008
  | Times   40:        0.000       0.001       0.000       0.000       0.000       0.000       0.006       0.008
  | Times   41:        0.000       0.000       0.000       0.000       0.000       0.002       0.006       0.008
  | Times   42:        0.000       0.000       0.000       0.000       0.000       0.002       0.006       0.008
  | Times   43:        0.000       0.000       0.000       0.000       0.000       0.001       0.006       0.008
  | Times   44:        0.000       0.001       0.000       0.000       0.000       0.000       0.007       0.008
  | Times   45:        0.000       0.000       0.000       0.000       0.000       0.001       0.007       0.008
  | Times   46:        0.000       0.000       0.000       0.000       0.000       0.001       0.007       0.008
  | Times   47:        0.000       0.000       0.000       0.000       0.000       0.001       0.007       0.008
  | Times   48:        0.000       0.001       0.000       0.000       0.000       0.000       0.007       0.008
  | Times   49:        0.000       0.000       0.000       0.000       0.000       0.001       0.007       0.008
  | Times   50:        0.000       0.000       0.000       0.000       0.000       0.001       0.007       0.008
  | Times   51:        0.000       0.000       0.000       0.000       0.000       0.001       0.007       0.008
  | Times   52:        0.000       0.001       0.001       0.000       0.000       0.000       0.006       0.008
  | Times   53:        0.000       0.000       0.000       0.000       0.000       0.002       0.006       0.008
  | Times   54:        0.000       0.000       0.000       0.000       0.000       0.002       0.006       0.008
  | Times   55:        0.000       0.001       0.000       0.000       0.000       0.001       0.006       0.008
  | Times   56:        0.000       0.001       0.000       0.000       0.000       0.000       0.007       0.008
  | Times   57:        0.000       0.000       0.000       0.000       0.000       0.001       0.007       0.008
  | Times   58:        0.000       0.000       0.000       0.000       0.000       0.001       0.007       0.008
  | Times   59:        0.000       0.000       0.000       0.000       0.000       0.001       0.007       0.008
  | Times   60:        0.000       0.001       0.000       0.000       0.000       0.000       0.007       0.008
  | Times   61:        0.000       0.000       0.000       0.000       0.000       0.001       0.007       0.008
  | Times   62:        0.000       0.000       0.000       0.000       0.000       0.001       0.007       0.008
  | Times   63:        0.000       0.000       0.000       0.000       0.000       0.001       0.007       0.008
  | Times  sum:        0.005       0.017       0.008       0.005       0.015       0.062       0.418       0.531

  Decomposition of Other based on code block (only on MPI task 0):
  Times             Block #1    Block #2    Block #3    Block #4    Block #5    Block #6    Block #7    Block #8
  | Times    0:        0.000       0.000       0.000       0.000       0.000       0.000       0.000       0.000

  Times             Block #9   Block #10   Block #11   Block #12   Block #13   Block #14   Block #15   Block #16
  | Times    0:        0.000       0.000       0.000       0.001       0.000       0.004       0.000       0.000

  Times            Block Sum    Expected
  | Times    0:        0.005       0.006
  Time for Fock matrix mixing     0.000

  Updating Kohn-Sham eigenvalues and eigenvectors using ELSI and the ELPA eigensolver.
  Starting ELPA eigensolver
  Finished transformation to standard eigenproblem
  | Time :     0.001 s
  Finished solving standard eigenproblem
  | Time :     0.000 s
  Finished back-transformation of eigenvectors
  | Time :     0.000 s

  Obtaining occupation numbers and electronic chemical potential using ELSI.
  | Note that, for insulating systems, the printed 'chemical potential' value is not uniquely defined.
  | It can be anywhere in the energy gap, as long as it correctly separates occupied and unoccupied states.
  | In systems with a gap, the physically relevant chemical potential is the VBM or HOMO.

  | Chemical potential (Fermi level):    -5.29074468 eV
  Highest occupied state (VBM) at    -10.25548440 eV
  | Occupation number:      2.00000000

  Lowest unoccupied state (CBM) at    -0.32600497 eV
  | Occupation number:      0.00000000

  Overall HOMO-LUMO gap:      9.92947943 eV.

  Total energy components:
  | Sum of eigenvalues            :        -276.06957646 Ha       -7512.23539386 eV
  | XC energy correction          :         -16.12545428 Ha        -438.79593671 eV
  | XC potential correction       :          31.94364102 Ha         869.23069824 eV
  | Free-atom electrostatic energy:        -206.44940664 Ha       -5617.77418386 eV
  | Hartree energy correction     :          -3.37601748 Ha         -91.86610974 eV
  | Entropy correction            :          -0.00000000 Ha          -0.00000000 eV
  | ---------------------------
  | Total energy                  :        -470.07681384 Ha      -12791.44092593 eV
  | Total energy, T -> 0          :        -470.07681384 Ha      -12791.44092593 eV  <-- do not rely on this value for anything but (periodic) metals
  | Electronic free energy        :        -470.07681384 Ha      -12791.44092593 eV

  Derived energy quantities:
  | Kinetic energy                :         472.63139837 Ha       12860.95470777 eV
  | Electrostatic energy          :        -912.25588289 Ha      -24823.74559159 eV
  | Energy correction for multipole
  | error in Hartree potential    :          -0.00155689 Ha          -0.04236502 eV
  | Sum of eigenvalues per atom                           :       -3756.11769693 eV
  | Total energy (T->0) per atom                          :       -6395.72046296 eV  <-- do not rely on this value for anything but (periodic) metals
  | Electronic free energy per atom                       :       -6395.72046296 eV

  Self-consistency convergence accuracy:
  | Change of charge density      :  0.8223E-06
  | Change of unmixed KS density  :  0.1507E-05
  | Change of sum of eigenvalues  : -0.2963E-05 eV
  | Change of total energy        : -0.1050E-06 eV

  Writing Kohn-Sham eigenvalues.

  State    Occupation    Eigenvalue [Ha]    Eigenvalue [eV]
      1       2.00000        -102.509035        -2789.41275
      2       2.00000          -9.621381         -261.81110
      3       2.00000          -7.256187         -197.45090
      4       2.00000          -7.256187         -197.45090
      5       2.00000          -7.255754         -197.43911
      6       2.00000          -2.129887          -57.95718
      7       2.00000          -0.864891          -23.53489
      8       2.00000          -0.387702          -10.54990
      9       2.00000          -0.376882          -10.25548
     10       2.00000          -0.376882          -10.25548
     11       0.00000          -0.011980           -0.32600
     12       0.00000           0.118230            3.21721
     13       0.00000           0.118230            3.21721
     14       0.00000           0.166782            4.53836
     15       0.00000           0.248437            6.76031

  Highest occupied state (VBM) at    -10.25548440 eV
  | Occupation number:      2.00000000

  Lowest unoccupied state (CBM) at    -0.32600497 eV
  | Occupation number:      0.00000000

  Overall HOMO-LUMO gap:      9.92947943 eV.

  | Chemical Potential                          :    -5.29074468 eV
  | Note that, for insulating systems, the printed 'chemical potential' value is not uniquely defined.
  | It can be anywhere in the energy gap, as long as it correctly separates occupied and unoccupied states.
  | In systems with a gap, the physically relevant chemical potential is the VBM or HOMO.

  Self-consistency cycle converged.


------------------------------------------------------------
  End self-consistency iteration #    15       :  max(cpu_time)    wall_clock(cpu1)
  | Time for this iteration                     :        0.266 s           0.021 s
  | Charge density update                       :        0.000 s           0.000 s
  | Density mixing                              :        0.251 s           0.006 s
  | Hartree multipole update                    :        0.001 s           0.001 s
  | Hartree multipole summation                 :        0.002 s           0.002 s
  | Integration                                 :        0.002 s           0.001 s
  | Fock matrix evaluation                      :        0.009 s           0.009 s
  | Solution of K.-S. eqns.                     :        0.001 s           0.001 s
  | Total energy evaluation                     :        0.000 s           0.000 s

  Partial memory accounting:
  | Current value for overall tracked memory usage:
  |   Minimum:  -819199.523 MB (on task 54)
  |   Maximum:        1.989 MB (on task 48)
  |   Average:  -166142.765 MB
  | Peak value for overall tracked memory usage:
  |   Minimum:        1.542 MB (on task 18 after allocating d_aux_mat)
  |   Maximum:        3.963 MB (on task 24 after allocating ovlp3fn_nosplit%tmploc)
  |   Average:        1.814 MB
  | Largest tracked array allocation so far:
  |   Minimum:        0.956 MB (aux_mat on task  1)
  |   Maximum:        1.688 MB (ovlp3fn_nosplit%dat on task 24)
  |   Average:        1.087 MB
  Note:  These values currently only include a subset of arrays which are explicitly tracked.
  The "true" memory usage will be greater.
------------------------------------------------------------

  Energy and forces in a compact form:
  | Total energy uncorrected      :         -0.127914409259275E+05 eV
  | Total energy corrected        :         -0.127914409259275E+05 eV  <-- do not rely on this value for anything but (periodic) metals
  | Electronic free energy        :         -0.127914409259275E+05 eV

  ------------------------------------ 
  Start decomposition of the XC Energy 
  ------------------------------------ 
  Since you specified a libxc flag with exchange and correlation combined, only the total XC energy is shown below.
  Hartree-Fock Energy :         -7.163437590 Ha           -194.927054590 eV
  XC Energy w/o HF    :        -23.288891802 Ha           -633.722989410 eV
  Total XC Energy     :        -30.452329392 Ha           -828.650043999 eV
  ------------------------------------ 
  LDA X and C from self-consistent density 
  X Energy LDA        :        -27.248029138 Ha           -741.456597731 eV
  C Energy LDA        :         -1.513530625 Ha            -41.185263780 eV
  ------------------------------------ 
  End decomposition of the XC Energy 
  ------------------------------------ 

------------------------------------------------------------

------------------------------------------------------------------------------
  Final output of selected total energy values:

  The following output summarizes some interesting total energy values
  at the end of a run (AFTER all relaxation, molecular dynamics, etc.).

  | Total energy of the DFT / Hartree-Fock s.c.f. calculation      :         -12791.440925928 eV
  | Final zero-broadening corrected energy (caution - metals only) :         -12791.440925928 eV
  | For reference only, the value of 1 Hartree used in FHI-aims is :             27.211384500 eV

  Before relying on these values, please be sure to understand exactly which
  total energy value is referred to by a given number. Different objects may
  all carry the same name 'total energy'. Definitions:

  Total energy of the DFT / Hartree-Fock s.c.f. calculation:
  | Note that this energy does not include ANY quantities calculated after the
  | s.c.f. cycle, in particular not ANY RPA, MP2, etc. many-body perturbation terms.

  Final zero-broadening corrected energy:
  | For metallic systems only, a broadening of the occupation numbers at the Fermi
  | level can be extrapolated back to zero broadening by an electron-gas inspired
  | formula. For all systems that are not real metals, this value can be
  | meaningless and should be avoided.

------------------------------------------------------------------------------
  Methods described in the following list of references were used in this FHI-aims run.
  If you publish the results, please make sure to cite these reference if they apply.
  FHI-aims is an academic code, and for our developers (often, Ph.D. students
  and postdocs), scientific credit in the community is essential.
  Thank you for helping us!

  For any use of FHI-aims, please cite:

    Volker Blum, Ralf Gehrke, Felix Hanke, Paula Havu, Ville Havu,
    Xinguo Ren, Karsten Reuter, and Matthias Scheffler
    'Ab initio molecular simulations with numeric atom-centered orbitals'
    Computer Physics Communications 180, 2175-2196 (2009)
    http://doi.org/10.1016/j.cpc.2009.06.022


  For Hartree-Fock, hybrid functionals, or many-body perturbation theory used in your run, please cite:

    Xinguo Ren, Patrick Rinke, Volker Blum, Juergen Wieferink, Alex Tkatchenko,
    Andrea Sanfilippo, Karsten Reuter, and Matthias Scheffler,
    'Resolution-of-identity approach to Hartree-Fock, hybrid density functionals,
    RPA, MP2, and GW with numeric atom-centered orbital basis functions'
    New Journal of Physics 14, 053020 (2012).
    http://doi.org/10.1088/1367-2630/14/5/053020


  For using hybrid functionals or Hartree-Fock in FHI-aims, please cite

    Sergey V. Levchenko, Xinguo Ren, Juergen Wieferink, Rainer Joahanni,
    Patrick Rinke, Volker Blum, and Matthias Scheffler
    Hybrid functionals for large periodic systems in an all-electron,
    numeric atom-centered basis framework

    Comput. Phys. Commun. 192, 60-69 (2015)
    https://doi.org/10.1016/j.cpc.2015.02.021


  For using hybrid functionals or Hartree-Fock in FHI-aims, please also cite

    Sebastian Kokott, Florian Merz, Yi Yao, Christian Carbogno, Mariana Rossi,
    Ville Havu, Markus Rampp, Matthias Scheffler, and Volker Blum
    Efficient all-electron hybrid density functionals for atomistic simulations
    beyond 10,000 atoms

    J. Chem. Phys. 161, 024112 (2024)
    https://doi.org/10.1063/5.0208103


  The ELSI infrastructure was used in your run to solve the Kohn-Sham electronic structure.
  Please check out https://wordpress.elsi-interchange.org to learn more.
  If scalability is important for your project, please acknowledge ELSI by citing:

    V. W-z. Yu, F. Corsetti, A. Garcia, W. P. Huhn, M. Jacquelin, W. Jia,
    B. Lange, L. Lin, J. Lu, W. Mi, A. Seifitokaldani, A. Vazquez-Mayagoitia,
    C. Yang, H. Yang, and V. Blum
    'ELSI: A unified software interface for Kohn-Sham electronic structure solvers'
    Computer Physics Communications 222, 267-285 (2018).
    http://doi.org/10.1016/j.cpc.2017.09.007


  For the real-space grid partitioning and parallelization used in this calculation, please cite:

    Ville Havu, Volker Blum, Paula Havu, and Matthias Scheffler,
    'Efficient O(N) integration for all-electron electronic structure calculation'
    'using numerically tabulated basis functions'
    Journal of Computational Physics 228, 8367-8379 (2009).
    http://doi.org/10.1016/j.jcp.2009.08.008


  The high-level electronic structure method used in your calculation
  employed our efficient localized resolution of identity for the Coulomb operator.
  Some calculations, especially large-scale hybrid density functional theory,
  are only possible thanks to this development. For this feature, please cite:

    Arvid Ihrig, Juergen Wieferink, Igor Ying Zhang, Matti Ropo, Xinguo Ren,
    Patrick Rinke, Matthias Scheffler, and Volker Blum,
    'Accurate localized resolution of identity approach for linear-scaling
    hybrid density functionals and for many-body perturbation theory'
    New Journal of Physics 117, 093020 (2015).
    http://doi.org/10.1088/1367-2630/17/9/093020

  Of course, there are many other important community references, e.g., those cited in the
  above references. Our list is limited to references that describe implementations in the
  FHI-aims code. The reason is purely practical (length of this list) - please credit others as well.
------------------------------------------------------------
Warnings summary:

At least    2 warnings were raised during execution.

------------------------------------------------------------
          Leaving FHI-aims.
          Date     :  20260724, Time     :  093636.964

          Computational steps:
          | Number of self-consistency cycles          :           15
          | Number of SCF (re)initializations          :            1

          Detailed time accounting                     :  max(cpu_time)    wall_clock(cpu1)
          | Total time                                  :        5.893 s           7.409 s
          | Preparation time                            :        0.153 s           0.552 s
          | Boundary condition initalization            :        0.002 s           0.002 s
          | Grid partitioning                           :        0.015 s           0.015 s
          | Preloading free-atom quantities on grid     :        0.004 s           0.004 s
          | Free-atom superposition energy              :        0.001 s           0.001 s
          | Total time for integrations                 :        0.038 s           0.038 s
          | Product basis setup: Total time             :        1.306 s           1.433 s
          | Total time evaluating exchange matrix       :        0.258 s           0.252 s
          | Total time for solution of K.-S. equations  :        0.230 s           0.255 s
          | Total time for density update               :        0.015 s           0.015 s
          | Total time for mixing                       :        3.998 s           1.822 s
          | Total time for Hartree multipole update     :        0.017 s           0.017 s
          | Total time for Hartree multipole sum        :        0.028 s           0.028 s
          | Total time for total energy evaluation      :        0.001 s           0.002 s
          | Total time for scaled ZORA corrections      :        0.000 s           0.000 s

          Partial memory accounting:
          | Residual value for overall tracked memory usage across tasks: ************ MB (should be 0.000000 MB)
          |
          | Largest tracked array allocation:
          |   Minimum:        0.956 MB (aux_mat on task  1)
          |   Maximum:        1.688 MB (ovlp3fn_nosplit%dat on task 24)
          |   Average:        1.087 MB
          |
          | Because the residual tracked memory usage was not zero, the peak value for overall
          | tracked memory usage was not output, as it is probably incorrect.  This is likely due
          | to a missing aims_deallocate statement in the source code, which should be otherwise
          | harmless.
          |
          Note:  These values currently only include a subset of arrays which are explicitly tracked.
          The "true" memory usage will be greater.

          Have a nice day.
------------------------------------------------------------
