------------------------------------------------------------
          Invoking FHI-aims ...

          When using FHI-aims, please cite the following reference:

            Volker Blum, Ralf Gehrke, Felix Hanke, Paula Havu,
            Ville Havu, Xinguo Ren, Karsten Reuter, and Matthias Scheffler,
            'Ab Initio Molecular Simulations with Numeric Atom-Centered Orbitals',
            Computer Physics Communications 180, 2175-2196 (2009)

          In addition, many other developments in FHI-aims are likely important for
          your particular application. If so, please cite them. A partial list of references
          is written at the end of this file. Thank you for giving credit to the authors
          of these developments.

          For general information about FHI-aims please find us at

            https://fhi-aims.org

          Online tutorials can be found at

            https://fhi-aims-club.gitlab.io/tutorials/tutorials-overview/

          For any questions about FHI-aims, please visit our slack channel at

            https://fhi-aims.slack.com

          and our main development and support site at

            https://aims-git.rz-berlin.mpg.de .

          The latter site, in particular, has a wiki to collect information, as well
          as an issue tracker to log discussions, suggest improvements, and report issues
          or bugs. https://aims-git.rz-berlin.mpg.de is also the main development site
          of the project and all new and updated code versions can be obtained there.
          Please send an email to aims-coordinators@ms1p.org and we will add
          you to these sites. They are for you and everyone is welcome there.

------------------------------------------------------------



  Date     :  20260724, Time     :  093435.634
  Time zero on CPU 1             :   0.246199000000000E+00  s.
  Internal wall clock time zero  :           554117675.634  s.

  FHI-aims created a unique identifier for this run for later identification
  aims_uuid : C5BACF7E-3EB8-4CC0-AC1F-33C8535F5F71

  Build configuration of the current instance of FHI-aims
  -------------------------------------------------------
  FHI-aims version      : 260331
  Commit number         : GITDIR-NOTFOUND
  CMake host system     : Linux-4.18.0-553.97.1.el8_10.x86_64
  CMake version         : 3.31.6
  OS Distribution       : Rocky Linux 8.10 (Green Obsidian)
  Built on              : Intel(R) Xeon(R) w5-3435X
  Fortran compiler      : /mnt/sw/nix/store/pa59vldasm7gxpr7dkijhk09q5qq63q1-openmpi-4.1.8/bin/mpifort (GNU) version 13.3.0
  Fortran compiler flags: -O2 -fallow-argument-mismatch -ffree-line-length-none
  C compiler            : /mnt/sw/nix/store/pa59vldasm7gxpr7dkijhk09q5qq63q1-openmpi-4.1.8/bin/mpicc (GNU) version 13.3.0
  C compiler flags      : -O2
  C++ compiler          : /mnt/sw/nix/store/pa59vldasm7gxpr7dkijhk09q5qq63q1-openmpi-4.1.8/bin/mpicxx (GNU) version 13.3.0
  C++ compiler flags    : -O2
  HIP compiler          :
  HIP compiler flags    :
  HIP GPU arch          :
  Using MPI
  Using ScaLAPACK
  Using LibXC
  Using i-PI
  Using RLSY
  Using GREENX
  Linking against: /mnt/sw/nix/store/dwd607jzx9m5bdd100br72s3b6g05zrf-intel-oneapi-mkl-2024.2.2/mkl/2024.2/lib/libmkl_intel_lp64.so
                   /mnt/sw/nix/store/dwd607jzx9m5bdd100br72s3b6g05zrf-intel-oneapi-mkl-2024.2.2/mkl/2024.2/lib/libmkl_sequential.so
                   /mnt/sw/nix/store/dwd607jzx9m5bdd100br72s3b6g05zrf-intel-oneapi-mkl-2024.2.2/mkl/2024.2/lib/libmkl_core.so
                   /mnt/sw/nix/store/dwd607jzx9m5bdd100br72s3b6g05zrf-intel-oneapi-mkl-2024.2.2/mkl/2024.2/lib/libmkl_blacs_openmpi_lp64.so
                   /mnt/sw/nix/store/dwd607jzx9m5bdd100br72s3b6g05zrf-intel-oneapi-mkl-2024.2.2/mkl/2024.2/lib/libmkl_scalapack_lp64.so

  Using       64 parallel tasks.
  Task        0 on host worker6116 reporting.
  Task        1 on host worker6116 reporting.
  Task        2 on host worker6116 reporting.
  Task        3 on host worker6116 reporting.
  Task        4 on host worker6116 reporting.
  Task        5 on host worker6116 reporting.
  Task        6 on host worker6116 reporting.
  Task        7 on host worker6116 reporting.
  Task        8 on host worker6116 reporting.
  Task        9 on host worker6116 reporting.
  Task       10 on host worker6116 reporting.
  Task       11 on host worker6116 reporting.
  Task       12 on host worker6116 reporting.
  Task       13 on host worker6116 reporting.
  Task       14 on host worker6116 reporting.
  Task       15 on host worker6116 reporting.
  Task       16 on host worker6116 reporting.
  Task       17 on host worker6116 reporting.
  Task       18 on host worker6116 reporting.
  Task       19 on host worker6116 reporting.
  Task       20 on host worker6116 reporting.
  Task       21 on host worker6116 reporting.
  Task       22 on host worker6116 reporting.
  Task       23 on host worker6116 reporting.
  Task       24 on host worker6116 reporting.
  Task       25 on host worker6116 reporting.
  Task       26 on host worker6116 reporting.
  Task       27 on host worker6116 reporting.
  Task       28 on host worker6116 reporting.
  Task       29 on host worker6116 reporting.
  Task       30 on host worker6116 reporting.
  Task       31 on host worker6116 reporting.
  Task       32 on host worker6141 reporting.
  Task       33 on host worker6141 reporting.
  Task       34 on host worker6141 reporting.
  Task       35 on host worker6141 reporting.
  Task       36 on host worker6141 reporting.
  Task       37 on host worker6141 reporting.
  Task       38 on host worker6141 reporting.
  Task       39 on host worker6141 reporting.
  Task       40 on host worker6141 reporting.
  Task       41 on host worker6141 reporting.
  Task       42 on host worker6141 reporting.
  Task       43 on host worker6141 reporting.
  Task       44 on host worker6141 reporting.
  Task       45 on host worker6141 reporting.
  Task       46 on host worker6141 reporting.
  Task       47 on host worker6141 reporting.
  Task       48 on host worker6141 reporting.
  Task       49 on host worker6141 reporting.
  Task       50 on host worker6141 reporting.
  Task       51 on host worker6141 reporting.
  Task       52 on host worker6141 reporting.
  Task       53 on host worker6141 reporting.
  Task       54 on host worker6141 reporting.
  Task       55 on host worker6141 reporting.
  Task       56 on host worker6141 reporting.
  Task       57 on host worker6141 reporting.
  Task       58 on host worker6141 reporting.
  Task       59 on host worker6141 reporting.
  Task       60 on host worker6141 reporting.
  Task       61 on host worker6141 reporting.
  Task       62 on host worker6141 reporting.
  Task       63 on host worker6141 reporting.

  Obtaining array dimensions for all initial allocations:
  
  -----------------------------------------------------------------------
  Parsing control.in (first pass over file, find array dimensions only).
  The contents of control.in will be repeated verbatim below
  unless switched off by setting 'verbatim_writeout .false.' .
  in the first line of control.in .
  -----------------------------------------------------------------------
  
  override_warning_libxc             True
  xc                                 libxc HYB_MGGA_XC_WB97M_V
  
  spin                               none
  charge                             0
  
  relativistic                       atomic_zora scalar
  atomic_solver_xc                   pbe
  ionic_solver_xc                    pbe
  
  occupation_type                    gaussian 0.01
  
  sc_accuracy_rho                    1e-06
  sc_accuracy_eev                    1e-03
  sc_accuracy_etot                   1e-06
  occupation_acc                     1e-09
  
  charge_mix_param                   0.1
  n_max_pulay                        8
  max_zeroin                         20000
  
  # Species defaults for O
  ################################################################################
  #
  #  FHI-aims code project
  #  Volker Blum, 2017
  #
  #  Suggested "intermediate" defaults for O atom (to be pasted into control.in file)
  #
  ################################################################################
    species        O
  #     global species definitions
      nucleus             8
      mass                15.9994
  #
      l_hartree           6
  #
      cut_pot             4.0  2.0  1.0
      basis_dep_cutoff    1e-4
  #
      radial_base         36 7.0
      radial_multiplier   2
       angular_grids specified
        division   0.1817   50
        division   0.3417  110
        division   0.4949  194
        division   0.6251  302
        division   0.8014  434
  #      division   0.8507  590
  #      division   0.8762  770
  #      division   0.9023  974
  #      division   1.2339 1202
  #      outer_grid 974
        outer_grid  434
  ################################################################################
  #
  #  Definition of "minimal" basis
  #
  ################################################################################
  #     valence basis states
      valence      2  s   2.
      valence      2  p   4.
  #     ion occupancy
      ion_occ      2  s   1.
      ion_occ      2  p   3.
  ################################################################################
  #
  #  Suggested additional basis functions. For production calculations,
  #  uncomment them one after another (the most important basis functions are
  #  listed first).
  #
  #  Constructed for dimers: 1.0 A, 1.208 A, 1.5 A, 2.0 A, 3.0 A
  #
  ################################################################################
  #  "First tier" - improvements: -699.05 meV to -159.38 meV
       hydro 2 p 1.8
       hydro 3 d 7.6
       hydro 3 s 6.4
  #  "Second tier" - improvements: -49.91 meV to -5.39 meV
       hydro 4 f 11.6
  #     hydro 3 p 6.2
  #     hydro 3 d 5.6
    for_aux    hydro 5 g 17.6
  #     hydro 1 s 0.75
  #  "Third tier" - improvements: -2.83 meV to -0.50 meV
  #     ionic 2 p auto
  #     hydro 4 f 10.8
  #     hydro 4 d 4.7
  #     hydro 2 s 6.8
  #  "Fourth tier" - improvements: -0.40 meV to -0.12 meV
  #     hydro 3 p 5
  #     hydro 3 s 3.3
  #     hydro 5 g 15.6
  #     hydro 4 f 17.6
  #     hydro 4 d 14
  # Further basis functions - -0.08 meV and below
  #     hydro 3 s 2.1
  #     hydro 4 d 11.6
  #     hydro 3 p 16
  #     hydro 2 s 17.2
  
  # Species defaults for Mg
  ################################################################################
  #
  #  FHI-aims code project
  #  Volker Blum, 2020
  #
  #  Suggested "intermediate" defaults for Mg atom (to be pasted into control.in file)
  #
  ################################################################################
    species        Mg
  #     global species definitions
      nucleus             12
      mass                24.3050
  #
      l_hartree           6
  #
      cut_pot             5.0          2.0  1.0
      basis_dep_cutoff    1e-4
  #
      radial_base         40 7.0
      radial_multiplier   2
      angular_grids       specified
        division   0.5421   50
        division   0.8500  110
        division   1.0736  194
        division   1.1879  302
        division   1.2806  434
  #      division   1.4147  590
  #      division   1.4867  770
  #      division   1.6422  974
  #      division   2.6134 1202
  #      outer_grid   974
        outer_grid  434
  ################################################################################
  #
  #  Definition of "minimal" basis
  #
  ################################################################################
  #     valence basis states
      valence      3  s   2.
      valence      2  p   6.
  #     ion occupancy
      ion_occ      2  s   2.
      ion_occ      2  p   6.
  ################################################################################
  #
  #  Suggested additional basis functions. For production calculations,
  #  uncomment them one after another (the most important basis functions are
  #  listed first).
  #
  #  Constructed for dimers: 2.125 A, 2.375 A, 2.875 A, 3.375 A, 4.5 A
  #
  ################################################################################
  #  "First tier" - improvements: -230.76 meV to -21.94 meV
       hydro 2 p 1.5
       ionic 3 d auto
       hydro 3 s 2.4
  #  "Second tier" - improvements: -5.43 meV to -1.64 meV
       hydro 4 f 4.3
  #     hydro 2 p 3.4
  #     hydro 4 s 11.2
  #     hydro 3 d 6.2
  #  "Third tier" - improvements: -0.92 meV to -0.22 meV
  #     hydro 2 s 0.6
  #     hydro 3 p 4.8
  #     hydro 4 f 7.4
  #     hydro 5 g 6.6
  #     hydro 2 p 1.6
  #     hydro 3 d 1.8
  #  "Fourth tier" - improvements: -0.09 meV to -0.05 meV
  #     hydro 4 p 0.45
  #     hydro 5 g 10.4
  #     hydro 2 s 12.4
  #     hydro 4 d 1.7
  ################################################################################
  #
  # For methods that use the localized form of the "resolution of identity" for
  # the two-electron Coulomb operator (RI_method LVL), particularly Hartree-Fock and
  # hybrid density functional calculations, the highest accuracy can be obtained by
  # uncommenting the line beginning with "for_aux"  below, thus adding an extra g radial
  # function to the construction of the product basis set for the expansion.
  # See Ref. New J. Phys. 17, 093020 (2015) for more information, particularly Figs. 1 and 6.
  #
  ################################################################################
  #
  # for_aux hydro 5 g 6.0
  
  -----------------------------------------------------------------------
  Completed first pass over input file control.in .
  -----------------------------------------------------------------------
  
  
  -----------------------------------------------------------------------
  Parsing geometry.in (first pass over file, find array dimensions only).
  The contents of geometry.in will be repeated verbatim below
  unless switched off by setting 'verbatim_writeout .false.' .
  in the first line of geometry.in .
  -----------------------------------------------------------------------
  
  #===============================================================================
  # Created using the Atomic Simulation Environment (ASE)
  
  # Thu Jul 23 15:37:19 2026
  
  #=======================================================
  atom 0.0000000000000000 0.0000000000000000 -0.6400000000000000 Mg
  atom 0.0000000000000000 0.0000000000000000 0.6400000000000000 O
  
  -----------------------------------------------------------------------
  Completed first pass over input file geometry.in .
  -----------------------------------------------------------------------
  

  Basic array size parameters:
  | Number of species                 :        2
  | Number of atoms                   :        2
  | Max. basis fn. angular momentum   :        4
  | Max. atomic/ionic basis occupied n:        3
  | Max. number of basis fn. types    :        3
  | Max. radial fns per species/type  :        5
  | Max. logarithmic grid size        :     1334
  | Max. radial integration grid size :       81
  | Max. angular integration grid size:      434
  | Max. angular grid division number :        8
  | Radial grid for Hartree potential :     1334
  | Number of spin channels           :        1

  Definition of standardized fundamental physical constants in this FHI-aims run:
  | Using the set of values used in FHI-aims up to 2024, which combines values from
  | different CODATA sets - see constants.f90.
  | Use the 'codata' keyword in control.in to change this selection.

  Memory overcommitment is allowed on your operating system.

------------------------------------------------------------
          Reading file control.in.
------------------------------------------------------------
  XC: Using LibXC. Please refer to LibXC output for further details.
  Using libxc - Initializing
  Libxc version: 6.1.0

  You have selected libxc functional HYB_MGGA_XC_WB97M_V (531)
    - Description: wB97M-V exchange-correlation functional
    - Type: Hybrid MGGA(Exchange-correlation)
    - Using the following  17 external libxc parameters:
             _cx00 = 0.850000000000D+00  (u^00 coefficient for exchange)
             _cx01 = 0.100700000000D+01  (u^01 coefficient for exchange)
             _cx10 = 0.259000000000D+00  (u^10 coefficient for exchange)
            _css00 = 0.443000000000D+00  (u^00 coefficient for same-spin correlation)
            _css04 =-0.143700000000D+01  (u^04 coefficient for same-spin correlation)
            _css10 =-0.453500000000D+01  (u^10 coefficient for same-spin correlation)
            _css20 =-0.339000000000D+01  (u^20 coefficient for same-spin correlation)
            _css43 = 0.427800000000D+01  (u^43 coefficient for same-spin correlation)
            _cos00 = 0.100000000000D+01  (u^00 coefficient for opposite-spin correlation)
            _cos10 = 0.135800000000D+01  (u^10 coefficient for opposite-spin correlation)
            _cos20 = 0.292400000000D+01  (u^20 coefficient for opposite-spin correlation)
            _cos21 =-0.881200000000D+01  (u^21 coefficient for opposite-spin correlation)
            _cos60 =-0.139000000000D+01  (u^60 coefficient for opposite-spin correlation)
            _cos61 = 0.914200000000D+01  (u^61 coefficient for opposite-spin correlation)
            _alpha = 0.100000000000D+01  (fraction of HF exchange)
             _beta =-0.850000000000D+00  (fraction of short-range exchange)
            _omega = 0.300000000000D+00  (range-separation constant)
    - Reference to Literature:
      [1] N. Mardirossian and M. Head-Gordon.,  J. Chem. Phys. 144, 214110 (2016)

  Obtaining Hybrid Functional Parameters from Libxc:
  Fraction of Hartree-Fock exchange ALPHA:      1.00000000
  Fraction of short-range exchange BETA  :     -0.85000000
  Range-separation parameter OMEGA       :      0.30000000
  Detecting a range-separated Hybrid functional
  This translates into the following internal FHI-aims parameters:
  hybrid_coeff           =      0.15000000
  hybrid_coeff_LR        =      1.00000000
  hse_omega              =      0.30000000
  hse_omega_hf           =      0.30000000
  use_hse                =               F
  use_lc_wpbeh           =               T
  use_yukawa             =               F
  Spin treatment: No spin polarisation.
  Charge =   0.000000E+00: Neutral system requested explicitly.
  Scalar relativistic treatment of kinetic energy: on-site free-atom approximation to ZORA.
  Atomic Solver XC: Using user-defined functional for generating the minimal NAO basis functions.
  Note that only the following functionals are available: kli, pz-lda, pw-lda, vwn, vwn-gauss, pw91_gga, pbe, rpbe, revpbe, pbeint, pbesol, blyp.
  Ionic Solver XC: Using user-defined functional for generating the minimal NAO basis functions.
  Note that only the following functionals are available: kli, pz-lda, pw-lda, vwn, vwn-gauss, pw91_gga, pbe, rpbe, revpbe, pbeint, pbesol, blyp.
  Occupation type: Gaussian broadening, width =   0.100000E-01 eV.
  Convergence accuracy of self-consistent charge density:  0.1000E-05
  Convergence accuracy of sum of eigenvalues:  0.1000E-02
  Convergence accuracy of total energy:  0.1000E-05
  Accuracy of occupation numbers  :  0.1000E-08
  Charge density mixing - mixing parameter:     0.1000
  Pulay mixing - number of memorized iterations:    8
  Maximum # of zeroin steps  : ****

  Reading configuration options for species O                   .
  | Found nuclear charge :   8.0000
  | Found atomic mass :    15.999400000000000      amu
  | Found l_max for Hartree potential  :   6
  | Found cutoff potl. onset [A], width [A], scale factor :    4.00000    2.00000    1.00000
  | Threshold for basis-dependent cutoff potential is   0.100000E-03
  | Found data for basic radial integration grid :    36 points, outermost radius =    7.000 A
  | Found multiplier for basic radial grid :   2
  | Found angular grid specification: user-specified.
  | Specified grid contains     6 separate shells.
  | Check grid settings after all constraints further below.
  | Found free-atom valence shell :  2 s   2.000
  | Found free-atom valence shell :  2 p   4.000
  | Found free-ion valence shell :  2 s   1.000
  | Found free-ion valence shell :  2 p   3.000
  | Found hydrogenic basis function :  2 p   1.800
  | Found hydrogenic basis function :  3 d   7.600
  | Found hydrogenic basis function :  3 s   6.400
  | Found hydrogenic basis function :  4 f  11.600
  | Found hydrogenic extended basis function :  5 g  17.600
 | Encountered keyword species, ending the description of species O                   .
  Species O                   : Missing cutoff potential type.
  Defaulting to exp(1/x)/(1-x)^2 type cutoff potential.
  Species O : No 'logarithmic' tag. Using default grid for free atom:
  | Default logarithmic grid data [bohr] : 0.1000E-03 0.1000E+03 0.1012E+01
  Species O : On-site basis accuracy parameter (for Gram-Schmidt orthonormalisation) not specified.
  Using default value basis_acc =  0.1000000E-03.
  Species O                   : Using default innermost maximum threshold i_radial=  2 for radial functions.
  Species O                   : Default cutoff onset for free atom density etc. : 0.40000000E+01 AA.
  Species O                   : Basic radial grid will be enhanced according to radial_multiplier =   2, to contain    73 grid points.

  Reading configuration options for species Mg                  .
  | Found nuclear charge :  12.0000
  | Found atomic mass :    24.305000000000000      amu
  | Found l_max for Hartree potential  :   6
  | Found cutoff potl. onset [A], width [A], scale factor :    5.00000    2.00000    1.00000
  | Threshold for basis-dependent cutoff potential is   0.100000E-03
  | Found data for basic radial integration grid :    40 points, outermost radius =    7.000 A
  | Found multiplier for basic radial grid :   2
  | Found angular grid specification: user-specified.
  | Specified grid contains     6 separate shells.
  | Check grid settings after all constraints further below.
  | Found free-atom valence shell :  3 s   2.000
  | Found free-atom valence shell :  2 p   6.000
  | Found free-ion valence shell :  2 s   2.000
  | Found free-ion valence shell :  2 p   6.000
  | Found hydrogenic basis function :  2 p   1.500
  | Found ionic basis function :  3 d , default cutoff radius.
  | Found hydrogenic basis function :  3 s   2.400
  | Found hydrogenic basis function :  4 f   4.300
  Species Mg                  : Missing cutoff potential type.
  Defaulting to exp(1/x)/(1-x)^2 type cutoff potential.
  Species Mg: No 'logarithmic' tag. Using default grid for free atom:
  | Default logarithmic grid data [bohr] : 0.1000E-03 0.1000E+03 0.1012E+01
  | Will include ionic basis functions of  2.0-fold positive Mg                   ion.
  Species Mg: On-site basis accuracy parameter (for Gram-Schmidt orthonormalisation) not specified.
  Using default value basis_acc =  0.1000000E-03.
  Species Mg                  : Using default innermost maximum threshold i_radial=  2 for radial functions.
  Species Mg                  : Default cutoff onset for free atom density etc. : 0.50000000E+01 AA.
  Species Mg                  : Basic radial grid will be enhanced according to radial_multiplier =   2, to contain    81 grid points.

  Finished reading input file 'control.in'.

------------------------------------------------------------


------------------------------------------------------------
          Reading geometry description geometry.in.
------------------------------------------------------------
  | The smallest distance between any two atoms is         1.28000000 AA.
  | The first atom of this pair is atom number                      1 .
  | The second atom of this pair is atom number                     2 .
  Input structure read successfully.
  The structure contains        2 atoms,  and a total of         20.000 electrons.

  Input geometry:
  | No unit cell requested.
  | Atomic structure:
  |       Atom                x [A]            y [A]            z [A]
  |    1: Species Mg            0.00000000        0.00000000       -0.64000000
  |    2: Species O             0.00000000        0.00000000        0.64000000

  Slab Identifier: This is not a periodic structure.

  Finished reading input file 'geometry.in'.



  Consistency checks for stacksize environment parameter are next.

  | Maximum stacksize for task 0: unlimited
  | Maximum stacksize for task 1: unlimited
  | Maximum stacksize for task 2: unlimited
  | Maximum stacksize for task 3: unlimited
  | Maximum stacksize for task 4: unlimited
  | Maximum stacksize for task 5: unlimited
  | Maximum stacksize for task 6: unlimited
  | Maximum stacksize for task 7: unlimited
  | Maximum stacksize for task 8: unlimited
  | Maximum stacksize for task 9: unlimited
  | Maximum stacksize for task 10: unlimited
  | Maximum stacksize for task 11: unlimited
  | Maximum stacksize for task 12: unlimited
  | Maximum stacksize for task 13: unlimited
  | Maximum stacksize for task 14: unlimited
  | Maximum stacksize for task 15: unlimited
  | Maximum stacksize for task 16: unlimited
  | Maximum stacksize for task 17: unlimited
  | Maximum stacksize for task 18: unlimited
  | Maximum stacksize for task 19: unlimited
  | Maximum stacksize for task 20: unlimited
  | Maximum stacksize for task 21: unlimited
  | Maximum stacksize for task 22: unlimited
  | Maximum stacksize for task 23: unlimited
  | Maximum stacksize for task 24: unlimited
  | Maximum stacksize for task 25: unlimited
  | Maximum stacksize for task 26: unlimited
  | Maximum stacksize for task 27: unlimited
  | Maximum stacksize for task 28: unlimited
  | Maximum stacksize for task 29: unlimited
  | Maximum stacksize for task 30: unlimited
  | Maximum stacksize for task 31: unlimited
  | Maximum stacksize for task 32: unlimited
  | Maximum stacksize for task 33: unlimited
  | Maximum stacksize for task 34: unlimited
  | Maximum stacksize for task 35: unlimited
  | Maximum stacksize for task 36: unlimited
  | Maximum stacksize for task 37: unlimited
  | Maximum stacksize for task 38: unlimited
  | Maximum stacksize for task 39: unlimited
  | Maximum stacksize for task 40: unlimited
  | Maximum stacksize for task 41: unlimited
  | Maximum stacksize for task 42: unlimited
  | Maximum stacksize for task 43: unlimited
  | Maximum stacksize for task 44: unlimited
  | Maximum stacksize for task 45: unlimited
  | Maximum stacksize for task 46: unlimited
  | Maximum stacksize for task 47: unlimited
  | Maximum stacksize for task 48: unlimited
  | Maximum stacksize for task 49: unlimited
  | Maximum stacksize for task 50: unlimited
  | Maximum stacksize for task 51: unlimited
  | Maximum stacksize for task 52: unlimited
  | Maximum stacksize for task 53: unlimited
  | Maximum stacksize for task 54: unlimited
  | Maximum stacksize for task 55: unlimited
  | Maximum stacksize for task 56: unlimited
  | Maximum stacksize for task 57: unlimited
  | Maximum stacksize for task 58: unlimited
  | Maximum stacksize for task 59: unlimited
  | Maximum stacksize for task 60: unlimited
  | Maximum stacksize for task 61: unlimited
  | Maximum stacksize for task 62: unlimited
  | Maximum stacksize for task 63: unlimited
  | Current stacksize for task 0: unlimited
  | Current stacksize for task 1: unlimited
  | Current stacksize for task 2: unlimited
  | Current stacksize for task 3: unlimited
  | Current stacksize for task 4: unlimited
  | Current stacksize for task 5: unlimited
  | Current stacksize for task 6: unlimited
  | Current stacksize for task 7: unlimited
  | Current stacksize for task 8: unlimited
  | Current stacksize for task 9: unlimited
  | Current stacksize for task 10: unlimited
  | Current stacksize for task 11: unlimited
  | Current stacksize for task 12: unlimited
  | Current stacksize for task 13: unlimited
  | Current stacksize for task 14: unlimited
  | Current stacksize for task 15: unlimited
  | Current stacksize for task 16: unlimited
  | Current stacksize for task 17: unlimited
  | Current stacksize for task 18: unlimited
  | Current stacksize for task 19: unlimited
  | Current stacksize for task 20: unlimited
  | Current stacksize for task 21: unlimited
  | Current stacksize for task 22: unlimited
  | Current stacksize for task 23: unlimited
  | Current stacksize for task 24: unlimited
  | Current stacksize for task 25: unlimited
  | Current stacksize for task 26: unlimited
  | Current stacksize for task 27: unlimited
  | Current stacksize for task 28: unlimited
  | Current stacksize for task 29: unlimited
  | Current stacksize for task 30: unlimited
  | Current stacksize for task 31: unlimited
  | Current stacksize for task 32: unlimited
  | Current stacksize for task 33: unlimited
  | Current stacksize for task 34: unlimited
  | Current stacksize for task 35: unlimited
  | Current stacksize for task 36: unlimited
  | Current stacksize for task 37: unlimited
  | Current stacksize for task 38: unlimited
  | Current stacksize for task 39: unlimited
  | Current stacksize for task 40: unlimited
  | Current stacksize for task 41: unlimited
  | Current stacksize for task 42: unlimited
  | Current stacksize for task 43: unlimited
  | Current stacksize for task 44: unlimited
  | Current stacksize for task 45: unlimited
  | Current stacksize for task 46: unlimited
  | Current stacksize for task 47: unlimited
  | Current stacksize for task 48: unlimited
  | Current stacksize for task 49: unlimited
  | Current stacksize for task 50: unlimited
  | Current stacksize for task 51: unlimited
  | Current stacksize for task 52: unlimited
  | Current stacksize for task 53: unlimited
  | Current stacksize for task 54: unlimited
  | Current stacksize for task 55: unlimited
  | Current stacksize for task 56: unlimited
  | Current stacksize for task 57: unlimited
  | Current stacksize for task 58: unlimited
  | Current stacksize for task 59: unlimited
  | Current stacksize for task 60: unlimited
  | Current stacksize for task 61: unlimited
  | Current stacksize for task 62: unlimited
  | Current stacksize for task 63: unlimited

  Consistency checks for the contents of control.in are next.

  Coulomb operator: Defaulting to logarithmic spherical Bessel transform integrals (use_logsbt .true.).
  LC-wPBEh screening parameters: omega  =      0.30000000 bohr^-1, and
                                 alpha =      0.15000000.
  MPI_IN_PLACE appears to work with this MPI implementation.
  | Keeping use_mpi_in_place .true. (see manual).
  Explicit treatment of the Coulomb operator is needed, but the RI method is not specified.
  Coulomb operator: Defaulting to 'LVL fast' resolution of identity - RI_type = LVL_fast
  Species O: Using default value for prodbas_acc =   1.000000E-04.
  Species O: Using default value max_l_prodbas =    20.
  Species Mg: Using default value for prodbas_acc =   1.000000E-04.
  Species Mg: Using default value max_l_prodbas =    20.
  Target number of points in a grid batch is not set. Defaulting to  100
  Method for grid partitioning is not set. Defaulting to parallel hash+maxmin partitioning.
  Batch size limit is not set. Defaulting to    200
  By default, will store active basis functions for each batch.
  If in need of memory, prune_basis_once .false. can be used to disable this option.
  communication_type for Hartree potential was not specified.
  Defaulting to calc_hartree .
  Defaulting to Pulay charge density mixer.
  Pulay mixer: Number of initial linear mixing iterations not set.
  Defaulting to    0 iterations.
  Work space size for distributed Hartree potential not set.
  Defaulting to   0.200000E+03 MB.
  Algorithm-dependent basis array size parameters:
  | n_max_pulay                         :        8
  Maximum number of self-consistency iterations not provided.
  Presetting  1000 iterations.
  Presetting      1001 iterations before the initial mixing cycle
  is restarted anyway using the sc_init_iter criterion / keyword.
  Presetting a factor      1.000 between actual scf density residual
  and density convergence criterion sc_accuracy_rho below which sc_init_iter
  takes no effect.
  Calculation of forces was not defined in control.in. No forces will be calculated.
  Geometry relaxation not requested: no relaxation will be performed.
  No accuracy limit for integral partition fn. given. Defaulting to  0.1000E-14.
  No threshold value for u(r) in integrations given. Defaulting to  0.1000E-05.
  No threshold value for occupation numbers given. Defaulting to  0.0000E+00.
  No accuracy for fermi level given. Defaulting to  0.1000E-19.
  Preferred method for the eigenvalue solver ('KS_method') not specified in 'control.in'.
  Calling BLACS routine to test compilation state
  Since ScaLAPACK support is enabled, defaulting to ELPA (via ELSI).
  Threshold for basis singularities not set.
  Default threshold for basis singularities:  0.1000E-04
  partition_type (choice of integration weights) for integrals was not specified.
  | Using a version of the partition function of Stratmann and coworkers ('stratmann_sparse').
  | At each grid point, the set of atoms used to build the partition table is smoothly restricted to
  | only those atoms whose free-atom density would be non-zero at that grid point.
  Partitioning for Hartree potential was not defined. Using partition_type for integrals.
  | Adjusted default value of keyword multip_moments_threshold to:       0.10000000E-11
  | This value may affect high angular momentum components of the Hartree potential in periodic systems.
  Threshold for auxiliary basis singularities not set.
  Default threshold for auxiliary basis singularities:  0.1000E-04
  Use default threshold for vanishing multipole moments of auxiliary basis:  0.1000E-07
  No q(lm)/r^(l+1) cutoff set for long-range Hartree potential.
  | Using default value of  0.100000E-09 .
  | Verify using the multipole_threshold keyword.
  Defaulting to new monopole extrapolation.
  Density update method: automatic selection selected.
  Coulomb operator: Defaulting to screening threshold for four-center integrals:   0.100000E-06
  Coulomb operator: Defaulting to screening threshold for Coulomb matrix:   0.100000E-09
  Fock matrix calculation: Setting the screening threshold for overlap matrix to coul_mat_threshold:   0.100000E-09
  Coulomb operator: Defaulting to 'LVL_fast' resolution of identity - RI_type = LVL_fast 
  No other resolution of identity version is supported for periodic boundary conditions at present.
  Coulomb operator: Defaulting to logarithmic spherical Bessel transform integrals (use_logsbt .true.).
  Charge integration errors on the 3D integration grid will be compensated
  by explicit normalization and distribution of residual charges.
  Use the "compensate_multipole_errors" flag to change this behaviour.
  LVL not implemented with density matrix yet
  -> switching to transformed overlap
  LVL probably works better with logsbt
  Default to 1D ("use_logsbt") integrations for auxiliary 2-center integrals.
  Default onset of logarithmic r-grid for SBT is -38.000000000000
  Default onset of logarithmic k-grid for SBT is -25.000000000000
  Default range of logarithmic r- and k-grid for SBT is  45.000000000000
  Default number of logarithmic r- and k-grid for SBT is   4096
  Default of use_2d_corr is to use the efficient 2D distribution where possible
  Set 'collect_eigenvectors' to be '.true.' for use_density_matrix .false.
  Found potential conflicts with setting 'use_local_index' for this calculation. Will not set it.
** WARNING:

  You have specified the use of LibXC.

  ** PLEASE ** be careful using LibXC. Whilst most of the LDA, GGA and MGGA
  functionals, and hybrid variations therein, should be stable (though we
  always recommend testing!), there are several fancy functionals with e.g.
  range-separation, like HSE03/HSE06/LC-PBEh, and also MGGA functionals
  that depend on the laplacian of the density, like BR89, that are not
  fully implemented due to the infrastructure for these functionals being
  incomplete or non-generic.
  If you want to use these functionals please contact the development team
  and we will work on them with you!

** END OF WARNING

  Consistency checks for the contents of geometry.in are next.

  Number of empty states per atom not set in control.in - providing a guess from actual geometry.
  | Total number of empty states used during s.c.f. cycle:        6
  If you use a very high smearing, use empty_states (per atom!) in control.in to increase this value.

  Structure-dependent array size parameters: 
  | Maximum number of distinct radial functions  :       16
  | Maximum number of basis functions            :       52
  | Number of Kohn-Sham states (occupied + empty):       16
------------------------------------------------------------
  After read_input_data [GB]:   1030.96

  Performing system and environment tests:
  | Environment variable OMP_NUM_THREADS correctly set to 1.
  | Checking for ScaLAPACK...
  | Testing pdtran()...
  *** WARNING: CPU mismatch detected for Node worker6141 : Intel(R) Xeon(R) Platinum 8362 CPU @ 2.80GHz                                                 
  | All pdtran() tests passed.
  | Testing CPU compatibility for run-time vs. build-time.
  | Reading /proc/cpuinfo for CPU information ...
  | Built for  : Intel(R) Xeon(R) w5-3435X
  *** WARNING: CPU mismatch detected for Node worker6116 : Intel(R) Xeon(R) Platinum 8362 CPU @ 2.80GHz                                                 
** WARNING:
  | WARNING: This FHI-aims executable was built on a different
  CPU type than the CPUs used in this run.

  | Running on different hardware than that on which a code was compiled
  | can produce incorrect results (wrong numbers) due to architecture-specific
  | optimizations made by the compiler. Those wrong numbers may occur only spuriously.
  | They are therefore very difficult to rule out even by tests ahead of time.

** END OF WARNING
  | Running on : Intel(R) Xeon(R) Platinum 8362 CPU @ 2.80GHz
  | Runtime CPU compatibility verified.
  
  After prepare_system [GB]:   1030.93

------------------------------------------------------------
          Preparing all fixed parts of the calculation.
------------------------------------------------------------
  Determining machine precision:
     2.2250738585072014E-308
  Setting up grids for atomic and cluster calculations.

  Creating wave function, potential, and density for free atoms.
  Runtime choices for atomic solver:
  | atomic solver xc        : PBE
  | compute density gradient: 1
  | compute kinetic density : T

  Species: O

  List of occupied orbitals and eigenvalues:
    n    l              occ      energy [Ha]    energy [eV]
    1    0           2.0000       -18.927378      -515.0401
    2    0           2.0000        -0.880539       -23.9607
    2    1           4.0000        -0.331811        -9.0290


  Species: Mg

  List of occupied orbitals and eigenvalues:
    n    l              occ      energy [Ha]    energy [eV]
    1    0           2.0000       -46.365569     -1261.6713
    2    0           2.0000        -2.933660       -79.8290
    3    0           2.0000        -0.172310        -4.6888
    2    1           6.0000        -1.712180       -46.5908


  Adding cutoff potential to free-atom effective potential.
  Creating fixed part of basis set: Ionic, confined, hydrogenic.

  O                    hydrogenic:

  List of hydrogenic basis orbitals: 
    n    l      effective z      eigenvalue [eV]  inner max. [A]     outer max. [A]     outer radius [A]   
    2    1         1.800000       -11.0118           1.178562           1.178562           5.432602
    3    2         7.600000       -87.3182           0.624125           0.624125           3.541477
    3    0         6.400000       -61.9209           0.061167           1.081902           4.306578
    4    3        11.600000      -114.4238           0.731631           0.731631           3.585037

  List of extra hydrogenic orbitals for auxiliary basis: 
    n    l      effective z      eigenvalue [eV]  inner max. [A]     outer max. [A]     outer radius [A]   
    5    4        17.600000      -168.5799           0.749740           0.749740           3.372465


  Mg                   ion:
  Runtime choices for ionic solver:
  | ionic solver xc        : PBE

  List of free ionic orbitals and eigenvalues:
    n    l      energy [Ha]    energy [eV]
    1    0       -47.122987     -1282.2817
    2    0        -3.674099       -99.9773
    2    1        -2.451441       -66.7071


  List of ionic basis orbitals and eigenvalues:
    n    l      energy [Ha]    energy [eV]    outer radius [A]
    3    2        -0.259283        -7.0555       6.433556


  Mg                   hydrogenic:

  List of hydrogenic basis orbitals: 
    n    l      effective z      eigenvalue [eV]  inner max. [A]     outer max. [A]     outer radius [A]   
    2    1         1.500000        -7.6477           1.412879           1.412879           6.433556
    3    0         2.400000        -8.6076           0.162319           2.871052           6.433556
    4    3         4.300000       -15.7168           1.965416           1.965416           6.433556

  Creating atomic-like basis functions for current effective potential.

  Species O                   :

  List of atomic basis orbitals and eigenvalues:
    n    l      energy [Ha]    energy [eV]    outer radius [A]
    1    0       -18.927378      -515.0401       1.415765
    2    0        -0.880539       -23.9607       5.048385
    2    1        -0.331811        -9.0290       5.301386


  Species Mg                  :

  List of atomic basis orbitals and eigenvalues:
    n    l      energy [Ha]    energy [eV]    outer radius [A]
    1    0       -46.365569     -1261.6713       0.921046
    2    0        -2.933660       -79.8290       3.621735
    3    0        -0.172310        -4.6888       6.355385
    2    1        -1.712180       -46.5908       4.513184

  Assembling full basis from fixed parts.
  | Species O :   atomic orbital   1 s accepted.
  | Species O :    hydro orbital   3 s accepted.
  | Species O :   atomic orbital   2 s accepted.
  | Species O :   atomic orbital   2 p accepted.
  | Species O :    hydro orbital   2 p accepted.
  | Species O :    hydro orbital   3 d accepted.
  | Species O :    hydro orbital   4 f accepted.
  | Species Mg :   atomic orbital   1 s accepted.
  | Species Mg :   atomic orbital   2 s accepted.
  | Species Mg :   atomic orbital   3 s accepted.
  | Species Mg :    hydro orbital   3 s accepted.
  | Species Mg :   atomic orbital   2 p accepted.
  | Species Mg :    hydro orbital   2 p accepted.
  | Species Mg :    ionic orbital   3 d accepted.
  | Species Mg :    hydro orbital   4 f accepted.

  Basis size parameters after reduction:
  | Total number of radial functions:       15
  | Total number of basis functions :       43

  Assembling extended basis for auxiliary basis.
  | Species O :   atomic orbital   1 s accepted.
  | Species O :    hydro orbital   3 s accepted.
  | Species O :   atomic orbital   2 s accepted.
  | Species O :   atomic orbital   2 p accepted.
  | Species O :    hydro orbital   2 p accepted.
  | Species O :    hydro orbital   3 d accepted.
  | Species O :    hydro orbital   4 f accepted.
  | Species O :    hydro orbital   5 g accepted.
  | Species Mg :   atomic orbital   1 s accepted.
  | Species Mg :   atomic orbital   2 s accepted.
  | Species Mg :   atomic orbital   3 s accepted.
  | Species Mg :    hydro orbital   3 s accepted.
  | Species Mg :   atomic orbital   2 p accepted.
  | Species Mg :    hydro orbital   2 p accepted.
  | Species Mg :    ionic orbital   3 d accepted.
  | Species Mg :    hydro orbital   4 f accepted.
  Per-task memory consumption for arrays in subroutine allocate_ext:
  |           5.466312MB.

  Extended basis size parameters after reduction:
  | Total number of radial functions:       16
  | Total number of basis functions :       52

  Testing on-site integration grid accuracy.
  |  Species  Function  <phi|h_atom|phi> (log., in eV)  <phi|h_atom|phi> (rad., in eV)
           1        1               -515.0401491148               -515.0401445497
           1        2                 15.1629302771                 15.1629233102
           1        3                -21.6127103295                -21.6127145449
           1        4                 -9.0290718243                 -9.0290720379
           1        5                  7.9075681532                  7.9075643182
           1        6                 45.8331828879                 45.8331828941
           1        7                 85.4133898762                 85.4133899074
           2        8              -1261.6713144217              -1261.6712951503
           2        9                -79.8289566456                -79.8289563655
           2       10                 -4.6894386927                 -4.6894729286
           2       11                  2.7139619174                  2.7132242579
           2       12                -46.5907827003                -46.5907826271
           2       13                 -0.7507207593                 -0.7507919905
           2       14                  3.3999512831                  3.3997485406
           2       15                  9.9571857057                  9.9570610405

  Preparing densities etc. for the partition functions (integrals / Hartree potential).

  Preparations completed.
  max(cpu_time)          :      0.144 s.
  Wall clock time (cpu1) :      0.562 s.
------------------------------------------------------------
  After prepare_scf [GB]:   1030.21

  Initializing index lists of integration centers etc. from given atomic structure:
  | Consuming          0 KiB for k_phase_exx.
  | Number of centers in hartree potential                       :         2
  | Number of centers in hartree multipole                       :         2
  | Number of centers in electron density summation              :         2
  | Number of centers in basis integrals                         :         2
  | Number of centers in integrals                               :         2
  | Number of centers in hamiltonian                             :         2
  | Number of centers in partition table from touching 0-cell    :         2
  | Number of centers in partition table total                   :         2
  After initialize_bc_dependent_lists [GB]:   1030.21

------------------------------------------------------------
          Begin self-consistency loop: Initialization.

          Date     :  20260724, Time     :  093436.518
------------------------------------------------------------
  Available memory per node after initialize_hartree_non_periodic_ewald [GB]:   1030.21
  Available memory per node after initialize_recip_hartree_potential [GB]:   1030.21
  * Using 64 tasks for Scalapack Eigenvalue solver.
  Detailed listing of tasks and assigned k-points:
  (for non-periodic systems, the "k-point" denotes an internal label only)
   Task     0 k-point     1 on worker6116
   Task     1 k-point     1 on worker6116
   Task     2 k-point     1 on worker6116
   Task     3 k-point     1 on worker6116
   Task     4 k-point     1 on worker6116
   Task     5 k-point     1 on worker6116
   Task     6 k-point     1 on worker6116
   Task     7 k-point     1 on worker6116
   Task     8 k-point     1 on worker6116
   Task     9 k-point     1 on worker6116
   Task    10 k-point     1 on worker6116
   Task    11 k-point     1 on worker6116
   Task    12 k-point     1 on worker6116
   Task    13 k-point     1 on worker6116
   Task    14 k-point     1 on worker6116
   Task    15 k-point     1 on worker6116
   Task    16 k-point     1 on worker6116
   Task    17 k-point     1 on worker6116
   Task    18 k-point     1 on worker6116
   Task    19 k-point     1 on worker6116
   Task    20 k-point     1 on worker6116
   Task    21 k-point     1 on worker6116
   Task    22 k-point     1 on worker6116
   Task    23 k-point     1 on worker6116
   Task    24 k-point     1 on worker6116
   Task    25 k-point     1 on worker6116
   Task    26 k-point     1 on worker6116
   Task    27 k-point     1 on worker6116
   Task    28 k-point     1 on worker6116
   Task    29 k-point     1 on worker6116
   Task    30 k-point     1 on worker6116
   Task    31 k-point     1 on worker6116
   Task    32 k-point     1 on worker6141
   Task    33 k-point     1 on worker6141
   Task    34 k-point     1 on worker6141
   Task    35 k-point     1 on worker6141
   Task    36 k-point     1 on worker6141
   Task    37 k-point     1 on worker6141
   Task    38 k-point     1 on worker6141
   Task    39 k-point     1 on worker6141
   Task    40 k-point     1 on worker6141
   Task    41 k-point     1 on worker6141
   Task    42 k-point     1 on worker6141
   Task    43 k-point     1 on worker6141
   Task    44 k-point     1 on worker6141
   Task    45 k-point     1 on worker6141
   Task    46 k-point     1 on worker6141
   Task    47 k-point     1 on worker6141
   Task    48 k-point     1 on worker6141
   Task    49 k-point     1 on worker6141
   Task    50 k-point     1 on worker6141
   Task    51 k-point     1 on worker6141
   Task    52 k-point     1 on worker6141
   Task    53 k-point     1 on worker6141
   Task    54 k-point     1 on worker6141
   Task    55 k-point     1 on worker6141
   Task    56 k-point     1 on worker6141
   Task    57 k-point     1 on worker6141
   Task    58 k-point     1 on worker6141
   Task    59 k-point     1 on worker6141
   Task    60 k-point     1 on worker6141
   Task    61 k-point     1 on worker6141
   Task    62 k-point     1 on worker6141
   Task    63 k-point     1 on worker6141
  Tasks:    64 split into      8 X      8 BLACS grid
  Calculating block size based on n_basis =           43  max_nprow =            8  max_npcol =            8
  ScaLAPACK block size set to:            4
  Allocating        0.000 MB for ovlp
  Allocating        0.000 MB for ham
  Allocating        0.000 MB for eigenvec
  Required Scalapack workspace - INTEGER:            1  REAL:             1
  Available memory per node after initialize_scalapack [GB]:   1030.21
  Available memory per node after aims_elsi_init_scf [GB]:   1030.21
  Available memory per node after initialize_fixed_grids [GB]:   1030.21
  Partitioning the integration grid into batches with parallel hashing+maxmin method.
  | Number of batches:      554
  | Maximal batch size:     147
  | Minimal batch size:       1
  | Average batch size:      66.838
  | Standard deviation of batch sizes:      20.390

  Integration load balanced across    64 MPI tasks.
  Work distribution over tasks is as follows:
  Task     0 has        558 integration points.
  Task     1 has        545 integration points.
  Task     2 has        680 integration points.
  Task     3 has        573 integration points.
  Task     4 has        545 integration points.
  Task     5 has        544 integration points.
  Task     6 has        567 integration points.
  Task     7 has        548 integration points.
  Task     8 has        557 integration points.
  Task     9 has        578 integration points.
  Task    10 has        556 integration points.
  Task    11 has        597 integration points.
  Task    12 has        550 integration points.
  Task    13 has        548 integration points.
  Task    14 has        555 integration points.
  Task    15 has        577 integration points.
  Task    16 has        543 integration points.
  Task    17 has        599 integration points.
  Task    18 has        571 integration points.
  Task    19 has        560 integration points.
  Task    20 has        597 integration points.
  Task    21 has        556 integration points.
  Task    22 has        553 integration points.
  Task    23 has        648 integration points.
  Task    24 has        581 integration points.
  Task    25 has        596 integration points.
  Task    26 has        577 integration points.
  Task    27 has        599 integration points.
  Task    28 has        553 integration points.
  Task    29 has        557 integration points.
  Task    30 has        579 integration points.
  Task    31 has        543 integration points.
  Task    32 has        651 integration points.
  Task    33 has        590 integration points.
  Task    34 has        545 integration points.
  Task    35 has        581 integration points.
  Task    36 has        557 integration points.
  Task    37 has        546 integration points.
  Task    38 has        594 integration points.
  Task    39 has        601 integration points.
  Task    40 has        582 integration points.
  Task    41 has        574 integration points.
  Task    42 has        561 integration points.
  Task    43 has        632 integration points.
  Task    44 has        576 integration points.
  Task    45 has        592 integration points.
  Task    46 has        650 integration points.
  Task    47 has        549 integration points.
  Task    48 has        566 integration points.
  Task    49 has        578 integration points.
  Task    50 has        582 integration points.
  Task    51 has        674 integration points.
  Task    52 has        573 integration points.
  Task    53 has        646 integration points.
  Task    54 has        555 integration points.
  Task    55 has        572 integration points.
  Task    56 has        552 integration points.
  Task    57 has        597 integration points.
  Task    58 has        599 integration points.
  Task    59 has        585 integration points.
  Task    60 has        558 integration points.
  Task    61 has        556 integration points.
  Task    62 has        578 integration points.
  Task    63 has        586 integration points.
  Available memory per node after partition_grid [GB]:   1029.85
  Initializing partition tables, free-atom densities, potentials, etc. across the integration grid (initialize_grid_storage).
  | initialize_grid_storage: Actual outermost partition radius vs. multipole_radius_free
  | (-- VB: in principle, multipole_radius_free should be larger, hence this output)
  | Species        1: Confinement radius =              6.000000000000000 AA, multipole_radius_free =              6.064445521808699 AA.
  | Species        1: outer_partition_radius set to              6.064445521808699 AA .
  | Species        2: Confinement radius =              7.000000000000000 AA, multipole_radius_free =              7.008349926986249 AA.
  | Species        2: outer_partition_radius set to              7.008349926986249 AA .
  | The sparse table of interatomic distances needs          0.04 kbyte instead of         0.03 kbyte of memory.
  | Using the partition_type stratmann_smoother will reduce your memory usage.
  | Net number of integration points:    37028
  | of which are non-zero points    :    34751
  Available memory per node after initialize_grid_storage_p1 [GB]:   1029.85
  Renormalizing the initial density to the exact electron count on the 3D integration grid.
  | Initial density: Formal number of electrons (from input files) :      20.0000000000
  | Integrated number of electrons on 3D grid     :      20.0000062121
  | Charge integration error                      :       0.0000062121
  | Normalization factor for density and gradient :       0.9999996894
  Renormalizing the free-atom superposition density to the exact electron count on the 3D integration grid.
  | Formal number of electrons (from input files) :      20.0000000000
  | Integrated number of electrons on 3D grid     :      20.0000062121
  | Charge integration error                      :       0.0000062121
  | Normalization factor for density and gradient :       0.9999996894
  Obtaining max. number of non-zero basis functions in each batch (get_n_compute_maxes).
  | Maximal number of non-zero basis functions:       43 in task     0
  | Maximal number of non-zero basis functions:       43 in task     1
  | Maximal number of non-zero basis functions:       43 in task     2
  | Maximal number of non-zero basis functions:       43 in task     3
  | Maximal number of non-zero basis functions:       43 in task     4
  | Maximal number of non-zero basis functions:       43 in task     5
  | Maximal number of non-zero basis functions:       43 in task     6
  | Maximal number of non-zero basis functions:       43 in task     7
  | Maximal number of non-zero basis functions:       43 in task     8
  | Maximal number of non-zero basis functions:       43 in task     9
  | Maximal number of non-zero basis functions:       43 in task    10
  | Maximal number of non-zero basis functions:       43 in task    11
  | Maximal number of non-zero basis functions:       43 in task    12
  | Maximal number of non-zero basis functions:       43 in task    13
  | Maximal number of non-zero basis functions:       43 in task    14
  | Maximal number of non-zero basis functions:       43 in task    15
  | Maximal number of non-zero basis functions:       43 in task    16
  | Maximal number of non-zero basis functions:       43 in task    17
  | Maximal number of non-zero basis functions:       43 in task    18
  | Maximal number of non-zero basis functions:       43 in task    19
  | Maximal number of non-zero basis functions:       43 in task    20
  | Maximal number of non-zero basis functions:       43 in task    21
  | Maximal number of non-zero basis functions:       43 in task    22
  | Maximal number of non-zero basis functions:       43 in task    23
  | Maximal number of non-zero basis functions:       42 in task    24
  | Maximal number of non-zero basis functions:       43 in task    25
  | Maximal number of non-zero basis functions:       42 in task    26
  | Maximal number of non-zero basis functions:       43 in task    27
  | Maximal number of non-zero basis functions:       42 in task    28
  | Maximal number of non-zero basis functions:       43 in task    29
  | Maximal number of non-zero basis functions:       42 in task    30
  | Maximal number of non-zero basis functions:       43 in task    31
  | Maximal number of non-zero basis functions:       43 in task    32
  | Maximal number of non-zero basis functions:       42 in task    33
  | Maximal number of non-zero basis functions:       43 in task    34
  | Maximal number of non-zero basis functions:       43 in task    35
  | Maximal number of non-zero basis functions:       42 in task    36
  | Maximal number of non-zero basis functions:       43 in task    37
  | Maximal number of non-zero basis functions:       43 in task    38
  | Maximal number of non-zero basis functions:       43 in task    39
  | Maximal number of non-zero basis functions:       42 in task    40
  | Maximal number of non-zero basis functions:       43 in task    41
  | Maximal number of non-zero basis functions:       43 in task    42
  | Maximal number of non-zero basis functions:       43 in task    43
  | Maximal number of non-zero basis functions:       42 in task    44
  | Maximal number of non-zero basis functions:       43 in task    45
  | Maximal number of non-zero basis functions:       43 in task    46
  | Maximal number of non-zero basis functions:       42 in task    47
  | Maximal number of non-zero basis functions:       43 in task    48
  | Maximal number of non-zero basis functions:       43 in task    49
  | Maximal number of non-zero basis functions:       43 in task    50
  | Maximal number of non-zero basis functions:       43 in task    51
  | Maximal number of non-zero basis functions:       43 in task    52
  | Maximal number of non-zero basis functions:       43 in task    53
  | Maximal number of non-zero basis functions:       43 in task    54
  | Maximal number of non-zero basis functions:       43 in task    55
  | Maximal number of non-zero basis functions:       43 in task    56
  | Maximal number of non-zero basis functions:       43 in task    57
  | Maximal number of non-zero basis functions:       43 in task    58
  | Maximal number of non-zero basis functions:       43 in task    59
  | Maximal number of non-zero basis functions:       43 in task    60
  | Maximal number of non-zero basis functions:       43 in task    61
  | Maximal number of non-zero basis functions:       43 in task    62
  | Maximal number of non-zero basis functions:       43 in task    63
  Selecting the method for density update.
  Loop over occupied states selected for charge density update.
  Available memory per node after get_n_compute_maxes_p1 [GB]:   1029.85
  Allocating        0.005 MB for KS_eigenvector
  Available memory per node after allocate_matrices [GB]:   1029.85
  Available memory per node after init_comm_sparse_local_matrix_scalapack [GB]:   1029.85
  Integrating Hamiltonian matrix: batch-based integration.
  Time summed over all CPUs for integration: real work        0.116 s, elapsed        0.215 s => Consider using load balancing!
  Available memory per node after integrate hamiltonian matrix [GB]:   1029.85
  Integrating overlap matrix.
  Time summed over all CPUs for integration: real work        0.031 s, elapsed        0.157 s
  Available memory per node after integrate ovlp matrix [GB]:   1029.85
  Deallocating overlap matrix.
  Available memory per node after save_overlap_scalapack [GB]:   1029.85

  Updating Kohn-Sham eigenvalues and eigenvectors using ELSI and the ELPA eigensolver.
  Overlap matrix is not singular
  | Lowest and highest eigenvalues :  0.1910E-01,  0.1981E+01
  Finished singularity check of overlap matrix
  | Time :     0.147 s
  Starting ELPA eigensolver
  Finished Cholesky decomposition
  | Time :     0.003 s
  Finished transformation to standard eigenproblem
  | Time :     0.000 s
  Finished solving standard eigenproblem
  | Time :     0.015 s
  Finished back-transformation of eigenvectors
  | Time :     0.000 s

  Obtaining occupation numbers and electronic chemical potential using ELSI.
  | Note that, for insulating systems, the printed 'chemical potential' value is not uniquely defined.
  | It can be anywhere in the energy gap, as long as it correctly separates occupied and unoccupied states.
  | In systems with a gap, the physically relevant chemical potential is the VBM or HOMO.

  | Chemical potential (Fermi level):    -2.84121299 eV
  Available memory per node after advance_KS_solution [GB]:   1029.85
  Writing Kohn-Sham eigenvalues.

  State    Occupation    Eigenvalue [Ha]    Eigenvalue [eV]
      1       2.00000         -46.131832        -1255.31103
      2       2.00000         -18.834399         -512.51007
      3       2.00000          -2.724448          -74.13600
      4       2.00000          -1.533054          -41.71652
      5       2.00000          -1.468208          -39.95198
      6       2.00000          -1.468208          -39.95198
      7       2.00000          -0.771866          -21.00354
      8       2.00000          -0.255071           -6.94085
      9       2.00000          -0.255071           -6.94085
     10       2.00000          -0.203116           -5.52708
     11       0.00000          -0.005709           -0.15535
     12       0.00000           0.128666            3.50118
     13       0.00000           0.128666            3.50118
     14       0.00000           0.147065            4.00185
     15       0.00000           0.217695            5.92378
     16       0.00000           0.228636            6.22151

  Highest occupied state (VBM) at     -5.52707672 eV
  | Occupation number:      2.00000000

  Lowest unoccupied state (CBM) at    -0.15534926 eV
  | Occupation number:      0.00000000

  Overall HOMO-LUMO gap:      5.37172747 eV.
  Calculating total energy contributions from superposition of free atom densities.

  Total energy components:
  | Sum of eigenvalues            :        -147.29055001 Ha       -4007.97978965 eV
  | XC energy correction          :         -18.74171485 Ha        -509.98800894 eV
  | XC potential correction       :          26.99326049 Ha         734.52399001 eV
  | Free-atom electrostatic energy:        -130.45110463 Ha       -3549.75516663 eV
  | Hartree energy correction     :          -0.00000000 Ha          -0.00000000 eV
  | Entropy correction            :          -0.00000000 Ha          -0.00000000 eV
  | ---------------------------
  | Total energy                  :        -269.49010901 Ha       -7333.19897521 eV
  | Total energy, T -> 0          :        -269.49010901 Ha       -7333.19897521 eV  <-- do not rely on this value for anything but (periodic) metals
  | Electronic free energy        :        -269.49010901 Ha       -7333.19897521 eV

  Derived energy quantities:
  | Kinetic energy                :         275.97927320 Ha        7509.77811697 eV
  | Electrostatic energy          :        -526.72766736 Ha      -14332.98908325 eV
  | Energy correction for multipole
  | error in Hartree potential    :           0.00000000 Ha           0.00000000 eV
  | Sum of eigenvalues per atom                           :       -2003.98989482 eV
  | Total energy (T->0) per atom                          :       -3666.59948761 eV  <-- do not rely on this value for anything but (periodic) metals
  | Electronic free energy per atom                       :       -3666.59948761 eV
  
  --------------------------------------------
  Constructing auxiliary basis (full product) ...
  
  Product basis:
  | charge radius: extent of product basis function
  | field radius: extent of its Coulomb potential
  | Species   l  charge radius    field radius  multipol momen
  |    O      0     2.043000 A      2.043000 A        9.881478E-17 a.u.
  |    O      0     4.202559 A      4.202559 A        1.156529E-16 a.u.
  |    O      0     4.202559 A      4.202559 A        5.111768E-17 a.u.
  |    O      0     4.467453 A      4.467453 A       -1.013496E-16 a.u.
  |    O      0     4.987044 A      4.987044 A        1.642286E-16 a.u.
  |    O      0     5.366593 A      5.432602 A       -5.564069E-17 a.u.
  |    O      0     5.432602 A      5.499423 A        1.316949E-16 a.u.
  |    O      0     5.432602 A  4.235976E+12 A            0.637004 a.u.
  |    O      1     4.467453 A      4.467453 A        1.218795E-17 a.u.
  |    O      1     5.110480 A      5.110480 A        6.181325E-17 a.u.
  |    O      1     5.301386 A      5.301386 A       -2.490576E-16 a.u.
  |    O      1     5.301386 A      5.301386 A        1.141876E-16 a.u.
  |    O      1     5.366593 A      5.366593 A       -7.188412E-16 a.u.
  |    O      1     5.432602 A      5.499423 A       -3.742840E-16 a.u.
  |    O      1     5.432602 A      5.432602 A        1.924223E-16 a.u.
  |    O      1     5.432602 A  2.799797E+06 A            2.227619 a.u.
  |    O      2     5.301386 A      5.301386 A       -2.111528E-17 a.u.
  |    O      2     5.366593 A      5.366593 A        1.294003E-15 a.u.
  |    O      2     5.366593 A      5.366593 A        3.280265E-16 a.u.
  |    O      2     5.432602 A      5.432602 A        2.024326E-15 a.u.
  |    O      2     5.366593 A      5.366593 A       -3.583494E-15 a.u.
  |    O      2     5.432602 A      5.432602 A        4.475585E-15 a.u.
  |    O      2     5.432602 A  2.610256E+04 A            9.550720 a.u.
  |    O      3     3.905335 A      3.905335 A       -1.158186E-16 a.u.
  |    O      3     3.905335 A      3.905335 A       -7.364936E-16 a.u.
  |    O      3     3.905335 A      3.905335 A       -1.488368E-16 a.u.
  |    O      3     3.953371 A      3.953371 A       -4.614088E-15 a.u.
  |    O      3     4.001998 A      4.001998 A        5.283098E-16 a.u.
  |    O      3     4.001998 A  1.922785E+03 A           13.871029 a.u.
  |    O      4     3.905335 A      3.905335 A       -1.709964E-16 a.u.
  |    O      4     3.953371 A      3.953371 A        4.144518E-16 a.u.
  |    O      4     4.001998 A      4.001998 A        4.922304E-15 a.u.
  |    O      4     4.001998 A      4.001998 A        5.687264E-15 a.u.
  |    O      4     4.001998 A  4.304183E+02 A           28.329458 a.u.
  |    O      5     3.455938 A      3.455938 A       -2.860992E-16 a.u.
  |    O      5     3.764702 A      3.764702 A        4.292239E-15 a.u.
  |    O      5     3.811008 A      3.811008 A       -1.966097E-14 a.u.
  |    O      5     3.857883 A  1.580439E+02 A           56.474127 a.u.
  |    O      6     3.585037 A      3.585037 A        6.390724E-15 a.u.
  |    O      6     3.585037 A      3.585037 A       -3.321967E-15 a.u.
  |    O      6     3.629133 A  7.195885E+01 A           68.418201 a.u.
  |    O      7     3.498446 A      3.498446 A        1.314969E-14 a.u.
  |    O      7     3.541477 A  4.005749E+01 A           85.792738 a.u.
  |    O      8     3.372465 A  2.352329E+01 A           53.933996 a.u.
  |    Mg     0     1.329103 A      1.329103 A        1.183275E-16 a.u.
  |    Mg     0     3.284299 A      3.284299 A       -2.555835E-16 a.u.
  |    Mg     0     5.355653 A      5.355653 A        3.636236E-16 a.u.
  |    Mg     0     6.278163 A      6.355385 A       -8.962967E-17 a.u.
  |    Mg     0     6.278163 A      6.355385 A       -1.027567E-17 a.u.
  |    Mg     0     6.355385 A      6.433556 A        5.095512E-16 a.u.
  |    Mg     0     6.433556 A      6.512689 A        3.904157E-16 a.u.
  |    Mg     0     6.433556 A      6.512689 A        9.179582E-17 a.u.
  |    Mg     0     6.433556 A  5.004922E+12 A            0.752638 a.u.
  |    Mg     1     3.534257 A      3.534257 A       -2.973956E-18 a.u.
  |    Mg     1     5.763256 A      5.763256 A       -6.375524E-17 a.u.
  |    Mg     1     6.052083 A      6.052083 A       -2.321758E-16 a.u.
  |    Mg     1     5.978547 A      5.978547 A        1.758717E-17 a.u.
  |    Mg     1     6.052083 A      6.052083 A        5.030792E-16 a.u.
  |    Mg     1     6.355385 A      6.355385 A        4.662668E-16 a.u.
  |    Mg     1     6.433556 A      6.433556 A        3.624417E-16 a.u.
  |    Mg     1     6.433556 A      6.512689 A        9.091495E-16 a.u.
  |    Mg     1     6.433556 A  3.481747E+06 A            3.444945 a.u.
  |    Mg     2     5.763256 A      5.763256 A        6.143541E-17 a.u.
  |    Mg     2     6.278163 A      6.278163 A       -5.567311E-16 a.u.
  |    Mg     2     6.278163 A      6.278163 A       -1.395360E-16 a.u.
  |    Mg     2     6.355385 A      6.355385 A        3.384404E-15 a.u.
  |    Mg     2     6.433556 A      6.433556 A       -2.363821E-15 a.u.
  |    Mg     2     6.433556 A      6.433556 A       -3.931329E-15 a.u.
  |    Mg     2     6.433556 A      6.512689 A        3.326099E-15 a.u.
  |    Mg     2     6.433556 A  3.453284E+04 A           22.114828 a.u.
  |    Mg     3     6.278163 A      6.278163 A       -6.794584E-16 a.u.
  |    Mg     3     6.433556 A      6.433556 A       -3.507709E-15 a.u.
  |    Mg     3     6.355385 A      6.355385 A        3.514315E-15 a.u.
  |    Mg     3     6.355385 A      6.433556 A       -1.304573E-15 a.u.
  |    Mg     3     6.433556 A      6.433556 A        3.555074E-14 a.u.
  |    Mg     3     6.433556 A      6.512689 A        3.630260E-14 a.u.
  |    Mg     3     6.433556 A  3.512422E+03 A          154.458748 a.u.
  |    Mg     4     6.278163 A      6.278163 A       -7.759326E-14 a.u.
  |    Mg     4     6.433556 A      6.433556 A        9.307597E-14 a.u.
  |    Mg     4     6.433556 A      6.433556 A       -3.261270E-13 a.u.
  |    Mg     4     6.433556 A  8.463368E+02 A          832.722860 a.u.
  |    Mg     5     6.433556 A      6.433556 A       -1.252796E-13 a.u.
  |    Mg     5     6.433556 A  2.832631E+02 A         1872.074543 a.u.
  |    Mg     6     6.355385 A  1.373678E+02 A         6320.857749 a.u.

  | Shrink_full_auxil_basis : there are       84  radial auxiliary wave functions
                            accepted and      66 rejected.
  | Shrink_full_auxil_basis : there are totally                 480 partial auxiliary wave functions.
  prodbas_tasks_distribution_pbc not up to date - distributing tasks.

  | Maximal number of product basis functions per thread :    14    14

  | Number of local auxiliary basis funcs on node     0 :     14
  | Number of local auxiliary basis funcs on node     1 :     14
  | Number of local auxiliary basis funcs on node     2 :     14
  | Number of local auxiliary basis funcs on node     3 :     14
  | Number of local auxiliary basis funcs on node     4 :     11
  | Number of local auxiliary basis funcs on node     5 :      7
  | Number of local auxiliary basis funcs on node     6 :      7
  | Number of local auxiliary basis funcs on node     7 :      7
  | Number of local auxiliary basis funcs on node     8 :      7
  | Number of local auxiliary basis funcs on node     9 :      7
  | Number of local auxiliary basis funcs on node    10 :      7
  | Number of local auxiliary basis funcs on node    11 :      7
  | Number of local auxiliary basis funcs on node    12 :      7
  | Number of local auxiliary basis funcs on node    13 :      7
  | Number of local auxiliary basis funcs on node    14 :      7
  | Number of local auxiliary basis funcs on node    15 :      7
  | Number of local auxiliary basis funcs on node    16 :      7
  | Number of local auxiliary basis funcs on node    17 :      7
  | Number of local auxiliary basis funcs on node    18 :      7
  | Number of local auxiliary basis funcs on node    19 :      7
  | Number of local auxiliary basis funcs on node    20 :      7
  | Number of local auxiliary basis funcs on node    21 :      7
  | Number of local auxiliary basis funcs on node    22 :      7
  | Number of local auxiliary basis funcs on node    23 :      7
  | Number of local auxiliary basis funcs on node    24 :      7
  | Number of local auxiliary basis funcs on node    25 :      7
  | Number of local auxiliary basis funcs on node    26 :      7
  | Number of local auxiliary basis funcs on node    27 :      7
  | Number of local auxiliary basis funcs on node    28 :      7
  | Number of local auxiliary basis funcs on node    29 :      7
  | Number of local auxiliary basis funcs on node    30 :      7
  | Number of local auxiliary basis funcs on node    31 :      7
  | Number of local auxiliary basis funcs on node    32 :      7
  | Number of local auxiliary basis funcs on node    33 :      7
  | Number of local auxiliary basis funcs on node    34 :      7
  | Number of local auxiliary basis funcs on node    35 :      7
  | Number of local auxiliary basis funcs on node    36 :      7
  | Number of local auxiliary basis funcs on node    37 :      7
  | Number of local auxiliary basis funcs on node    38 :      7
  | Number of local auxiliary basis funcs on node    39 :      7
  | Number of local auxiliary basis funcs on node    40 :      7
  | Number of local auxiliary basis funcs on node    41 :      7
  | Number of local auxiliary basis funcs on node    42 :      7
  | Number of local auxiliary basis funcs on node    43 :      7
  | Number of local auxiliary basis funcs on node    44 :      7
  | Number of local auxiliary basis funcs on node    45 :      7
  | Number of local auxiliary basis funcs on node    46 :      7
  | Number of local auxiliary basis funcs on node    47 :      7
  | Number of local auxiliary basis funcs on node    48 :      7
  | Number of local auxiliary basis funcs on node    49 :      7
  | Number of local auxiliary basis funcs on node    50 :      7
  | Number of local auxiliary basis funcs on node    51 :      7
  | Number of local auxiliary basis funcs on node    52 :      7
  | Number of local auxiliary basis funcs on node    53 :      7
  | Number of local auxiliary basis funcs on node    54 :      7
  | Number of local auxiliary basis funcs on node    55 :      7
  | Number of local auxiliary basis funcs on node    56 :      7
  | Number of local auxiliary basis funcs on node    57 :      7
  | Number of local auxiliary basis funcs on node    58 :      7
  | Number of local auxiliary basis funcs on node    59 :      7
  | Number of local auxiliary basis funcs on node    60 :      7
  | Number of local auxiliary basis funcs on node    61 :      7
  | Number of local auxiliary basis funcs on node    62 :      7
  | Number of local auxiliary basis funcs on node    63 :      7
  Parallel distribution of product basis not up to date - distributing tasks.

  | Maximal number of product basis functions per thread :    14    14

  | Minimal total memory requirement for three-center overlap :       0.013 Gbs
  | Number of local auxiliary basis functions on task:      0    14
  | Number of local auxiliary basis functions on task:      1    14
  | Number of local auxiliary basis functions on task:      2    14
  | Number of local auxiliary basis functions on task:      3    14
  | Number of local auxiliary basis functions on task:      4    11
  | Number of local auxiliary basis functions on task:      5     7
  | Number of local auxiliary basis functions on task:      6     7
  | Number of local auxiliary basis functions on task:      7     7
  | Number of local auxiliary basis functions on task:      8     7
  | Number of local auxiliary basis functions on task:      9     7
  | Number of local auxiliary basis functions on task:     10     7
  | Number of local auxiliary basis functions on task:     11     7
  | Number of local auxiliary basis functions on task:     12     7
  | Number of local auxiliary basis functions on task:     13     7
  | Number of local auxiliary basis functions on task:     14     7
  | Number of local auxiliary basis functions on task:     15     7
  | Number of local auxiliary basis functions on task:     16     7
  | Number of local auxiliary basis functions on task:     17     7
  | Number of local auxiliary basis functions on task:     18     7
  | Number of local auxiliary basis functions on task:     19     7
  | Number of local auxiliary basis functions on task:     20     7
  | Number of local auxiliary basis functions on task:     21     7
  | Number of local auxiliary basis functions on task:     22     7
  | Number of local auxiliary basis functions on task:     23     7
  | Number of local auxiliary basis functions on task:     24     7
  | Number of local auxiliary basis functions on task:     25     7
  | Number of local auxiliary basis functions on task:     26     7
  | Number of local auxiliary basis functions on task:     27     7
  | Number of local auxiliary basis functions on task:     28     7
  | Number of local auxiliary basis functions on task:     29     7
  | Number of local auxiliary basis functions on task:     30     7
  | Number of local auxiliary basis functions on task:     31     7
  | Number of local auxiliary basis functions on task:     32     7
  | Number of local auxiliary basis functions on task:     33     7
  | Number of local auxiliary basis functions on task:     34     7
  | Number of local auxiliary basis functions on task:     35     7
  | Number of local auxiliary basis functions on task:     36     7
  | Number of local auxiliary basis functions on task:     37     7
  | Number of local auxiliary basis functions on task:     38     7
  | Number of local auxiliary basis functions on task:     39     7
  | Number of local auxiliary basis functions on task:     40     7
  | Number of local auxiliary basis functions on task:     41     7
  | Number of local auxiliary basis functions on task:     42     7
  | Number of local auxiliary basis functions on task:     43     7
  | Number of local auxiliary basis functions on task:     44     7
  | Number of local auxiliary basis functions on task:     45     7
  | Number of local auxiliary basis functions on task:     46     7
  | Number of local auxiliary basis functions on task:     47     7
  | Number of local auxiliary basis functions on task:     48     7
  | Number of local auxiliary basis functions on task:     49     7
  | Number of local auxiliary basis functions on task:     50     7
  | Number of local auxiliary basis functions on task:     51     7
  | Number of local auxiliary basis functions on task:     52     7
  | Number of local auxiliary basis functions on task:     53     7
  | Number of local auxiliary basis functions on task:     54     7
  | Number of local auxiliary basis functions on task:     55     7
  | Number of local auxiliary basis functions on task:     56     7
  | Number of local auxiliary basis functions on task:     57     7
  | Number of local auxiliary basis functions on task:     58     7
  | Number of local auxiliary basis functions on task:     59     7
  | Number of local auxiliary basis functions on task:     60     7
  | Number of local auxiliary basis functions on task:     61     7
  | Number of local auxiliary basis functions on task:     62     7
  | Number of local auxiliary basis functions on task:     63     7
  | 2D aux task distribution:      8 X      8
  | 2D block size (nb_aux_2d):     64
  Minimal free memory per node on init_fm entry [GB]:   1029.66
  -----------------------------------------
  --- Initializing Fock matrix calculations
  -----------------------------------------
  screening_threshold (crit_val) =  0.000000100000
  coul_mat_threshold =  0.000000000100
  No atoms are split internally
  Number of super-cells in X Y Z:       0       0       0
  Number of atoms pairs total:            4
  Atom pair distribution:
  Cell:        0       0       0 atom pairs:        4
  sparsity of pfbvk:   1.00000000
  Number of atoms pairs in BvK cells:            4
  Max. memory consumption per node for Pulay mixing [GB]:      0.00
  Minimal total memory per node [GB]:   1056.49
  Minimal free memory per node [GB]:   1029.66
  --- Initializing LVL triples, type COULOMB
  | Storage requirements for basis-basbas products (processor-local):
  |   Species O: n_prodsfn:   529; storage:       16.53 MiB.
  |   Species Mg: n_prodsfn:   502; storage:       15.69 MiB.

  --- Initializing Coulomb matrix calculations, type COULOMB
  Preparing TB like auxiliary 2-center Coulomb matrix
  SBT integration errors (all should be 'small'):
  large logFT aliasing -> increase N/lnrange
  large SBT aliasing -> decrease lnk0 & increase lnk0+lnrange
  large SBT ringing -> decrease lnr0 & increase lnr0+lnrange
  |            El't  L: logFT-al.   small-k   large-k   small-r   large-r
  | Need to store  8132 splines of   214 points taking      13728 KiB.
  | Spline reduction from  4096 to   214 points by (cutting and)     1 x coarsening gives error:  0.00E+00
  Finished with initialize_tb_auxmat/lvl_triples, time:        0.139
  --- Calculating Coulomb matrices
  Upper limit for memory consumption per node [GB] for Coulomb matrices if no compression occurs:       0.035
  Upper limit for temporary arrays in Coulomb matrix initalization [GB]:      9.60
  Allocating        0.615 MB for aux_mat
  Min./max. time for Coulomb matrix computation [s]:      0.00      0.00
  Max. memory consumption per node for global Coulomb matrix [GB]:      0.00
  Time to calculate Coulomb Matrices   :        0.004
  After init_coulomb_tuned [GB]:   1029.06
  Atomic logSBT for LVL-triples                :  max(cpu_time)    wall_clock(cpu1)
  | Multiplication with kernel                  :        0.000 s           0.000 s
  | Main matrix multiplication                  :        0.000 s           0.000 s
  | Analytic angular integration                :        0.000 s           0.000 s
  | Kernel construction                         :        0.000 s           0.000 s
  | Overall 2-center overlap time               :        0.000 s           0.000 s
  | LVL initialization                          :        0.057 s           0.058 s
  | Whole LVL-triples                           :        0.057 s           0.058 s

  --- Initializing LVL triples, type COULOMB
  | Storage requirements for basis-basbas products (processor-local):
  |   Species O: n_prodsfn:   529; storage:       16.53 MiB.
  |   Species Mg: n_prodsfn:   502; storage:       15.69 MiB.

  Atomic logSBT for 2-center Coulomb matrix    :  max(cpu_time)    wall_clock(cpu1)
  | TB initialization                           :        0.082 s           0.082 s
  | TB usage                                    :        0.002 s           0.002 s

  --- Initializing Coulomb matrix calculations, type COULOMB
  Preparing TB like auxiliary 2-center Coulomb matrix
  SBT integration errors (all should be 'small'):
  large logFT aliasing -> increase N/lnrange
  large SBT aliasing -> decrease lnk0 & increase lnk0+lnrange
  large SBT ringing -> decrease lnr0 & increase lnr0+lnrange
  |            El't  L: logFT-al.   small-k   large-k   small-r   large-r
  | Need to store  8132 splines of   214 points taking      13728 KiB.
  | Spline reduction from  4096 to   214 points by (cutting and)     1 x coarsening gives error:  0.00E+00
  Finished with initialize_tb_auxmat/lvl_triples, time:        0.106
  Max. memory consumption per node for uncompressed ovlp3fn matrix [GB]:       0.002
  --- Calculating OVLP3FN
  --- Done calculating OVLP3FN, time:        0.320
  After init_ovlp3fn_tuned2 [GB]:   1028.95
  Max. memory consumption per node for compressed global ovlp3fn matrix [GB]:      -0.027
  Atomic logSBT for 2-center Coulomb matrix    :  max(cpu_time)    wall_clock(cpu1)
  | TB initialization                           :        0.075 s           0.075 s
  | TB usage                                    :        0.001 s           0.002 s

  Atomic logSBT for LVL-triples                :  max(cpu_time)    wall_clock(cpu1)
  | Multiplication with kernel                  :        0.001 s           0.001 s
  | Main matrix multiplication                  :        0.062 s           0.063 s
  | Analytic angular integration                :        0.001 s           0.002 s
  | Kernel construction                         :        0.001 s           0.001 s
  | Overall 2-center overlap time               :        0.069 s           0.070 s
  | 3-center preparation multiplications        :        0.006 s           0.005 s
  | 3-center preparation SBTs                   :        0.153 s           0.137 s
  | 3-center combinations                       :        0.073 s           0.073 s
  | Overal 3-center time                        :        0.229 s           0.215 s
  | LVL initialization                          :        0.025 s           0.026 s
  | Whole LVL-triples                           :        0.025 s           0.026 s

  Assumed free memory per node for Fock matrix prefactors [GB]    924.01
  Memory per instance for Coulomb / ovlp matrix [GB]      0.00     -0.05
  Number of nodes, tasks per node     2    32
  Number of instances:   16
  -----------------------------------------------------
  Dividing atoms among tasks for exact exchange energy:
  Atom:     1 Weight:  0.18542E+06
  Atom:     2 Weight:  0.25645E+06

  Average weight per task:  0.11047E+06

  Number of "big" (above average) atoms  :     2
  Number of "small" (below average) atoms:     0
  All atoms have above average work per task
  Atoms will be divided among tasks to get best load distribution

  Atom division among tasks:
  Atom     1: (initial) task:     0, # of tasks:     2
  Atom     2: (initial) task:     2, # of tasks:     2

  -----------------------------------------------------
  Task      0: my_n_atoms2:      1 my_atom_list:      1
  Task      1: my_n_atoms2:      1 my_atom_list:      1
  Task      2: my_n_atoms2:      1 my_atom_list:      2
  Task      3: my_n_atoms2:      1 my_atom_list:      2
  Task      0: my_n_atoms2:      1 my_atom_list:      1
  Task      1: my_n_atoms2:      1 my_atom_list:      1
  Task      2: my_n_atoms2:      1 my_atom_list:      2
  Task      3: my_n_atoms2:      1 my_atom_list:      2
  Task      0: my_n_atoms2:      1 my_atom_list:      1
  Task      1: my_n_atoms2:      1 my_atom_list:      1
  Task      2: my_n_atoms2:      1 my_atom_list:      2
  Task      3: my_n_atoms2:      1 my_atom_list:      2
  Task      0: my_n_atoms2:      1 my_atom_list:      1
  Task      1: my_n_atoms2:      1 my_atom_list:      1
  Task      2: my_n_atoms2:      1 my_atom_list:      2
  Task      3: my_n_atoms2:      1 my_atom_list:      2
  Task      0: my_n_atoms2:      1 my_atom_list:      1
  Task      1: my_n_atoms2:      1 my_atom_list:      1
  Task      2: my_n_atoms2:      1 my_atom_list:      2
  Task      3: my_n_atoms2:      1 my_atom_list:      2
  Task      0: my_n_atoms2:      1 my_atom_list:      1
  Task      1: my_n_atoms2:      1 my_atom_list:      1
  Task      2: my_n_atoms2:      1 my_atom_list:      2
  Task      3: my_n_atoms2:      1 my_atom_list:      2
  Task      0: my_n_atoms2:      1 my_atom_list:      1
  Task      1: my_n_atoms2:      1 my_atom_list:      1
  Task      2: my_n_atoms2:      1 my_atom_list:      2
  Task      3: my_n_atoms2:      1 my_atom_list:      2
  Task      0: my_n_atoms2:      1 my_atom_list:      1
  Task      1: my_n_atoms2:      1 my_atom_list:      1
  Task      2: my_n_atoms2:      1 my_atom_list:      2
  Task      3: my_n_atoms2:      1 my_atom_list:      2
  Task      0: my_n_atoms2:      1 my_atom_list:      1
  Task      1: my_n_atoms2:      1 my_atom_list:      1
  Task      2: my_n_atoms2:      1 my_atom_list:      2
  Task      3: my_n_atoms2:      1 my_atom_list:      2
  Task      0: my_n_atoms2:      1 my_atom_list:      1
  Task      1: my_n_atoms2:      1 my_atom_list:      1
  Task      2: my_n_atoms2:      1 my_atom_list:      2
  Task      3: my_n_atoms2:      1 my_atom_list:      2
  Task      0: my_n_atoms2:      1 my_atom_list:      1
  Task      1: my_n_atoms2:      1 my_atom_list:      1
  Task      2: my_n_atoms2:      1 my_atom_list:      2
  Task      3: my_n_atoms2:      1 my_atom_list:      2
  Task      0: my_n_atoms2:      1 my_atom_list:      1
  Task      1: my_n_atoms2:      1 my_atom_list:      1
  Task      2: my_n_atoms2:      1 my_atom_list:      2
  Task      3: my_n_atoms2:      1 my_atom_list:      2
  Task      0: my_n_atoms2:      1 my_atom_list:      1
  Task      1: my_n_atoms2:      1 my_atom_list:      1
  Task      2: my_n_atoms2:      1 my_atom_list:      2
  Task      3: my_n_atoms2:      1 my_atom_list:      2
  Task      0: my_n_atoms2:      1 my_atom_list:      1
  Task      1: my_n_atoms2:      1 my_atom_list:      1
  Task      2: my_n_atoms2:      1 my_atom_list:      2
  Task      3: my_n_atoms2:      1 my_atom_list:      2
  Task      0: my_n_atoms2:      1 my_atom_list:      1
  Task      1: my_n_atoms2:      1 my_atom_list:      1
  Task      2: my_n_atoms2:      1 my_atom_list:      2
  Task      3: my_n_atoms2:      1 my_atom_list:      2
  Task      0: my_n_atoms2:      1 my_atom_list:      1
  Task      1: my_n_atoms2:      1 my_atom_list:      1
  Task      2: my_n_atoms2:      1 my_atom_list:      2
  Task      3: my_n_atoms2:      1 my_atom_list:      2
  Task      0: my_n_atom_pairs:      1
  Task      1: my_n_atom_pairs:      1
  Task      2: my_n_atom_pairs:      1
  Task      3: my_n_atom_pairs:      1
  Task      0: my_n_atom_pairs:      1
  Task      1: my_n_atom_pairs:      1
  Task      2: my_n_atom_pairs:      1
  Task      3: my_n_atom_pairs:      1
  Task      0: my_n_atom_pairs:      1
  Task      1: my_n_atom_pairs:      1
  Task      2: my_n_atom_pairs:      1
  Task      3: my_n_atom_pairs:      1
  Task      0: my_n_atom_pairs:      1
  Task      1: my_n_atom_pairs:      1
  Task      2: my_n_atom_pairs:      1
  Task      3: my_n_atom_pairs:      1
  Task      0: my_n_atom_pairs:      1
  Task      1: my_n_atom_pairs:      1
  Task      2: my_n_atom_pairs:      1
  Task      3: my_n_atom_pairs:      1
  Task      0: my_n_atom_pairs:      1
  Task      1: my_n_atom_pairs:      1
  Task      2: my_n_atom_pairs:      1
  Task      3: my_n_atom_pairs:      1
  Task      0: my_n_atom_pairs:      1
  Task      1: my_n_atom_pairs:      1
  Task      2: my_n_atom_pairs:      1
  Task      3: my_n_atom_pairs:      1
  Task      0: my_n_atom_pairs:      1
  Task      1: my_n_atom_pairs:      1
  Task      2: my_n_atom_pairs:      1
  Task      3: my_n_atom_pairs:      1
  Task      0: my_n_atom_pairs:      1
  Task      1: my_n_atom_pairs:      1
  Task      2: my_n_atom_pairs:      1
  Task      3: my_n_atom_pairs:      1
  Task      0: my_n_atom_pairs:      1
  Task      1: my_n_atom_pairs:      1
  Task      2: my_n_atom_pairs:      1
  Task      3: my_n_atom_pairs:      1
  Task      0: my_n_atom_pairs:      1
  Task      1: my_n_atom_pairs:      1
  Task      2: my_n_atom_pairs:      1
  Task      3: my_n_atom_pairs:      1
  Task      0: my_n_atom_pairs:      1
  Task      1: my_n_atom_pairs:      1
  Task      2: my_n_atom_pairs:      1
  Task      3: my_n_atom_pairs:      1
  Task      0: my_n_atom_pairs:      1
  Task      1: my_n_atom_pairs:      1
  Task      2: my_n_atom_pairs:      1
  Task      3: my_n_atom_pairs:      1
  Task      0: my_n_atom_pairs:      1
  Task      1: my_n_atom_pairs:      1
  Task      2: my_n_atom_pairs:      1
  Task      3: my_n_atom_pairs:      1
  Task      0: my_n_atom_pairs:      1
  Task      1: my_n_atom_pairs:      1
  Task      2: my_n_atom_pairs:      1
  Task      3: my_n_atom_pairs:      1
  Task      0: my_n_atom_pairs:      1
  Task      1: my_n_atom_pairs:      1
  Task      2: my_n_atom_pairs:      1
  Task      3: my_n_atom_pairs:      1
  Transferring Coulomb matrix to final data layout
  Coulomb matrix communicaton time [s]    0.73
  Max. memory per node for ovlp3fn matrices:        0.027 GB
  Total memory for ovlp3fn matrices:        0.003 GB
  --- Done getting norm of OVLP3FN, time:        0.000
  Total memory for ovlp3fn matrices:        0.003 GB
  --- time for get_ovlp3fn:        0.016
  Max. memory consumption per node for Hartree Fock matrix [GB]      0.00
  Blocksize for Fock matrix computation:     1
  Minimal free memory per node after Fock matrix initialization [GB]:   1027.10
  Initialize hartree_potential_storage
  Max. number of atoms included in rho_multipole:            2

  End scf initialization - timings             :  max(cpu_time)    wall_clock(cpu1)
  | Time for scf. initialization                :        0.861 s           1.568 s
  | Boundary condition initialization           :        0.002 s           0.002 s
  | Integration                                 :        0.011 s           0.011 s
  | Solution of K.-S. eqns.                     :        0.140 s           0.169 s
  | Grid partitioning                           :        0.013 s           0.013 s
  | Preloading free-atom quantities on grid     :        0.004 s           0.004 s
  | Free-atom superposition energy              :        0.001 s           0.001 s
  | Total energy evaluation                     :        0.000 s           0.000 s
  | Product basis setup: Total time             :        0.708 s           1.367 s

  Partial memory accounting:
  | Current value for overall tracked memory usage:
  |   Minimum:        0.709 MB (on task 29)
  |   Maximum:        0.991 MB (on task  3)
  |   Average:        0.814 MB
  | Peak value for overall tracked memory usage:
  |   Minimum:        1.115 MB (on task 27 after allocating d_aux_mat)
  |   Maximum:        2.503 MB (on task 34 after allocating ovlp3fn_nosplit%tmploc)
  |   Average:        1.182 MB
  | Largest tracked array allocation so far:
  |   Minimum:        0.691 MB (ovlp3fn2%dat on task  5)
  |   Maximum:        1.001 MB (ovlp3fn_nosplit%dat on task 34)
  |   Average:        0.804 MB
  Note:  These values currently only include a subset of arrays which are explicitly tracked.
  The "true" memory usage will be greater.
------------------------------------------------------------
  Available memory after initialize_scf [GB]:   1027.10
  Available memory after allocating mixing [GB]:   1027.10
  Evaluating new KS density.
  Integration grid: deviation in total charge (<rho> - N_e) =   7.105427E-15

  Time for density update prior                :  max(cpu_time)    wall_clock(cpu1)
  | self-consistency iterative process          :        0.001 s           0.001 s
  Available memory before start of SCF loop [GB]:   1027.09

------------------------------------------------------------
          Begin self-consistency iteration #    1

  Date     :  20260724, Time     :  093438.088
------------------------------------------------------------
  Pulay mixing of updated and previous charge densities.
  Available memory per node after mixing [GB]:   1027.09
  Renormalizing the density to the exact electron count on the 3D integration grid.
  | Formal number of electrons (from input files) :      20.0000000000
  | Integrated number of electrons on 3D grid     :      20.0000000000
  | Charge integration error                      :       0.0000000000
  | Normalization factor for density and gradient :       1.0000000000

  Evaluating partitioned Hartree potential by multipole expansion.
  | Original multipole sum: apparent total charge =   0.327150E-14
  | Sum of charges compensated after spline to logarithmic grids =   0.192568E-06
  | Analytical far-field extrapolation by fixed multipoles:
  | Hartree multipole sum: apparent total charge =   0.297633E-14
  Summing up the Hartree potential.
  Time summed over all CPUs for potential: real work        0.002 s, elapsed        0.002 s
  | RMS charge density error from multipole expansion :   0.354930E-03

  Integrating Hamiltonian matrix: batch-based integration.
  Time summed over all CPUs for integration: real work        0.098 s, elapsed        0.145 s => Consider using load balancing!
  Max. memory consumption per node for dm_cols [GB]:      0.00
  Max. memory consumption per node for fock_matrix [GB]:      0.00
  Calculating non-local Hartree-Fock exchange by two-center RI (RI-LVL).
  screening_threshold (crit_val) =  0.000000100000
  Max. allocated memory per node for ovlp3fn_rcv [GB]:      0.00
  Max. allocated memory per node for fock_matrix_row [GB]:      0.00
  Max. memory consumption per node for m_ovlp_fact11 [GB]:      0.00
  Max. memory consumption per node for d_aux_mem [GB]:      0.00
  Max. memory consumption per node for dm_x_o3fn_aux [GB]:      0.00
  Max. allocated memory per node for tmp1/tmp2 [GB]:      0.00
   final impselect vector           6           2           6           1
   Time for autotuning:    3.2611299999998344E-003
  Exact exchange progress report - outermost block loop i_block: 1 ..       3
  |        1         2         3  
 Total ovlp3fn data transfer [GB]   1.0474239243194461E-003
  Average sparsity of tmp1/2 0.50000000
  Average sparsity of fock_matrix_row 0.02325581
  Full exact exchange energy: weighted long- and short-range EXX    178.058476894865 eV.
  Detailed communication and barrier times:
  | Comm    0:        0.000       0.000       0.000       0.000       0.000       0.000       0.000       0.000       0.000       0.000
  | Comm    1:        0.000       0.000       0.000       0.000       0.000       0.000       0.000       0.000       0.000       0.000
  | Comm    2:        0.000       0.000       0.000       0.000       0.000       0.000       0.000       0.000       0.000       0.000
  | Comm    3:        0.000       0.000       0.000       0.000       0.000       0.000       0.000       0.000       0.000       0.000
  | Comm    4:        0.000       0.000       0.000       0.000       0.000       0.000       0.000       0.000       0.000       0.000
  | Comm    5:        0.000       0.000       0.000       0.000       0.000       0.000       0.000       0.000       0.000       0.000
  | Comm    6:        0.000       0.000       0.000       0.000       0.000       0.000       0.000       0.000       0.000       0.000
  | Comm    7:        0.000       0.000       0.000       0.000       0.000       0.000       0.000       0.000       0.000       0.000
  | Comm    8:        0.000       0.000       0.000       0.000       0.000       0.000       0.000       0.000       0.000       0.000
  | Comm    9:        0.000       0.000       0.000       0.000       0.000       0.000       0.000       0.000       0.000       0.000
  | Comm   10:        0.000       0.000       0.000       0.000       0.000       0.000       0.000       0.000       0.000       0.000
  | Comm   11:        0.000       0.000       0.000       0.000       0.000       0.000       0.000       0.000       0.000       0.000
  | Comm   12:        0.000       0.000       0.000       0.000       0.000       0.000       0.000       0.000       0.000       0.000
  | Comm   13:        0.000       0.000       0.000       0.000       0.000       0.000       0.000       0.000       0.000       0.000
  | Comm   14:        0.000       0.000       0.000       0.000       0.000       0.000       0.000       0.000       0.000       0.000
  | Comm   15:        0.000       0.000       0.000       0.000       0.000       0.000       0.000       0.000       0.000       0.000
  | Comm   16:        0.000       0.000       0.000       0.000       0.000       0.000       0.000       0.000       0.000       0.000
  | Comm   17:        0.000       0.000       0.000       0.000       0.000       0.000       0.000       0.000       0.000       0.000
  | Comm   18:        0.000       0.000       0.000       0.000       0.000       0.000       0.000       0.000       0.000       0.000
  | Comm   19:        0.000       0.000       0.000       0.000       0.000       0.000       0.000       0.000       0.000       0.000
  | Comm   20:        0.000       0.000       0.000       0.000       0.000       0.000       0.000       0.000       0.000       0.000
  | Comm   21:        0.000       0.000       0.000       0.000       0.000       0.000       0.000       0.000       0.000       0.000
  | Comm   22:        0.000       0.000       0.000       0.000       0.000       0.000       0.000       0.000       0.000       0.000
  | Comm   23:        0.000       0.000       0.000       0.000       0.000       0.000       0.000       0.000       0.000       0.000
  | Comm   24:        0.000       0.000       0.000       0.000       0.000       0.000       0.000       0.000       0.000       0.000
  | Comm   25:        0.000       0.000       0.000       0.000       0.000       0.000       0.000       0.000       0.000       0.000
  | Comm   26:        0.000       0.000       0.000       0.000       0.000       0.000       0.000       0.000       0.000       0.000
  | Comm   27:        0.000       0.000       0.000       0.000       0.000       0.000       0.000       0.000       0.000       0.000
  | Comm   28:        0.000       0.000       0.000       0.000       0.000       0.000       0.000       0.000       0.000       0.000
  | Comm   29:        0.000       0.000       0.000       0.000       0.000       0.000       0.000       0.000       0.000       0.000
  | Comm   30:        0.000       0.000       0.000       0.000       0.000       0.000       0.000       0.000       0.000       0.000
  | Comm   31:        0.000       0.000       0.000       0.000       0.000       0.000       0.000       0.000       0.000       0.000
  | Comm   32:        0.000       0.000       0.000       0.000       0.000       0.000       0.000       0.000       0.000       0.000
  | Comm   33:        0.000       0.000       0.000       0.000       0.000       0.000       0.000       0.000       0.000       0.000
  | Comm   34:        0.000       0.000       0.000       0.000       0.000       0.000       0.000       0.000       0.000       0.000
  | Comm   35:        0.000       0.000       0.000       0.000       0.000       0.000       0.000       0.000       0.000       0.000
  | Comm   36:        0.000       0.000       0.000       0.000       0.000       0.000       0.000       0.000       0.000       0.000
  | Comm   37:        0.000       0.000       0.000       0.000       0.000       0.000       0.000       0.000       0.000       0.000
  | Comm   38:        0.000       0.000       0.000       0.000       0.000       0.000       0.000       0.000       0.000       0.000
  | Comm   39:        0.000       0.000       0.000       0.000       0.000       0.000       0.000       0.000       0.000       0.000
  | Comm   40:        0.000       0.000       0.000       0.000       0.000       0.000       0.000       0.000       0.000       0.000
  | Comm   41:        0.000       0.000       0.000       0.000       0.000       0.000       0.000       0.000       0.000       0.000
  | Comm   42:        0.000       0.000       0.000       0.000       0.000       0.000       0.000       0.000       0.000       0.000
  | Comm   43:        0.000       0.000       0.000       0.000       0.000       0.000       0.000       0.000       0.000       0.000
  | Comm   44:        0.000       0.000       0.000       0.000       0.000       0.000       0.000       0.000       0.000       0.000
  | Comm   45:        0.000       0.000       0.000       0.000       0.000       0.000       0.000       0.000       0.000       0.000
  | Comm   46:        0.000       0.000       0.000       0.000       0.000       0.000       0.000       0.000       0.000       0.000
  | Comm   47:        0.000       0.000       0.000       0.000       0.000       0.000       0.000       0.000       0.000       0.000
  | Comm   48:        0.000       0.000       0.000       0.000       0.000       0.000       0.000       0.000       0.000       0.000
  | Comm   49:        0.000       0.000       0.000       0.000       0.000       0.000       0.000       0.000       0.000       0.000
  | Comm   50:        0.000       0.000       0.000       0.000       0.000       0.000       0.000       0.000       0.000       0.000
  | Comm   51:        0.000       0.000       0.000       0.000       0.000       0.000       0.000       0.000       0.000       0.000
  | Comm   52:        0.000       0.000       0.000       0.000       0.000       0.000       0.000       0.000       0.000       0.000
  | Comm   53:        0.000       0.000       0.000       0.000       0.000       0.000       0.000       0.000       0.000       0.000
  | Comm   54:        0.000       0.000       0.000       0.000       0.000       0.000       0.000       0.000       0.000       0.000
  | Comm   55:        0.000       0.000       0.000       0.000       0.000       0.000       0.000       0.000       0.000       0.000
  | Comm   56:        0.000       0.000       0.000       0.000       0.000       0.000       0.000       0.000       0.000       0.000
  | Comm   57:        0.000       0.000       0.000       0.000       0.000       0.000       0.000       0.000       0.000       0.000
  | Comm   58:        0.000       0.000       0.000       0.000       0.000       0.000       0.000       0.000       0.000       0.000
  | Comm   59:        0.000       0.000       0.000       0.000       0.000       0.000       0.000       0.000       0.000       0.000
  | Comm   60:        0.000       0.000       0.000       0.000       0.000       0.000       0.000       0.000       0.000       0.000
  | Comm   61:        0.000       0.000       0.000       0.000       0.000       0.000       0.000       0.000       0.000       0.000
  | Comm   62:        0.000       0.000       0.000       0.000       0.000       0.000       0.000       0.000       0.000       0.000
  | Comm   63:        0.000       0.000       0.000       0.000       0.000       0.000       0.000       0.000       0.000       0.000
  | Imbalance    0:        0.000       0.000       0.000       0.000       0.000       0.000       0.000       0.000       0.000       0.000
  | Imbalance    1:        0.000       0.000       0.000       0.000       0.000       0.000       0.000       0.000       0.000       0.001
  | Imbalance    2:        0.000       0.000       0.000       0.000       0.000       0.000       0.000       0.000       0.000       0.000
  | Imbalance    3:        0.000       0.000       0.000       0.000       0.000       0.000       0.000       0.000       0.000       0.001
  | Imbalance    4:        0.000       0.000       0.000       0.000       0.000       0.000       0.000       0.000       0.000       0.000
  | Imbalance    5:        0.000       0.000       0.000       0.000       0.000       0.000       0.000       0.000       0.000       0.001
  | Imbalance    6:        0.000       0.000       0.000       0.000       0.000       0.000       0.000       0.000       0.000       0.000
  | Imbalance    7:        0.000       0.000       0.000       0.000       0.000       0.000       0.000       0.000       0.000       0.001
  | Imbalance    8:        0.000       0.000       0.000       0.000       0.000       0.000       0.000       0.000       0.000       0.000
  | Imbalance    9:        0.000       0.000       0.000       0.000       0.000       0.000       0.000       0.000       0.000       0.001
  | Imbalance   10:        0.000       0.000       0.000       0.000       0.000       0.000       0.000       0.000       0.000       0.000
  | Imbalance   11:        0.000       0.000       0.000       0.000       0.000       0.000       0.000       0.000       0.000       0.001
  | Imbalance   12:        0.000       0.000       0.000       0.000       0.000       0.000       0.000       0.000       0.000       0.000
  | Imbalance   13:        0.000       0.000       0.000       0.000       0.000       0.000       0.000       0.000       0.000       0.001
  | Imbalance   14:        0.000       0.000       0.000       0.000       0.000       0.000       0.000       0.000       0.000       0.000
  | Imbalance   15:        0.000       0.000       0.000       0.000       0.000       0.000       0.000       0.000       0.000       0.001
  | Imbalance   16:        0.000       0.000       0.000       0.000       0.000       0.000       0.000       0.000       0.000       0.000
  | Imbalance   17:        0.000       0.000       0.000       0.000       0.000       0.000       0.000       0.000       0.000       0.001
  | Imbalance   18:        0.000       0.000       0.000       0.000       0.000       0.000       0.000       0.000       0.000       0.000
  | Imbalance   19:        0.000       0.000       0.000       0.000       0.000       0.000       0.000       0.000       0.000       0.001
  | Imbalance   20:        0.000       0.000       0.000       0.000       0.000       0.000       0.000       0.000       0.000       0.000
  | Imbalance   21:        0.000       0.000       0.000       0.000       0.000       0.000       0.000       0.000       0.000       0.001
  | Imbalance   22:        0.000       0.000       0.000       0.000       0.000       0.000       0.000       0.000       0.000       0.000
  | Imbalance   23:        0.000       0.000       0.000       0.000       0.000       0.000       0.000       0.000       0.000       0.001
  | Imbalance   24:        0.000       0.000       0.000       0.000       0.000       0.000       0.000       0.000       0.000       0.000
  | Imbalance   25:        0.000       0.000       0.000       0.000       0.000       0.000       0.000       0.000       0.000       0.001
  | Imbalance   26:        0.000       0.000       0.000       0.000       0.000       0.000       0.000       0.000       0.000       0.000
  | Imbalance   27:        0.000       0.000       0.000       0.000       0.000       0.000       0.000       0.000       0.000       0.001
  | Imbalance   28:        0.000       0.000       0.000       0.000       0.001       0.000       0.000       0.000       0.000       0.000
  | Imbalance   29:        0.000       0.000       0.000       0.000       0.001       0.000       0.000       0.000       0.000       0.001
  | Imbalance   30:        0.000       0.000       0.000       0.000       0.000       0.000       0.000       0.000       0.000       0.000
  | Imbalance   31:        0.000       0.000       0.000       0.000       0.000       0.000       0.000       0.000       0.000       0.001
  | Imbalance   32:        0.000       0.000       0.000       0.000       0.000       0.000       0.000       0.000       0.000       0.000
  | Imbalance   33:        0.000       0.000       0.000       0.000       0.000       0.000       0.000       0.000       0.000       0.001
  | Imbalance   34:        0.000       0.000       0.000       0.000       0.000       0.000       0.000       0.000       0.000       0.000
  | Imbalance   35:        0.000       0.000       0.000       0.000       0.000       0.000       0.000       0.000       0.000       0.001
  | Imbalance   36:        0.000       0.000       0.000       0.000       0.000       0.000       0.000       0.000       0.000       0.000
  | Imbalance   37:        0.000       0.000       0.000       0.000       0.000       0.000       0.000       0.000       0.000       0.001
  | Imbalance   38:        0.000       0.000       0.000       0.000       0.000       0.000       0.000       0.000       0.000       0.000
  | Imbalance   39:        0.000       0.000       0.000       0.000       0.000       0.000       0.000       0.000       0.000       0.001
  | Imbalance   40:        0.000       0.000       0.000       0.000       0.000       0.000       0.000       0.000       0.000       0.000
  | Imbalance   41:        0.000       0.000       0.000       0.000       0.000       0.000       0.000       0.000       0.000       0.001
  | Imbalance   42:        0.000       0.000       0.000       0.000       0.000       0.000       0.000       0.000       0.000       0.000
  | Imbalance   43:        0.000       0.000       0.000       0.000       0.000       0.000       0.000       0.000       0.000       0.001
  | Imbalance   44:        0.000       0.000       0.000       0.000       0.000       0.000       0.000       0.000       0.000       0.000
  | Imbalance   45:        0.000       0.000       0.000       0.000       0.000       0.000       0.000       0.000       0.000       0.001
  | Imbalance   46:        0.000       0.000       0.000       0.000       0.000       0.000       0.000       0.000       0.000       0.000
  | Imbalance   47:        0.000       0.000       0.000       0.000       0.000       0.000       0.000       0.000       0.000       0.001
  | Imbalance   48:        0.000       0.000       0.000       0.000       0.000       0.000       0.000       0.000       0.000       0.000
  | Imbalance   49:        0.000       0.000       0.000       0.000       0.000       0.000       0.000       0.000       0.000       0.001
  | Imbalance   50:        0.000       0.000       0.000       0.000       0.000       0.000       0.000       0.000       0.000       0.000
  | Imbalance   51:        0.000       0.000       0.000       0.000       0.000       0.000       0.000       0.000       0.000       0.001
  | Imbalance   52:        0.000       0.000       0.000       0.000       0.000       0.000       0.000       0.000       0.000       0.000
  | Imbalance   53:        0.000       0.000       0.000       0.000       0.000       0.000       0.000       0.000       0.000       0.001
  | Imbalance   54:        0.000       0.000       0.000       0.000       0.000       0.000       0.000       0.000       0.000       0.000
  | Imbalance   55:        0.000       0.000       0.000       0.000       0.000       0.000       0.000       0.000       0.000       0.001
  | Imbalance   56:        0.000       0.000       0.000       0.000       0.000       0.000       0.000       0.000       0.000       0.000
  | Imbalance   57:        0.000       0.000       0.000       0.000       0.000       0.000       0.000       0.000       0.000       0.000
  | Imbalance   58:        0.000       0.000       0.000       0.000       0.000       0.000       0.000       0.000       0.000       0.000
  | Imbalance   59:        0.000       0.000       0.000       0.000       0.000       0.000       0.000       0.000       0.000       0.001
  | Imbalance   60:        0.000       0.000       0.000       0.000       0.000       0.000       0.000       0.000       0.000       0.000
  | Imbalance   61:        0.000       0.000       0.000       0.000       0.000       0.000       0.000       0.000       0.000       0.000
  | Imbalance   62:        0.000       0.000       0.000       0.000       0.000       0.000       0.000       0.000       0.000       0.000
  | Imbalance   63:        0.000       0.000       0.000       0.000       0.000       0.000       0.000       0.000       0.000       0.000
  Times            DM_x_o3fn   CM_prod_1   CM_prod_2   tmp2_prod        Sync   Imbalance       Other  Total calc
  | Times    0:        0.000       0.001       0.000       0.000       0.000       0.000       0.011       0.013
  | Times    1:        0.000       0.000       0.000       0.000       0.000       0.001       0.011       0.013
  | Times    2:        0.000       0.001       0.000       0.000       0.000       0.000       0.011       0.013
  | Times    3:        0.000       0.000       0.000       0.000       0.000       0.001       0.011       0.013
  | Times    4:        0.000       0.001       0.000       0.000       0.000       0.000       0.011       0.013
  | Times    5:        0.000       0.000       0.000       0.000       0.000       0.001       0.011       0.013
  | Times    6:        0.000       0.001       0.000       0.000       0.000       0.000       0.011       0.013
  | Times    7:        0.000       0.000       0.000       0.000       0.000       0.001       0.011       0.013
  | Times    8:        0.000       0.001       0.000       0.000       0.000       0.000       0.011       0.013
  | Times    9:        0.000       0.000       0.000       0.000       0.000       0.001       0.011       0.013
  | Times   10:        0.000       0.001       0.000       0.000       0.000       0.000       0.011       0.013
  | Times   11:        0.000       0.000       0.000       0.000       0.000       0.001       0.011       0.013
  | Times   12:        0.000       0.001       0.000       0.000       0.000       0.000       0.011       0.013
  | Times   13:        0.000       0.000       0.000       0.000       0.000       0.001       0.011       0.013
  | Times   14:        0.000       0.000       0.000       0.000       0.000       0.000       0.011       0.013
  | Times   15:        0.000       0.000       0.000       0.000       0.000       0.001       0.011       0.013
  | Times   16:        0.000       0.001       0.000       0.000       0.000       0.000       0.011       0.013
  | Times   17:        0.000       0.000       0.000       0.000       0.000       0.001       0.011       0.013
  | Times   18:        0.000       0.000       0.000       0.000       0.000       0.000       0.011       0.013
  | Times   19:        0.000       0.000       0.000       0.000       0.000       0.001       0.011       0.013
  | Times   20:        0.000       0.001       0.000       0.000       0.000       0.000       0.011       0.013
  | Times   21:        0.000       0.000       0.000       0.000       0.000       0.001       0.011       0.013
  | Times   22:        0.000       0.001       0.000       0.000       0.000       0.000       0.011       0.013
  | Times   23:        0.000       0.000       0.000       0.000       0.000       0.001       0.011       0.013
  | Times   24:        0.000       0.001       0.000       0.000       0.000       0.000       0.011       0.013
  | Times   25:        0.000       0.000       0.000       0.000       0.000       0.001       0.011       0.013
  | Times   26:        0.000       0.001       0.000       0.000       0.000       0.000       0.011       0.013
  | Times   27:        0.000       0.000       0.000       0.000       0.000       0.001       0.011       0.013
  | Times   28:        0.000       0.000       0.000       0.000       0.000       0.001       0.011       0.013
  | Times   29:        0.000       0.000       0.000       0.000       0.000       0.001       0.011       0.013
  | Times   30:        0.000       0.001       0.000       0.000       0.000       0.000       0.011       0.013
  | Times   31:        0.000       0.000       0.000       0.000       0.000       0.001       0.011       0.013
  | Times   32:        0.000       0.001       0.000       0.000       0.000       0.000       0.011       0.013
  | Times   33:        0.000       0.000       0.000       0.000       0.000       0.001       0.011       0.013
  | Times   34:        0.000       0.001       0.000       0.000       0.000       0.000       0.011       0.013
  | Times   35:        0.000       0.000       0.000       0.000       0.000       0.001       0.011       0.013
  | Times   36:        0.000       0.001       0.000       0.000       0.000       0.000       0.011       0.013
  | Times   37:        0.000       0.000       0.000       0.000       0.000       0.001       0.011       0.013
  | Times   38:        0.000       0.001       0.000       0.000       0.000       0.000       0.011       0.013
  | Times   39:        0.000       0.000       0.000       0.000       0.000       0.001       0.011       0.013
  | Times   40:        0.000       0.000       0.000       0.000       0.000       0.000       0.011       0.013
  | Times   41:        0.000       0.000       0.000       0.000       0.000       0.001       0.011       0.013
  | Times   42:        0.000       0.001       0.000       0.000       0.000       0.000       0.011       0.013
  | Times   43:        0.000       0.000       0.000       0.000       0.000       0.001       0.011       0.013
  | Times   44:        0.000       0.000       0.000       0.000       0.000       0.000       0.011       0.013
  | Times   45:        0.000       0.000       0.000       0.000       0.000       0.001       0.011       0.013
  | Times   46:        0.000       0.001       0.000       0.000       0.000       0.000       0.011       0.013
  | Times   47:        0.000       0.000       0.000       0.000       0.000       0.001       0.011       0.013
  | Times   48:        0.000       0.000       0.000       0.000       0.000       0.000       0.012       0.013
  | Times   49:        0.000       0.000       0.000       0.000       0.000       0.001       0.012       0.013
  | Times   50:        0.000       0.000       0.000       0.000       0.000       0.000       0.012       0.013
  | Times   51:        0.000       0.000       0.000       0.000       0.000       0.001       0.012       0.013
  | Times   52:        0.000       0.000       0.000       0.000       0.000       0.000       0.012       0.013
  | Times   53:        0.000       0.000       0.000       0.000       0.000       0.001       0.012       0.013
  | Times   54:        0.000       0.000       0.000       0.000       0.000       0.000       0.012       0.013
  | Times   55:        0.000       0.000       0.000       0.000       0.000       0.001       0.012       0.013
  | Times   56:        0.000       0.000       0.000       0.000       0.000       0.000       0.011       0.013
  | Times   57:        0.000       0.000       0.000       0.000       0.000       0.001       0.011       0.013
  | Times   58:        0.000       0.001       0.000       0.000       0.000       0.000       0.011       0.013
  | Times   59:        0.000       0.000       0.000       0.000       0.000       0.001       0.011       0.013
  | Times   60:        0.000       0.000       0.000       0.000       0.000       0.000       0.012       0.013
  | Times   61:        0.000       0.000       0.000       0.000       0.000       0.001       0.012       0.013
  | Times   62:        0.000       0.000       0.000       0.000       0.000       0.000       0.012       0.013
  | Times   63:        0.000       0.000       0.000       0.000       0.000       0.001       0.012       0.013
  | Times  sum:        0.003       0.018       0.007       0.004       0.018       0.040       0.712       0.803

  Decomposition of Other based on code block (only on MPI task 0):
  Times             Block #1    Block #2    Block #3    Block #4    Block #5    Block #6    Block #7    Block #8
  | Times    0:        0.005       0.000       0.000       0.000       0.000       0.000       0.000       0.000

  Times             Block #9   Block #10   Block #11   Block #12   Block #13   Block #14   Block #15   Block #16
  | Times    0:        0.000       0.000       0.000       0.001       0.000       0.004       0.000       0.000

  Times            Block Sum    Expected
  | Times    0:        0.010       0.011
  Time for Fock matrix mixing     0.047

  Updating Kohn-Sham eigenvalues and eigenvectors using ELSI and the ELPA eigensolver.
  Starting ELPA eigensolver
  Finished transformation to standard eigenproblem
  | Time :     0.000 s
  Finished solving standard eigenproblem
  | Time :     0.001 s
  Finished back-transformation of eigenvectors
  | Time :     0.000 s

  Obtaining occupation numbers and electronic chemical potential using ELSI.
  | Note that, for insulating systems, the printed 'chemical potential' value is not uniquely defined.
  | It can be anywhere in the energy gap, as long as it correctly separates occupied and unoccupied states.
  | In systems with a gap, the physically relevant chemical potential is the VBM or HOMO.

  | Chemical potential (Fermi level):    -7.81610576 eV
  Writing Kohn-Sham eigenvalues.

  State    Occupation    Eigenvalue [Ha]    Eigenvalue [eV]
      1       2.00000         -47.242863        -1285.54372
      2       2.00000         -19.548577         -531.94384
      3       2.00000          -3.300379          -89.80788
      4       2.00000          -2.043162          -55.59727
      5       2.00000          -1.984408          -53.99848
      6       2.00000          -1.984408          -53.99848
      7       2.00000          -1.170233          -31.84366
      8       2.00000          -0.592446          -16.12128
      9       2.00000          -0.592446          -16.12128
     10       2.00000          -0.551368          -15.00349
     11       0.00000          -0.023105           -0.62872
     12       0.00000           0.106603            2.90082
     13       0.00000           0.106603            2.90082
     14       0.00000           0.129552            3.52530
     15       0.00000           0.201309            5.47789
     16       0.00000           0.207949            5.65857

  Highest occupied state (VBM) at    -15.00348805 eV
  | Occupation number:      2.00000000

  Lowest unoccupied state (CBM) at    -0.62872347 eV
  | Occupation number:      0.00000000

  Overall HOMO-LUMO gap:     14.37476458 eV.

  Total energy components:
  | Sum of eigenvalues            :        -158.02058004 Ha       -4299.95876228 eV
  | XC energy correction          :         -12.25545407 Ha        -333.48787299 eV
  | XC potential correction       :          25.73747849 Ha         700.35242338 eV
  | Free-atom electrostatic energy:        -130.45110463 Ha       -3549.75516663 eV
  | Hartree energy correction     :          -0.88111455 Ha         -23.97634693 eV
  | Entropy correction            :          -0.00000000 Ha          -0.00000000 eV
  | ---------------------------
  | Total energy                  :        -275.87077480 Ha       -7506.82572545 eV
  | Total energy, T -> 0          :        -275.87077480 Ha       -7506.82572545 eV  <-- do not rely on this value for anything but (periodic) metals
  | Electronic free energy        :        -275.87077480 Ha       -7506.82572545 eV

  Derived energy quantities:
  | Kinetic energy                :         276.64087856 Ha        7527.78131497 eV
  | Electrostatic energy          :        -527.14322539 Ha      -14344.29699257 eV
  | Energy correction for multipole
  | error in Hartree potential    :          -0.00029222 Ha          -0.00795173 eV
  | Sum of eigenvalues per atom                           :       -2149.97938114 eV
  | Total energy (T->0) per atom                          :       -3753.41286272 eV  <-- do not rely on this value for anything but (periodic) metals
  | Electronic free energy per atom                       :       -3753.41286272 eV
  Evaluating new KS density.
  Integration grid: deviation in total charge (<rho> - N_e) =   1.421085E-14

  Self-consistency convergence accuracy:
  | Change of charge density      :  0.4878E+00
  | Change of unmixed KS density  :  0.2005E+02
  | Change of sum of eigenvalues  : -0.2920E+03 eV
  | Change of total energy        : -0.1736E+03 eV


------------------------------------------------------------
  End self-consistency iteration #     1       :  max(cpu_time)    wall_clock(cpu1)
  | Time for this iteration                     :        0.078 s           0.078 s
  | Charge density update                       :        0.001 s           0.001 s
  | Density mixing                              :        0.000 s           0.001 s
  | Hartree multipole update                    :        0.001 s           0.001 s
  | Hartree multipole summation                 :        0.003 s           0.003 s
  | Integration                                 :        0.002 s           0.002 s
  | Fock matrix evaluation                      :        0.063 s           0.066 s
  | Solution of K.-S. eqns.                     :        0.004 s           0.002 s
  | Total energy evaluation                     :        0.000 s           0.000 s

  Partial memory accounting:
  | Current value for overall tracked memory usage:
  |   Minimum:        1.087 MB (on task  5)
  |   Maximum:        1.459 MB (on task 51)
  |   Average:        1.216 MB
  | Peak value for overall tracked memory usage:
  |   Minimum:        1.536 MB (on task  5 after allocating wave)
  |   Maximum:        2.503 MB (on task 34 after allocating ovlp3fn_nosplit%tmploc)
  |   Average:        1.702 MB
  | Largest tracked array allocation so far:
  |   Minimum:        0.691 MB (ovlp3fn2%dat on task  5)
  |   Maximum:        1.001 MB (ovlp3fn_nosplit%dat on task 34)
  |   Average:        0.804 MB
  Note:  These values currently only include a subset of arrays which are explicitly tracked.
  The "true" memory usage will be greater.
------------------------------------------------------------

------------------------------------------------------------
          Begin self-consistency iteration #    2

  Date     :  20260724, Time     :  093438.355
------------------------------------------------------------
  Pulay mixing of updated and previous charge densities.
  Available memory per node after mixing [GB]:   1027.02
  Renormalizing the density to the exact electron count on the 3D integration grid.
  | Formal number of electrons (from input files) :      20.0000000000
  | Integrated number of electrons on 3D grid     :      20.0000000000
  | Charge integration error                      :       0.0000000000
  | Normalization factor for density and gradient :       1.0000000000

  Evaluating partitioned Hartree potential by multipole expansion.
  | Original multipole sum: apparent total charge =  -0.118069E-14
  | Sum of charges compensated after spline to logarithmic grids =   0.590476E-06
  | Analytical far-field extrapolation by fixed multipoles:
  | Hartree multipole sum: apparent total charge =  -0.393564E-15
  Summing up the Hartree potential.
  Time summed over all CPUs for potential: real work        0.001 s, elapsed        0.002 s
  | RMS charge density error from multipole expansion :   0.114110E-02

  Integrating Hamiltonian matrix: batch-based integration.
  Time summed over all CPUs for integration: real work        0.085 s, elapsed        0.128 s => Consider using load balancing!
  Calculating non-local Hartree-Fock exchange by two-center RI (RI-LVL).
  screening_threshold (crit_val) =  0.000000100000
  Exact exchange progress report - outermost block loop i_block: 1 ..       3
  |        1         2         3  
 Total ovlp3fn data transfer [GB]   4.4889596756547689E-004
  Average sparsity of tmp1/2 0.50000000
  Average sparsity of fock_matrix_row 0.02325581
  Full exact exchange energy: weighted long- and short-range EXX    178.812745490023 eV.
  Times            DM_x_o3fn   CM_prod_1   CM_prod_2   tmp2_prod        Sync   Imbalance       Other  Total calc
  | Times    0:        0.000       0.000       0.000       0.000       0.000       0.000       0.010       0.011
  | Times    1:        0.000       0.000       0.000       0.000       0.000       0.001       0.010       0.011
  | Times    2:        0.000       0.001       0.000       0.000       0.000       0.000       0.009       0.011
  | Times    3:        0.000       0.000       0.000       0.000       0.000       0.001       0.010       0.011
  | Times    4:        0.000       0.001       0.000       0.000       0.000       0.001       0.009       0.011
  | Times    5:        0.000       0.000       0.000       0.000       0.000       0.001       0.009       0.011
  | Times    6:        0.000       0.001       0.000       0.000       0.000       0.000       0.009       0.011
  | Times    7:        0.000       0.000       0.000       0.000       0.000       0.001       0.009       0.011
  | Times    8:        0.000       0.001       0.000       0.000       0.000       0.000       0.010       0.011
  | Times    9:        0.000       0.000       0.000       0.000       0.000       0.001       0.010       0.011
  | Times   10:        0.000       0.001       0.000       0.000       0.000       0.000       0.009       0.011
  | Times   11:        0.000       0.000       0.000       0.000       0.000       0.001       0.010       0.011
  | Times   12:        0.000       0.000       0.000       0.000       0.000       0.000       0.010       0.011
  | Times   13:        0.000       0.000       0.000       0.000       0.000       0.001       0.010       0.011
  | Times   14:        0.000       0.000       0.000       0.000       0.000       0.000       0.010       0.011
  | Times   15:        0.000       0.000       0.000       0.000       0.000       0.001       0.010       0.011
  | Times   16:        0.000       0.001       0.000       0.000       0.000       0.000       0.010       0.011
  | Times   17:        0.000       0.000       0.000       0.000       0.000       0.001       0.010       0.011
  | Times   18:        0.000       0.001       0.000       0.000       0.000       0.000       0.009       0.011
  | Times   19:        0.000       0.000       0.000       0.000       0.000       0.001       0.010       0.011
  | Times   20:        0.000       0.001       0.000       0.000       0.000       0.000       0.010       0.011
  | Times   21:        0.000       0.000       0.000       0.000       0.000       0.001       0.010       0.011
  | Times   22:        0.000       0.001       0.000       0.000       0.000       0.000       0.010       0.011
  | Times   23:        0.000       0.000       0.000       0.000       0.000       0.001       0.010       0.011
  | Times   24:        0.000       0.000       0.000       0.000       0.000       0.000       0.010       0.011
  | Times   25:        0.000       0.000       0.000       0.000       0.000       0.001       0.010       0.011
  | Times   26:        0.000       0.000       0.000       0.000       0.000       0.000       0.010       0.011
  | Times   27:        0.000       0.000       0.000       0.000       0.000       0.001       0.010       0.011
  | Times   28:        0.000       0.000       0.000       0.000       0.000       0.000       0.010       0.011
  | Times   29:        0.000       0.000       0.000       0.000       0.000       0.001       0.010       0.011
  | Times   30:        0.000       0.001       0.000       0.000       0.000       0.000       0.010       0.011
  | Times   31:        0.000       0.000       0.000       0.000       0.000       0.001       0.010       0.011
  | Times   32:        0.000       0.000       0.000       0.000       0.000       0.000       0.010       0.011
  | Times   33:        0.000       0.000       0.000       0.000       0.000       0.001       0.010       0.011
  | Times   34:        0.000       0.001       0.000       0.000       0.000       0.000       0.010       0.011
  | Times   35:        0.000       0.000       0.000       0.000       0.000       0.001       0.010       0.011
  | Times   36:        0.000       0.001       0.000       0.000       0.000       0.000       0.009       0.011
  | Times   37:        0.000       0.000       0.000       0.000       0.000       0.001       0.009       0.011
  | Times   38:        0.000       0.001       0.000       0.000       0.000       0.000       0.010       0.011
  | Times   39:        0.000       0.000       0.000       0.000       0.000       0.001       0.009       0.011
  | Times   40:        0.000       0.000       0.000       0.000       0.000       0.000       0.010       0.011
  | Times   41:        0.000       0.000       0.000       0.000       0.000       0.001       0.010       0.011
  | Times   42:        0.000       0.000       0.000       0.000       0.000       0.000       0.010       0.011
  | Times   43:        0.000       0.000       0.000       0.000       0.000       0.001       0.010       0.011
  | Times   44:        0.000       0.001       0.000       0.000       0.000       0.000       0.009       0.011
  | Times   45:        0.000       0.000       0.000       0.000       0.000       0.001       0.010       0.011
  | Times   46:        0.000       0.001       0.000       0.000       0.000       0.000       0.010       0.011
  | Times   47:        0.000       0.000       0.000       0.000       0.000       0.001       0.010       0.011
  | Times   48:        0.000       0.001       0.000       0.000       0.000       0.000       0.009       0.011
  | Times   49:        0.000       0.000       0.000       0.000       0.000       0.001       0.009       0.011
  | Times   50:        0.000       0.001       0.000       0.000       0.000       0.000       0.010       0.011
  | Times   51:        0.000       0.000       0.000       0.000       0.000       0.001       0.009       0.011
  | Times   52:        0.000       0.001       0.000       0.000       0.000       0.000       0.010       0.011
  | Times   53:        0.000       0.000       0.000       0.000       0.000       0.001       0.010       0.011
  | Times   54:        0.000       0.001       0.000       0.000       0.000       0.000       0.010       0.011
  | Times   55:        0.000       0.000       0.000       0.000       0.000       0.001       0.010       0.011
  | Times   56:        0.000       0.000       0.000       0.000       0.000       0.000       0.010       0.011
  | Times   57:        0.000       0.000       0.000       0.000       0.000       0.001       0.010       0.011
  | Times   58:        0.000       0.000       0.000       0.000       0.000       0.000       0.010       0.011
  | Times   59:        0.000       0.000       0.000       0.000       0.000       0.001       0.010       0.011
  | Times   60:        0.000       0.001       0.000       0.000       0.000       0.000       0.009       0.011
  | Times   61:        0.000       0.000       0.000       0.000       0.000       0.001       0.010       0.011
  | Times   62:        0.000       0.001       0.000       0.000       0.000       0.000       0.010       0.011
  | Times   63:        0.000       0.000       0.000       0.000       0.000       0.001       0.010       0.011
  | Times  sum:        0.006       0.017       0.007       0.005       0.016       0.038       0.618       0.708

  Decomposition of Other based on code block (only on MPI task 0):
  Times             Block #1    Block #2    Block #3    Block #4    Block #5    Block #6    Block #7    Block #8
  | Times    0:        0.003       0.000       0.000       0.000       0.000       0.000       0.000       0.000

  Times             Block #9   Block #10   Block #11   Block #12   Block #13   Block #14   Block #15   Block #16
  | Times    0:        0.000       0.000       0.000       0.001       0.000       0.005       0.000       0.000

  Times            Block Sum    Expected
  | Times    0:        0.009       0.010
  Time for Fock matrix mixing     0.000

  Updating Kohn-Sham eigenvalues and eigenvectors using ELSI and the ELPA eigensolver.
  Starting ELPA eigensolver
  Finished transformation to standard eigenproblem
  | Time :     0.000 s
  Finished solving standard eigenproblem
  | Time :     0.000 s
  Finished back-transformation of eigenvectors
  | Time :     0.001 s

  Obtaining occupation numbers and electronic chemical potential using ELSI.
  | Note that, for insulating systems, the printed 'chemical potential' value is not uniquely defined.
  | It can be anywhere in the energy gap, as long as it correctly separates occupied and unoccupied states.
  | In systems with a gap, the physically relevant chemical potential is the VBM or HOMO.

  | Chemical potential (Fermi level):    -5.58468941 eV
  Highest occupied state (VBM) at    -10.30196874 eV
  | Occupation number:      2.00000000

  Lowest unoccupied state (CBM) at    -0.86741008 eV
  | Occupation number:      0.00000000

  Overall HOMO-LUMO gap:      9.43455865 eV.

  Checking to see if s.c.f. parameters should be adjusted.

  Total energy components:
  | Sum of eigenvalues            :        -155.73447388 Ha       -4237.75064872 eV
  | XC energy correction          :         -12.46110094 Ha        -339.08380886 eV
  | XC potential correction       :          25.98112890 Ha         706.98248826 eV
  | Free-atom electrostatic energy:        -130.45110463 Ha       -3549.75516663 eV
  | Hartree energy correction     :          -3.01752792 Ha         -82.11111241 eV
  | Entropy correction            :          -0.00000000 Ha          -0.00000000 eV
  | ---------------------------
  | Total energy                  :        -275.68307847 Ha       -7501.71824837 eV
  | Total energy, T -> 0          :        -275.68307847 Ha       -7501.71824837 eV  <-- do not rely on this value for anything but (periodic) metals
  | Electronic free energy        :        -275.68307847 Ha       -7501.71824837 eV

  Derived energy quantities:
  | Kinetic energy                :         277.98115256 Ha        7564.25202594 eV
  | Electrostatic energy          :        -528.15498459 Ha      -14371.82836140 eV
  | Energy correction for multipole
  | error in Hartree potential    :          -0.00094465 Ha          -0.02570514 eV
  | Sum of eigenvalues per atom                           :       -2118.87532436 eV
  | Total energy (T->0) per atom                          :       -3750.85912418 eV  <-- do not rely on this value for anything but (periodic) metals
  | Electronic free energy per atom                       :       -3750.85912418 eV
  Evaluating new KS density.
  Integration grid: deviation in total charge (<rho> - N_e) =   3.552714E-15

  Self-consistency convergence accuracy:
  | Change of charge density      :  0.4832E+00
  | Change of unmixed KS density  :  0.5530E-01
  | Change of sum of eigenvalues  :  0.6221E+02 eV
  | Change of total energy        :  0.5107E+01 eV


------------------------------------------------------------
  End self-consistency iteration #     2       :  max(cpu_time)    wall_clock(cpu1)
  | Time for this iteration                     :        0.270 s           0.102 s
  | Charge density update                       :        0.001 s           0.001 s
  | Density mixing                              :        0.252 s           0.082 s
  | Hartree multipole update                    :        0.001 s           0.002 s
  | Hartree multipole summation                 :        0.002 s           0.002 s
  | Integration                                 :        0.002 s           0.002 s
  | Fock matrix evaluation                      :        0.011 s           0.011 s
  | Solution of K.-S. eqns.                     :        0.001 s           0.002 s
  | Total energy evaluation                     :        0.000 s           0.000 s

  Partial memory accounting:
  | Current value for overall tracked memory usage:
  |   Minimum:        1.087 MB (on task  5)
  |   Maximum:        1.459 MB (on task 51)
  |   Average:        1.217 MB
  | Peak value for overall tracked memory usage:
  |   Minimum:        1.536 MB (on task  5 after allocating wave)
  |   Maximum:        2.503 MB (on task 34 after allocating ovlp3fn_nosplit%tmploc)
  |   Average:        1.702 MB
  | Largest tracked array allocation so far:
  |   Minimum:        0.691 MB (ovlp3fn2%dat on task  5)
  |   Maximum:        1.001 MB (ovlp3fn_nosplit%dat on task 34)
  |   Average:        0.804 MB
  Note:  These values currently only include a subset of arrays which are explicitly tracked.
  The "true" memory usage will be greater.
------------------------------------------------------------

------------------------------------------------------------
          Begin self-consistency iteration #    3

  Date     :  20260724, Time     :  093438.570
------------------------------------------------------------
  Pulay mixing of updated and previous charge densities.
  Available memory per node after mixing [GB]:   1027.00
  Renormalizing the density to the exact electron count on the 3D integration grid.
  | Formal number of electrons (from input files) :      20.0000000000
  | Integrated number of electrons on 3D grid     :      20.0000000000
  | Charge integration error                      :       0.0000000000
  | Normalization factor for density and gradient :       1.0000000000

  Evaluating partitioned Hartree potential by multipole expansion.
  | Original multipole sum: apparent total charge =  -0.423081E-14
  | Sum of charges compensated after spline to logarithmic grids =   0.102007E-05
  | Analytical far-field extrapolation by fixed multipoles:
  | Hartree multipole sum: apparent total charge =  -0.501794E-14
  Summing up the Hartree potential.
  Time summed over all CPUs for potential: real work        0.001 s, elapsed        0.001 s
  | RMS charge density error from multipole expansion :   0.201754E-02

  Integrating Hamiltonian matrix: batch-based integration.
  Time summed over all CPUs for integration: real work        0.081 s, elapsed        0.096 s
  Calculating non-local Hartree-Fock exchange by two-center RI (RI-LVL).
  screening_threshold (crit_val) =  0.000000100000
  Exact exchange progress report - outermost block loop i_block: 1 ..       3
  |        1         2         3  
 Total ovlp3fn data transfer [GB]   4.4889596756547689E-004
  Average sparsity of tmp1/2 0.50000000
  Average sparsity of fock_matrix_row 0.02325581
  Full exact exchange energy: weighted long- and short-range EXX    177.064944671004 eV.
  Times            DM_x_o3fn   CM_prod_1   CM_prod_2   tmp2_prod        Sync   Imbalance       Other  Total calc
  | Times    0:        0.000       0.001       0.000       0.000       0.000       0.000       0.007       0.008
  | Times    1:        0.000       0.000       0.000       0.000       0.000       0.001       0.006       0.008
  | Times    2:        0.000       0.001       0.000       0.000       0.000       0.000       0.006       0.008
  | Times    3:        0.000       0.000       0.000       0.000       0.000       0.001       0.006       0.008
  | Times    4:        0.000       0.001       0.000       0.000       0.000       0.000       0.006       0.008
  | Times    5:        0.000       0.000       0.000       0.000       0.000       0.001       0.006       0.008
  | Times    6:        0.000       0.001       0.000       0.000       0.000       0.000       0.006       0.008
  | Times    7:        0.000       0.000       0.000       0.000       0.000       0.001       0.006       0.008
  | Times    8:        0.000       0.000       0.000       0.000       0.000       0.000       0.007       0.008
  | Times    9:        0.000       0.000       0.000       0.000       0.000       0.001       0.007       0.008
  | Times   10:        0.000       0.001       0.000       0.000       0.000       0.000       0.007       0.008
  | Times   11:        0.000       0.000       0.000       0.000       0.000       0.001       0.007       0.008
  | Times   12:        0.000       0.001       0.000       0.000       0.000       0.000       0.007       0.008
  | Times   13:        0.000       0.000       0.000       0.000       0.000       0.001       0.007       0.008
  | Times   14:        0.000       0.001       0.000       0.000       0.000       0.000       0.006       0.008
  | Times   15:        0.000       0.000       0.000       0.000       0.000       0.001       0.007       0.008
  | Times   16:        0.000       0.001       0.000       0.000       0.000       0.000       0.007       0.008
  | Times   17:        0.000       0.000       0.000       0.000       0.000       0.001       0.006       0.008
  | Times   18:        0.000       0.001       0.000       0.000       0.000       0.000       0.006       0.008
  | Times   19:        0.000       0.000       0.000       0.000       0.000       0.001       0.006       0.008
  | Times   20:        0.000       0.001       0.000       0.000       0.000       0.000       0.007       0.008
  | Times   21:        0.000       0.000       0.000       0.000       0.000       0.001       0.007       0.008
  | Times   22:        0.000       0.001       0.000       0.000       0.000       0.000       0.006       0.008
  | Times   23:        0.000       0.000       0.000       0.000       0.000       0.001       0.007       0.008
  | Times   24:        0.000       0.001       0.000       0.000       0.000       0.000       0.006       0.008
  | Times   25:        0.000       0.000       0.000       0.000       0.000       0.001       0.006       0.008
  | Times   26:        0.000       0.001       0.000       0.000       0.000       0.000       0.006       0.008
  | Times   27:        0.000       0.000       0.000       0.000       0.000       0.001       0.006       0.008
  | Times   28:        0.000       0.001       0.000       0.000       0.000       0.000       0.006       0.008
  | Times   29:        0.000       0.000       0.000       0.000       0.000       0.001       0.006       0.008
  | Times   30:        0.000       0.001       0.000       0.000       0.000       0.000       0.006       0.008
  | Times   31:        0.000       0.000       0.000       0.000       0.000       0.001       0.006       0.008
  | Times   32:        0.000       0.000       0.000       0.000       0.000       0.000       0.007       0.008
  | Times   33:        0.000       0.000       0.000       0.000       0.000       0.001       0.007       0.008
  | Times   34:        0.000       0.000       0.000       0.000       0.000       0.000       0.007       0.008
  | Times   35:        0.000       0.000       0.000       0.000       0.000       0.001       0.007       0.008
  | Times   36:        0.000       0.000       0.000       0.000       0.000       0.000       0.006       0.008
  | Times   37:        0.000       0.000       0.000       0.000       0.000       0.001       0.006       0.008
  | Times   38:        0.000       0.001       0.000       0.000       0.000       0.000       0.007       0.008
  | Times   39:        0.000       0.000       0.000       0.000       0.000       0.001       0.006       0.008
  | Times   40:        0.000       0.000       0.000       0.000       0.000       0.000       0.007       0.008
  | Times   41:        0.000       0.000       0.000       0.000       0.000       0.001       0.007       0.008
  | Times   42:        0.000       0.000       0.000       0.000       0.000       0.000       0.007       0.008
  | Times   43:        0.000       0.000       0.000       0.000       0.000       0.001       0.007       0.008
  | Times   44:        0.000       0.000       0.000       0.000       0.000       0.000       0.006       0.008
  | Times   45:        0.000       0.000       0.000       0.000       0.000       0.001       0.006       0.008
  | Times   46:        0.000       0.001       0.000       0.000       0.000       0.000       0.007       0.008
  | Times   47:        0.000       0.000       0.000       0.000       0.000       0.001       0.007       0.008
  | Times   48:        0.000       0.000       0.000       0.000       0.000       0.000       0.007       0.008
  | Times   49:        0.000       0.000       0.000       0.000       0.000       0.001       0.007       0.008
  | Times   50:        0.000       0.000       0.000       0.000       0.000       0.000       0.007       0.008
  | Times   51:        0.000       0.000       0.000       0.000       0.000       0.001       0.007       0.008
  | Times   52:        0.000       0.001       0.000       0.000       0.000       0.000       0.007       0.008
  | Times   53:        0.000       0.000       0.000       0.000       0.000       0.001       0.007       0.008
  | Times   54:        0.000       0.001       0.000       0.000       0.000       0.000       0.007       0.008
  | Times   55:        0.000       0.000       0.000       0.000       0.000       0.001       0.007       0.008
  | Times   56:        0.000       0.001       0.000       0.000       0.000       0.000       0.006       0.008
  | Times   57:        0.000       0.000       0.000       0.000       0.000       0.001       0.006       0.008
  | Times   58:        0.000       0.001       0.000       0.000       0.000       0.000       0.007       0.008
  | Times   59:        0.000       0.000       0.000       0.000       0.000       0.001       0.007       0.008
  | Times   60:        0.000       0.000       0.000       0.000       0.000       0.000       0.007       0.008
  | Times   61:        0.000       0.000       0.000       0.000       0.000       0.001       0.007       0.008
  | Times   62:        0.000       0.000       0.000       0.000       0.000       0.000       0.007       0.008
  | Times   63:        0.000       0.000       0.000       0.000       0.000       0.001       0.007       0.008
  | Times  sum:        0.006       0.017       0.007       0.005       0.016       0.038       0.423       0.512

  Decomposition of Other based on code block (only on MPI task 0):
  Times             Block #1    Block #2    Block #3    Block #4    Block #5    Block #6    Block #7    Block #8
  | Times    0:        0.000       0.000       0.000       0.000       0.000       0.000       0.000       0.000

  Times             Block #9   Block #10   Block #11   Block #12   Block #13   Block #14   Block #15   Block #16
  | Times    0:        0.000       0.000       0.000       0.001       0.000       0.005       0.000       0.000

  Times            Block Sum    Expected
  | Times    0:        0.006       0.007
  Time for Fock matrix mixing     0.000

  Updating Kohn-Sham eigenvalues and eigenvectors using ELSI and the ELPA eigensolver.
  Starting ELPA eigensolver
  Finished transformation to standard eigenproblem
  | Time :     0.000 s
  Finished solving standard eigenproblem
  | Time :     0.006 s
  Finished back-transformation of eigenvectors
  | Time :     0.000 s

  Obtaining occupation numbers and electronic chemical potential using ELSI.
  | Note that, for insulating systems, the printed 'chemical potential' value is not uniquely defined.
  | It can be anywhere in the energy gap, as long as it correctly separates occupied and unoccupied states.
  | In systems with a gap, the physically relevant chemical potential is the VBM or HOMO.

  | Chemical potential (Fermi level):    -3.59017316 eV
  Highest occupied state (VBM) at     -6.09747182 eV
  | Occupation number:      2.00000000

  Lowest unoccupied state (CBM) at    -1.08287450 eV
  | Occupation number:      0.00000000

  Overall HOMO-LUMO gap:      5.01459732 eV.

  Total energy components:
  | Sum of eigenvalues            :        -153.62343387 Ha       -4180.30632737 eV
  | XC energy correction          :         -12.70967428 Ha        -345.84783363 eV
  | XC potential correction       :          26.21810112 Ha         713.43083038 eV
  | Free-atom electrostatic energy:        -130.45110463 Ha       -3549.75516663 eV
  | Hartree energy correction     :          -5.12896578 Ha        -139.56625979 eV
  | Entropy correction            :          -0.00000000 Ha          -0.00000000 eV
  | ---------------------------
  | Total energy                  :        -275.69507744 Ha       -7502.04475704 eV
  | Total energy, T -> 0          :        -275.69507744 Ha       -7502.04475704 eV  <-- do not rely on this value for anything but (periodic) metals
  | Electronic free energy        :        -275.69507744 Ha       -7502.04475704 eV

  Derived energy quantities:
  | Kinetic energy                :         278.89903678 Ha        7589.22892650 eV
  | Electrostatic energy          :        -528.99592120 Ha      -14394.71141079 eV
  | Energy correction for multipole
  | error in Hartree potential    :          -0.00158337 Ha          -0.04308575 eV
  | Sum of eigenvalues per atom                           :       -2090.15316368 eV
  | Total energy (T->0) per atom                          :       -3751.02237852 eV  <-- do not rely on this value for anything but (periodic) metals
  | Electronic free energy per atom                       :       -3751.02237852 eV
  Evaluating new KS density.
  Integration grid: deviation in total charge (<rho> - N_e) =   0.000000E+00

  Self-consistency convergence accuracy:
  | Change of charge density      :  0.2213E+00
  | Change of unmixed KS density  :  0.1806E+00
  | Change of sum of eigenvalues  :  0.5744E+02 eV
  | Change of total energy        : -0.3265E+00 eV


------------------------------------------------------------
  End self-consistency iteration #     3       :  max(cpu_time)    wall_clock(cpu1)
  | Time for this iteration                     :        0.351 s           0.253 s
  | Charge density update                       :        0.001 s           0.001 s
  | Density mixing                              :        0.331 s           0.233 s
  | Hartree multipole update                    :        0.001 s           0.001 s
  | Hartree multipole summation                 :        0.002 s           0.001 s
  | Integration                                 :        0.002 s           0.001 s
  | Fock matrix evaluation                      :        0.008 s           0.009 s
  | Solution of K.-S. eqns.                     :        0.006 s           0.006 s
  | Total energy evaluation                     :        0.000 s           0.000 s

  Partial memory accounting:
  | Current value for overall tracked memory usage:
  |   Minimum:        1.087 MB (on task  5)
  |   Maximum:        1.459 MB (on task 51)
  |   Average:        1.217 MB
  | Peak value for overall tracked memory usage:
  |   Minimum:        1.536 MB (on task  5 after allocating wave)
  |   Maximum:        2.503 MB (on task 34 after allocating ovlp3fn_nosplit%tmploc)
  |   Average:        1.702 MB
  | Largest tracked array allocation so far:
  |   Minimum:        0.691 MB (ovlp3fn2%dat on task  5)
  |   Maximum:        1.001 MB (ovlp3fn_nosplit%dat on task 34)
  |   Average:        0.804 MB
  Note:  These values currently only include a subset of arrays which are explicitly tracked.
  The "true" memory usage will be greater.
------------------------------------------------------------

------------------------------------------------------------
          Begin self-consistency iteration #    4

  Date     :  20260724, Time     :  093438.966
------------------------------------------------------------
  Pulay mixing of updated and previous charge densities.
  Available memory per node after mixing [GB]:   1026.99
  Renormalizing the density to the exact electron count on the 3D integration grid.
  | Formal number of electrons (from input files) :      20.0000000000
  | Integrated number of electrons on 3D grid     :      20.0000000000
  | Charge integration error                      :       0.0000000000
  | Normalization factor for density and gradient :       1.0000000000

  Evaluating partitioned Hartree potential by multipole expansion.
  | Original multipole sum: apparent total charge =   0.245977E-15
  | Sum of charges compensated after spline to logarithmic grids =   0.547730E-06
  | Analytical far-field extrapolation by fixed multipoles:
  | Hartree multipole sum: apparent total charge =  -0.737932E-15
  Summing up the Hartree potential.
  Time summed over all CPUs for potential: real work        0.001 s, elapsed        0.001 s
  | RMS charge density error from multipole expansion :   0.156897E-02

  Integrating Hamiltonian matrix: batch-based integration.
  Time summed over all CPUs for integration: real work        0.080 s, elapsed        0.096 s
  Calculating non-local Hartree-Fock exchange by two-center RI (RI-LVL).
  screening_threshold (crit_val) =  0.000000100000
  Exact exchange progress report - outermost block loop i_block: 1 ..       3
  |        1         2         3  
 Total ovlp3fn data transfer [GB]   4.4889596756547689E-004
  Average sparsity of tmp1/2 0.50000000
  Average sparsity of fock_matrix_row 0.02325581
  Full exact exchange energy: weighted long- and short-range EXX    174.345916033001 eV.
  Times            DM_x_o3fn   CM_prod_1   CM_prod_2   tmp2_prod        Sync   Imbalance       Other  Total calc
  | Times    0:        0.000       0.000       0.000       0.000       0.000       0.000       0.042       0.044
  | Times    1:        0.000       0.000       0.000       0.000       0.000       0.001       0.042       0.044
  | Times    2:        0.000       0.001       0.000       0.000       0.000       0.000       0.042       0.044
  | Times    3:        0.000       0.000       0.000       0.000       0.000       0.001       0.042       0.044
  | Times    4:        0.000       0.001       0.000       0.000       0.000       0.000       0.042       0.044
  | Times    5:        0.000       0.000       0.000       0.000       0.000       0.001       0.042       0.044
  | Times    6:        0.000       0.001       0.000       0.000       0.000       0.000       0.042       0.044
  | Times    7:        0.000       0.000       0.000       0.000       0.000       0.001       0.042       0.044
  | Times    8:        0.000       0.000       0.000       0.000       0.000       0.000       0.043       0.044
  | Times    9:        0.000       0.000       0.000       0.000       0.000       0.001       0.043       0.044
  | Times   10:        0.000       0.000       0.000       0.000       0.000       0.000       0.042       0.044
  | Times   11:        0.000       0.000       0.000       0.000       0.000       0.001       0.043       0.044
  | Times   12:        0.000       0.001       0.000       0.000       0.000       0.000       0.042       0.044
  | Times   13:        0.000       0.000       0.000       0.000       0.000       0.001       0.042       0.044
  | Times   14:        0.000       0.001       0.000       0.000       0.000       0.000       0.042       0.044
  | Times   15:        0.000       0.000       0.000       0.000       0.000       0.001       0.042       0.044
  | Times   16:        0.000       0.001       0.000       0.000       0.000       0.000       0.042       0.044
  | Times   17:        0.000       0.000       0.000       0.000       0.000       0.001       0.042       0.044
  | Times   18:        0.000       0.001       0.000       0.000       0.000       0.000       0.042       0.044
  | Times   19:        0.000       0.000       0.000       0.000       0.000       0.001       0.042       0.044
  | Times   20:        0.000       0.001       0.000       0.000       0.000       0.000       0.042       0.044
  | Times   21:        0.000       0.000       0.000       0.000       0.000       0.001       0.042       0.044
  | Times   22:        0.000       0.001       0.000       0.000       0.000       0.000       0.042       0.044
  | Times   23:        0.000       0.000       0.000       0.000       0.000       0.001       0.042       0.044
  | Times   24:        0.000       0.000       0.000       0.000       0.000       0.000       0.043       0.044
  | Times   25:        0.000       0.000       0.000       0.000       0.000       0.001       0.043       0.044
  | Times   26:        0.000       0.000       0.000       0.000       0.000       0.000       0.042       0.044
  | Times   27:        0.000       0.000       0.000       0.000       0.000       0.001       0.043       0.044
  | Times   28:        0.000       0.000       0.000       0.000       0.000       0.000       0.042       0.044
  | Times   29:        0.000       0.000       0.000       0.000       0.000       0.001       0.042       0.044
  | Times   30:        0.000       0.001       0.000       0.000       0.000       0.000       0.042       0.044
  | Times   31:        0.000       0.000       0.000       0.000       0.000       0.001       0.042       0.044
  | Times   32:        0.000       0.001       0.000       0.000       0.000       0.000       0.042       0.044
  | Times   33:        0.000       0.000       0.000       0.000       0.000       0.001       0.042       0.044
  | Times   34:        0.000       0.001       0.000       0.000       0.000       0.000       0.042       0.044
  | Times   35:        0.000       0.000       0.000       0.000       0.000       0.001       0.042       0.044
  | Times   36:        0.000       0.000       0.000       0.000       0.000       0.000       0.042       0.044
  | Times   37:        0.000       0.000       0.000       0.000       0.000       0.001       0.043       0.044
  | Times   38:        0.000       0.000       0.000       0.000       0.000       0.000       0.043       0.044
  | Times   39:        0.000       0.000       0.000       0.000       0.000       0.001       0.043       0.044
  | Times   40:        0.000       0.001       0.000       0.000       0.000       0.000       0.042       0.044
  | Times   41:        0.000       0.000       0.000       0.000       0.000       0.001       0.042       0.044
  | Times   42:        0.000       0.001       0.000       0.000       0.000       0.000       0.042       0.044
  | Times   43:        0.000       0.000       0.000       0.000       0.000       0.001       0.042       0.044
  | Times   44:        0.000       0.001       0.000       0.000       0.000       0.000       0.042       0.044
  | Times   45:        0.000       0.000       0.000       0.000       0.000       0.001       0.042       0.044
  | Times   46:        0.000       0.001       0.000       0.000       0.000       0.000       0.042       0.044
  | Times   47:        0.000       0.000       0.000       0.000       0.000       0.001       0.042       0.044
  | Times   48:        0.000       0.000       0.000       0.000       0.000       0.000       0.042       0.044
  | Times   49:        0.000       0.000       0.000       0.000       0.000       0.001       0.042       0.044
  | Times   50:        0.000       0.000       0.000       0.000       0.000       0.000       0.043       0.044
  | Times   51:        0.000       0.000       0.000       0.000       0.000       0.001       0.043       0.044
  | Times   52:        0.000       0.001       0.000       0.000       0.000       0.000       0.042       0.044
  | Times   53:        0.000       0.000       0.000       0.000       0.000       0.001       0.042       0.044
  | Times   54:        0.000       0.001       0.000       0.000       0.000       0.000       0.042       0.044
  | Times   55:        0.000       0.000       0.000       0.000       0.000       0.001       0.042       0.044
  | Times   56:        0.000       0.001       0.000       0.000       0.000       0.000       0.042       0.044
  | Times   57:        0.000       0.000       0.000       0.000       0.000       0.001       0.042       0.044
  | Times   58:        0.000       0.001       0.000       0.000       0.000       0.000       0.042       0.044
  | Times   59:        0.000       0.000       0.000       0.000       0.000       0.001       0.042       0.044
  | Times   60:        0.000       0.000       0.000       0.000       0.000       0.000       0.043       0.044
  | Times   61:        0.000       0.000       0.000       0.000       0.000       0.001       0.043       0.044
  | Times   62:        0.000       0.000       0.000       0.000       0.000       0.000       0.043       0.044
  | Times   63:        0.000       0.000       0.000       0.000       0.000       0.001       0.043       0.044
  | Times  sum:        0.006       0.017       0.007       0.005       0.014       0.037       2.707       2.793

  Decomposition of Other based on code block (only on MPI task 0):
  Times             Block #1    Block #2    Block #3    Block #4    Block #5    Block #6    Block #7    Block #8
  | Times    0:        0.036       0.000       0.000       0.000       0.000       0.000       0.000       0.000

  Times             Block #9   Block #10   Block #11   Block #12   Block #13   Block #14   Block #15   Block #16
  | Times    0:        0.000       0.000       0.000       0.001       0.000       0.004       0.000       0.000

  Times            Block Sum    Expected
  | Times    0:        0.042       0.042
  Time for Fock matrix mixing     0.000

  Updating Kohn-Sham eigenvalues and eigenvectors using ELSI and the ELPA eigensolver.
  Starting ELPA eigensolver
  Finished transformation to standard eigenproblem
  | Time :     0.000 s
  Finished solving standard eigenproblem
  | Time :     0.000 s
  Finished back-transformation of eigenvectors
  | Time :     0.001 s

  Obtaining occupation numbers and electronic chemical potential using ELSI.
  | Note that, for insulating systems, the printed 'chemical potential' value is not uniquely defined.
  | It can be anywhere in the energy gap, as long as it correctly separates occupied and unoccupied states.
  | In systems with a gap, the physically relevant chemical potential is the VBM or HOMO.

  | Chemical potential (Fermi level):    -6.14926084 eV
  Highest occupied state (VBM) at    -11.12411948 eV
  | Occupation number:      2.00000000

  Lowest unoccupied state (CBM) at    -1.17440220 eV
  | Occupation number:      0.00000000

  Overall HOMO-LUMO gap:      9.94971728 eV.

  Total energy components:
  | Sum of eigenvalues            :        -156.24602080 Ha       -4251.67054859 eV
  | XC energy correction          :         -12.43050818 Ha        -338.25133770 eV
  | XC potential correction       :          25.90489745 Ha         704.90812481 eV
  | Free-atom electrostatic energy:        -130.45110463 Ha       -3549.75516663 eV
  | Hartree energy correction     :          -2.45985921 Ha         -66.93617479 eV
  | Entropy correction            :          -0.00000000 Ha          -0.00000000 eV
  | ---------------------------
  | Total energy                  :        -275.68259538 Ha       -7501.70510289 eV
  | Total energy, T -> 0          :        -275.68259538 Ha       -7501.70510289 eV  <-- do not rely on this value for anything but (periodic) metals
  | Electronic free energy        :        -275.68259538 Ha       -7501.70510289 eV

  Derived energy quantities:
  | Kinetic energy                :         277.50174067 Ha        7551.20656492 eV
  | Electrostatic energy          :        -527.75364645 Ha      -14360.90739482 eV
  | Energy correction for multipole
  | error in Hartree potential    :          -0.00069874 Ha          -0.01901366 eV
  | Sum of eigenvalues per atom                           :       -2125.83527429 eV
  | Total energy (T->0) per atom                          :       -3750.85255145 eV  <-- do not rely on this value for anything but (periodic) metals
  | Electronic free energy per atom                       :       -3750.85255145 eV
  Evaluating new KS density.
  Integration grid: deviation in total charge (<rho> - N_e) =  -3.552714E-15

  Self-consistency convergence accuracy:
  | Change of charge density      :  0.1811E+00
  | Change of unmixed KS density  :  0.2373E+00
  | Change of sum of eigenvalues  : -0.7136E+02 eV
  | Change of total energy        :  0.3397E+00 eV


------------------------------------------------------------
  End self-consistency iteration #     4       :  max(cpu_time)    wall_clock(cpu1)
  | Time for this iteration                     :        0.316 s           0.190 s
  | Charge density update                       :        0.001 s           0.001 s
  | Density mixing                              :        0.265 s           0.139 s
  | Hartree multipole update                    :        0.001 s           0.001 s
  | Hartree multipole summation                 :        0.002 s           0.002 s
  | Integration                                 :        0.002 s           0.002 s
  | Fock matrix evaluation                      :        0.044 s           0.044 s
  | Solution of K.-S. eqns.                     :        0.001 s           0.001 s
  | Total energy evaluation                     :        0.000 s           0.000 s

  Partial memory accounting:
  | Current value for overall tracked memory usage:
  |   Minimum:        1.087 MB (on task  5)
  |   Maximum:        1.459 MB (on task 51)
  |   Average:        1.217 MB
  | Peak value for overall tracked memory usage:
  |   Minimum:        1.536 MB (on task  5 after allocating wave)
  |   Maximum:        2.503 MB (on task 34 after allocating ovlp3fn_nosplit%tmploc)
  |   Average:        1.702 MB
  | Largest tracked array allocation so far:
  |   Minimum:        0.691 MB (ovlp3fn2%dat on task  5)
  |   Maximum:        1.001 MB (ovlp3fn_nosplit%dat on task 34)
  |   Average:        0.804 MB
  Note:  These values currently only include a subset of arrays which are explicitly tracked.
  The "true" memory usage will be greater.
------------------------------------------------------------

------------------------------------------------------------
          Begin self-consistency iteration #    5

  Date     :  20260724, Time     :  093439.219
------------------------------------------------------------
  Pulay mixing of updated and previous charge densities.
  Available memory per node after mixing [GB]:   1026.99
  Renormalizing the density to the exact electron count on the 3D integration grid.
  | Formal number of electrons (from input files) :      20.0000000000
  | Integrated number of electrons on 3D grid     :      20.0000000000
  | Charge integration error                      :       0.0000000000
  | Normalization factor for density and gradient :       1.0000000000

  Evaluating partitioned Hartree potential by multipole expansion.
  | Original multipole sum: apparent total charge =  -0.885519E-15
  | Sum of charges compensated after spline to logarithmic grids =   0.990970E-06
  | Analytical far-field extrapolation by fixed multipoles:
  | Hartree multipole sum: apparent total charge =   0.295173E-15
  Summing up the Hartree potential.
  Time summed over all CPUs for potential: real work        0.001 s, elapsed        0.001 s
  | RMS charge density error from multipole expansion :   0.354625E-02

  Integrating Hamiltonian matrix: batch-based integration.
  Time summed over all CPUs for integration: real work        0.080 s, elapsed        0.093 s
  Calculating non-local Hartree-Fock exchange by two-center RI (RI-LVL).
  screening_threshold (crit_val) =  0.000000100000
  Exact exchange progress report - outermost block loop i_block: 1 ..       3
  |        1         2         3  
 Total ovlp3fn data transfer [GB]   4.4889596756547689E-004
  Average sparsity of tmp1/2 0.50000000
  Average sparsity of fock_matrix_row 0.02325581
  Full exact exchange energy: weighted long- and short-range EXX    177.203331731149 eV.
  Times            DM_x_o3fn   CM_prod_1   CM_prod_2   tmp2_prod        Sync   Imbalance       Other  Total calc
  | Times    0:        0.000       0.001       0.000       0.000       0.000       0.000       0.033       0.034
  | Times    1:        0.000       0.000       0.000       0.000       0.000       0.001       0.033       0.034
  | Times    2:        0.000       0.001       0.000       0.000       0.000       0.000       0.033       0.034
  | Times    3:        0.000       0.000       0.000       0.000       0.000       0.001       0.033       0.034
  | Times    4:        0.000       0.001       0.000       0.000       0.000       0.000       0.033       0.034
  | Times    5:        0.000       0.000       0.000       0.000       0.000       0.001       0.033       0.034
  | Times    6:        0.000       0.001       0.000       0.000       0.000       0.000       0.033       0.034
  | Times    7:        0.000       0.000       0.000       0.000       0.000       0.001       0.033       0.034
  | Times    8:        0.000       0.000       0.000       0.000       0.000       0.000       0.033       0.034
  | Times    9:        0.000       0.000       0.000       0.000       0.000       0.001       0.033       0.034
  | Times   10:        0.000       0.000       0.000       0.000       0.000       0.000       0.033       0.034
  | Times   11:        0.000       0.000       0.000       0.000       0.000       0.001       0.033       0.034
  | Times   12:        0.000       0.000       0.000       0.000       0.000       0.000       0.033       0.034
  | Times   13:        0.000       0.000       0.000       0.000       0.000       0.001       0.033       0.034
  | Times   14:        0.000       0.001       0.000       0.000       0.000       0.000       0.033       0.034
  | Times   15:        0.000       0.000       0.000       0.000       0.000       0.001       0.033       0.034
  | Times   16:        0.000       0.000       0.000       0.000       0.000       0.000       0.033       0.034
  | Times   17:        0.000       0.000       0.000       0.000       0.000       0.001       0.033       0.034
  | Times   18:        0.000       0.001       0.000       0.000       0.000       0.000       0.033       0.034
  | Times   19:        0.000       0.000       0.000       0.000       0.000       0.001       0.033       0.034
  | Times   20:        0.000       0.001       0.000       0.000       0.000       0.000       0.033       0.034
  | Times   21:        0.000       0.000       0.000       0.000       0.000       0.001       0.033       0.034
  | Times   22:        0.000       0.001       0.000       0.000       0.000       0.000       0.033       0.034
  | Times   23:        0.000       0.000       0.000       0.000       0.000       0.001       0.033       0.034
  | Times   24:        0.000       0.000       0.000       0.000       0.000       0.000       0.033       0.034
  | Times   25:        0.000       0.000       0.000       0.000       0.000       0.001       0.033       0.034
  | Times   26:        0.000       0.000       0.000       0.000       0.000       0.000       0.033       0.034
  | Times   27:        0.000       0.000       0.000       0.000       0.000       0.001       0.033       0.034
  | Times   28:        0.000       0.001       0.000       0.000       0.000       0.000       0.033       0.034
  | Times   29:        0.000       0.000       0.000       0.000       0.000       0.001       0.033       0.034
  | Times   30:        0.000       0.001       0.000       0.000       0.000       0.000       0.033       0.034
  | Times   31:        0.000       0.000       0.000       0.000       0.000       0.001       0.033       0.034
  | Times   32:        0.000       0.001       0.000       0.000       0.000       0.000       0.033       0.034
  | Times   33:        0.000       0.000       0.000       0.000       0.000       0.001       0.033       0.034
  | Times   34:        0.000       0.001       0.000       0.000       0.000       0.000       0.033       0.034
  | Times   35:        0.000       0.000       0.000       0.000       0.000       0.001       0.033       0.034
  | Times   36:        0.000       0.001       0.000       0.000       0.000       0.000       0.033       0.034
  | Times   37:        0.000       0.000       0.000       0.000       0.000       0.001       0.033       0.034
  | Times   38:        0.000       0.001       0.000       0.000       0.000       0.000       0.033       0.034
  | Times   39:        0.000       0.000       0.000       0.000       0.000       0.001       0.033       0.034
  | Times   40:        0.000       0.000       0.000       0.000       0.000       0.000       0.033       0.034
  | Times   41:        0.000       0.000       0.000       0.000       0.000       0.001       0.033       0.034
  | Times   42:        0.000       0.000       0.000       0.000       0.000       0.000       0.033       0.034
  | Times   43:        0.000       0.000       0.000       0.000       0.000       0.001       0.033       0.034
  | Times   44:        0.000       0.001       0.000       0.000       0.000       0.000       0.033       0.034
  | Times   45:        0.000       0.000       0.000       0.000       0.000       0.001       0.033       0.034
  | Times   46:        0.000       0.001       0.000       0.000       0.000       0.000       0.033       0.034
  | Times   47:        0.000       0.000       0.000       0.000       0.000       0.001       0.033       0.034
  | Times   48:        0.000       0.000       0.000       0.000       0.000       0.000       0.033       0.034
  | Times   49:        0.000       0.000       0.000       0.000       0.000       0.001       0.033       0.034
  | Times   50:        0.000       0.000       0.000       0.000       0.000       0.000       0.033       0.034
  | Times   51:        0.000       0.000       0.000       0.000       0.000       0.001       0.033       0.034
  | Times   52:        0.000       0.001       0.000       0.000       0.000       0.000       0.033       0.034
  | Times   53:        0.000       0.000       0.000       0.000       0.000       0.001       0.033       0.034
  | Times   54:        0.000       0.001       0.000       0.000       0.000       0.000       0.033       0.034
  | Times   55:        0.000       0.000       0.000       0.000       0.000       0.001       0.033       0.034
  | Times   56:        0.000       0.000       0.000       0.000       0.000       0.000       0.033       0.034
  | Times   57:        0.000       0.000       0.000       0.000       0.000       0.001       0.033       0.034
  | Times   58:        0.000       0.001       0.000       0.000       0.000       0.000       0.033       0.034
  | Times   59:        0.000       0.000       0.000       0.000       0.000       0.001       0.033       0.034
  | Times   60:        0.000       0.000       0.000       0.000       0.000       0.000       0.033       0.034
  | Times   61:        0.000       0.000       0.000       0.000       0.000       0.001       0.033       0.034
  | Times   62:        0.000       0.000       0.000       0.000       0.000       0.000       0.033       0.034
  | Times   63:        0.000       0.000       0.000       0.000       0.000       0.001       0.033       0.034
  | Times  sum:        0.006       0.017       0.007       0.005       0.014       0.037       2.106       2.191

  Decomposition of Other based on code block (only on MPI task 0):
  Times             Block #1    Block #2    Block #3    Block #4    Block #5    Block #6    Block #7    Block #8
  | Times    0:        0.027       0.000       0.000       0.000       0.000       0.000       0.000       0.000

  Times             Block #9   Block #10   Block #11   Block #12   Block #13   Block #14   Block #15   Block #16
  | Times    0:        0.000       0.000       0.000       0.001       0.000       0.004       0.000       0.000

  Times            Block Sum    Expected
  | Times    0:        0.032       0.033
  Time for Fock matrix mixing     0.024

  Updating Kohn-Sham eigenvalues and eigenvectors using ELSI and the ELPA eigensolver.
  Starting ELPA eigensolver
  Finished transformation to standard eigenproblem
  | Time :     0.000 s
  Finished solving standard eigenproblem
  | Time :     0.001 s
  Finished back-transformation of eigenvectors
  | Time :     0.000 s

  Obtaining occupation numbers and electronic chemical potential using ELSI.
  | Note that, for insulating systems, the printed 'chemical potential' value is not uniquely defined.
  | It can be anywhere in the energy gap, as long as it correctly separates occupied and unoccupied states.
  | In systems with a gap, the physically relevant chemical potential is the VBM or HOMO.

  | Chemical potential (Fermi level):    -4.36991547 eV
  Highest occupied state (VBM) at     -7.25703386 eV
  | Occupation number:      2.00000000

  Lowest unoccupied state (CBM) at    -1.48279708 eV
  | Occupation number:      0.00000000

  Overall HOMO-LUMO gap:      5.77423678 eV.

  Total energy components:
  | Sum of eigenvalues            :        -154.31936492 Ha       -4199.24357457 eV
  | XC energy correction          :         -12.67873660 Ha        -345.00597663 eV
  | XC potential correction       :          26.09955820 Ha         710.20511346 eV
  | Free-atom electrostatic energy:        -130.45110463 Ha       -3549.75516663 eV
  | Hartree energy correction     :          -4.31890620 Ha        -117.52341713 eV
  | Entropy correction            :          -0.00000000 Ha          -0.00000000 eV
  | ---------------------------
  | Total energy                  :        -275.66855415 Ha       -7501.32302150 eV
  | Total energy, T -> 0          :        -275.66855415 Ha       -7501.32302150 eV  <-- do not rely on this value for anything but (periodic) metals
  | Electronic free energy        :        -275.66855415 Ha       -7501.32302150 eV

  Derived energy quantities:
  | Kinetic energy                :         278.05589727 Ha        7566.28593299 eV
  | Electrostatic energy          :        -528.26405145 Ha      -14374.79622146 eV
  | Energy correction for multipole
  | error in Hartree potential    :          -0.00110684 Ha          -0.03011855 eV
  | Sum of eigenvalues per atom                           :       -2099.62178728 eV
  | Total energy (T->0) per atom                          :       -3750.66151075 eV  <-- do not rely on this value for anything but (periodic) metals
  | Electronic free energy per atom                       :       -3750.66151075 eV
  Evaluating new KS density.
  Integration grid: deviation in total charge (<rho> - N_e) =   0.000000E+00

  Self-consistency convergence accuracy:
  | Change of charge density      :  0.2755E+00
  | Change of unmixed KS density  :  0.2632E+00
  | Change of sum of eigenvalues  :  0.5243E+02 eV
  | Change of total energy        :  0.3821E+00 eV


------------------------------------------------------------
  End self-consistency iteration #     5       :  max(cpu_time)    wall_clock(cpu1)
  | Time for this iteration                     :        0.327 s           0.278 s
  | Charge density update                       :        0.001 s           0.001 s
  | Density mixing                              :        0.263 s           0.213 s
  | Hartree multipole update                    :        0.001 s           0.001 s
  | Hartree multipole summation                 :        0.002 s           0.002 s
  | Integration                                 :        0.002 s           0.002 s
  | Fock matrix evaluation                      :        0.058 s           0.058 s
  | Solution of K.-S. eqns.                     :        0.001 s           0.001 s
  | Total energy evaluation                     :        0.000 s           0.000 s

  Partial memory accounting:
  | Current value for overall tracked memory usage:
  |   Minimum:        1.087 MB (on task  5)
  |   Maximum:        1.460 MB (on task 51)
  |   Average:        1.217 MB
  | Peak value for overall tracked memory usage:
  |   Minimum:        1.536 MB (on task  5 after allocating wave)
  |   Maximum:        2.503 MB (on task 34 after allocating ovlp3fn_nosplit%tmploc)
  |   Average:        1.702 MB
  | Largest tracked array allocation so far:
  |   Minimum:        0.691 MB (ovlp3fn2%dat on task  5)
  |   Maximum:        1.001 MB (ovlp3fn_nosplit%dat on task 34)
  |   Average:        0.804 MB
  Note:  These values currently only include a subset of arrays which are explicitly tracked.
  The "true" memory usage will be greater.
------------------------------------------------------------

------------------------------------------------------------
          Begin self-consistency iteration #    6

  Date     :  20260724, Time     :  093439.534
------------------------------------------------------------
  Pulay mixing of updated and previous charge densities.
  Available memory per node after mixing [GB]:   1026.99
  Renormalizing the density to the exact electron count on the 3D integration grid.
  | Formal number of electrons (from input files) :      20.0000000000
  | Integrated number of electrons on 3D grid     :      20.0000000000
  | Charge integration error                      :       0.0000000000
  | Normalization factor for density and gradient :       1.0000000000

  Evaluating partitioned Hartree potential by multipole expansion.
  | Original multipole sum: apparent total charge =  -0.108230E-14
  | Sum of charges compensated after spline to logarithmic grids =   0.987126E-06
  | Analytical far-field extrapolation by fixed multipoles:
  | Hartree multipole sum: apparent total charge =   0.983910E-15
  Summing up the Hartree potential.
  Time summed over all CPUs for potential: real work        0.001 s, elapsed        0.001 s
  | RMS charge density error from multipole expansion :   0.357509E-02

  Integrating Hamiltonian matrix: batch-based integration.
  Time summed over all CPUs for integration: real work        0.081 s, elapsed        0.097 s
  Calculating non-local Hartree-Fock exchange by two-center RI (RI-LVL).
  screening_threshold (crit_val) =  0.000000100000
  Exact exchange progress report - outermost block loop i_block: 1 ..       3
  |        1         2         3  
 Total ovlp3fn data transfer [GB]   4.4889596756547689E-004
  Average sparsity of tmp1/2 0.50000000
  Average sparsity of fock_matrix_row 0.02325581
  Full exact exchange energy: weighted long- and short-range EXX    173.493513829022 eV.
  Times            DM_x_o3fn   CM_prod_1   CM_prod_2   tmp2_prod        Sync   Imbalance       Other  Total calc
  | Times    0:        0.000       0.001       0.000       0.000       0.000       0.000       0.017       0.018
  | Times    1:        0.000       0.000       0.000       0.000       0.000       0.001       0.017       0.018
  | Times    2:        0.000       0.001       0.000       0.000       0.000       0.000       0.017       0.018
  | Times    3:        0.000       0.000       0.000       0.000       0.000       0.001       0.017       0.018
  | Times    4:        0.000       0.001       0.000       0.000       0.000       0.000       0.017       0.018
  | Times    5:        0.000       0.000       0.000       0.000       0.000       0.001       0.017       0.018
  | Times    6:        0.000       0.001       0.000       0.000       0.000       0.000       0.017       0.018
  | Times    7:        0.000       0.000       0.000       0.000       0.000       0.001       0.017       0.018
  | Times    8:        0.000       0.000       0.000       0.000       0.000       0.000       0.017       0.018
  | Times    9:        0.000       0.000       0.000       0.000       0.000       0.001       0.017       0.018
  | Times   10:        0.000       0.000       0.000       0.000       0.000       0.000       0.017       0.018
  | Times   11:        0.000       0.000       0.000       0.000       0.000       0.001       0.017       0.018
  | Times   12:        0.000       0.000       0.000       0.000       0.000       0.000       0.017       0.018
  | Times   13:        0.000       0.000       0.000       0.000       0.000       0.001       0.017       0.018
  | Times   14:        0.000       0.001       0.000       0.000       0.000       0.000       0.017       0.018
  | Times   15:        0.000       0.000       0.000       0.000       0.000       0.001       0.017       0.018
  | Times   16:        0.000       0.001       0.000       0.000       0.000       0.000       0.017       0.018
  | Times   17:        0.000       0.000       0.000       0.000       0.000       0.001       0.017       0.018
  | Times   18:        0.000       0.001       0.000       0.000       0.000       0.000       0.017       0.018
  | Times   19:        0.000       0.000       0.000       0.000       0.000       0.001       0.017       0.018
  | Times   20:        0.000       0.001       0.000       0.000       0.000       0.000       0.017       0.018
  | Times   21:        0.000       0.000       0.000       0.000       0.000       0.001       0.017       0.018
  | Times   22:        0.000       0.001       0.000       0.000       0.000       0.000       0.017       0.018
  | Times   23:        0.000       0.000       0.000       0.000       0.000       0.001       0.017       0.018
  | Times   24:        0.000       0.000       0.000       0.000       0.000       0.000       0.017       0.018
  | Times   25:        0.000       0.000       0.000       0.000       0.000       0.001       0.017       0.018
  | Times   26:        0.000       0.000       0.000       0.000       0.000       0.000       0.017       0.018
  | Times   27:        0.000       0.000       0.000       0.000       0.000       0.001       0.017       0.018
  | Times   28:        0.000       0.001       0.000       0.000       0.000       0.000       0.017       0.018
  | Times   29:        0.000       0.000       0.000       0.000       0.000       0.001       0.017       0.018
  | Times   30:        0.000       0.001       0.000       0.000       0.000       0.000       0.017       0.018
  | Times   31:        0.000       0.000       0.000       0.000       0.000       0.001       0.017       0.018
  | Times   32:        0.000       0.000       0.000       0.000       0.000       0.000       0.017       0.018
  | Times   33:        0.000       0.000       0.000       0.000       0.000       0.001       0.017       0.018
  | Times   34:        0.000       0.001       0.000       0.000       0.000       0.000       0.017       0.018
  | Times   35:        0.000       0.000       0.000       0.000       0.000       0.001       0.017       0.018
  | Times   36:        0.000       0.000       0.000       0.000       0.000       0.000       0.017       0.018
  | Times   37:        0.000       0.000       0.000       0.000       0.000       0.001       0.017       0.018
  | Times   38:        0.000       0.000       0.000       0.000       0.000       0.000       0.017       0.018
  | Times   39:        0.000       0.000       0.000       0.000       0.000       0.001       0.017       0.018
  | Times   40:        0.000       0.001       0.000       0.000       0.000       0.000       0.017       0.018
  | Times   41:        0.000       0.000       0.000       0.000       0.000       0.001       0.017       0.018
  | Times   42:        0.000       0.001       0.000       0.000       0.000       0.000       0.017       0.018
  | Times   43:        0.000       0.000       0.000       0.000       0.000       0.001       0.017       0.018
  | Times   44:        0.000       0.000       0.000       0.000       0.000       0.000       0.017       0.018
  | Times   45:        0.000       0.000       0.000       0.000       0.000       0.001       0.017       0.018
  | Times   46:        0.000       0.001       0.000       0.000       0.000       0.000       0.017       0.018
  | Times   47:        0.000       0.000       0.000       0.000       0.000       0.001       0.017       0.018
  | Times   48:        0.000       0.000       0.000       0.000       0.000       0.000       0.017       0.018
  | Times   49:        0.000       0.000       0.000       0.000       0.000       0.001       0.017       0.018
  | Times   50:        0.000       0.000       0.000       0.000       0.000       0.000       0.017       0.018
  | Times   51:        0.000       0.000       0.000       0.000       0.000       0.001       0.017       0.018
  | Times   52:        0.000       0.001       0.000       0.000       0.000       0.000       0.017       0.018
  | Times   53:        0.000       0.000       0.000       0.000       0.000       0.001       0.017       0.018
  | Times   54:        0.000       0.001       0.000       0.000       0.000       0.000       0.017       0.018
  | Times   55:        0.000       0.000       0.000       0.000       0.000       0.001       0.017       0.018
  | Times   56:        0.000       0.001       0.000       0.000       0.000       0.000       0.017       0.018
  | Times   57:        0.000       0.000       0.000       0.000       0.000       0.001       0.017       0.018
  | Times   58:        0.000       0.001       0.000       0.000       0.000       0.000       0.017       0.018
  | Times   59:        0.000       0.000       0.000       0.000       0.000       0.001       0.017       0.018
  | Times   60:        0.000       0.000       0.000       0.000       0.000       0.000       0.017       0.018
  | Times   61:        0.000       0.000       0.000       0.000       0.000       0.001       0.017       0.018
  | Times   62:        0.000       0.000       0.000       0.000       0.000       0.000       0.017       0.018
  | Times   63:        0.000       0.000       0.000       0.000       0.000       0.001       0.017       0.018
  | Times  sum:        0.006       0.017       0.007       0.005       0.013       0.037       1.083       1.168

  Decomposition of Other based on code block (only on MPI task 0):
  Times             Block #1    Block #2    Block #3    Block #4    Block #5    Block #6    Block #7    Block #8
  | Times    0:        0.008       0.000       0.000       0.000       0.000       0.000       0.000       0.000

  Times             Block #9   Block #10   Block #11   Block #12   Block #13   Block #14   Block #15   Block #16
  | Times    0:        0.000       0.000       0.000       0.004       0.000       0.005       0.000       0.000

  Times            Block Sum    Expected
  | Times    0:        0.016       0.017
  Time for Fock matrix mixing     0.000

  Updating Kohn-Sham eigenvalues and eigenvectors using ELSI and the ELPA eigensolver.
  Starting ELPA eigensolver
  Finished transformation to standard eigenproblem
  | Time :     0.001 s
  Finished solving standard eigenproblem
  | Time :     0.000 s
  Finished back-transformation of eigenvectors
  | Time :     0.000 s

  Obtaining occupation numbers and electronic chemical potential using ELSI.
  | Note that, for insulating systems, the printed 'chemical potential' value is not uniquely defined.
  | It can be anywhere in the energy gap, as long as it correctly separates occupied and unoccupied states.
  | In systems with a gap, the physically relevant chemical potential is the VBM or HOMO.

  | Chemical potential (Fermi level):    -4.30777859 eV
  Highest occupied state (VBM) at     -7.15667499 eV
  | Occupation number:      2.00000000

  Lowest unoccupied state (CBM) at    -1.45888219 eV
  | Occupation number:      0.00000000

  Overall HOMO-LUMO gap:      5.69779280 eV.

  Total energy components:
  | Sum of eigenvalues            :        -154.25336850 Ha       -4197.44772077 eV
  | XC energy correction          :         -12.68960069 Ha        -345.30160356 eV
  | XC potential correction       :          26.10742418 Ha         710.41915758 eV
  | Free-atom electrostatic energy:        -130.45110463 Ha       -3549.75516663 eV
  | Hartree energy correction     :          -4.38779127 Ha        -119.39787541 eV
  | Entropy correction            :          -0.00000000 Ha          -0.00000000 eV
  | ---------------------------
  | Total energy                  :        -275.67444092 Ha       -7501.48320879 eV
  | Total energy, T -> 0          :        -275.67444092 Ha       -7501.48320879 eV  <-- do not rely on this value for anything but (periodic) metals
  | Electronic free energy        :        -275.67444092 Ha       -7501.48320879 eV

  Derived energy quantities:
  | Kinetic energy                :         278.08658452 Ha        7567.12097563 eV
  | Electrostatic energy          :        -528.30024319 Ha      -14375.78104881 eV
  | Energy correction for multipole
  | error in Hartree potential    :          -0.00111250 Ha          -0.03027269 eV
  | Sum of eigenvalues per atom                           :       -2098.72386039 eV
  | Total energy (T->0) per atom                          :       -3750.74160440 eV  <-- do not rely on this value for anything but (periodic) metals
  | Electronic free energy per atom                       :       -3750.74160440 eV
  Evaluating new KS density.
  Integration grid: deviation in total charge (<rho> - N_e) =   7.105427E-15

  Self-consistency convergence accuracy:
  | Change of charge density      :  0.7459E-01
  | Change of unmixed KS density  :  0.2887E+00
  | Change of sum of eigenvalues  :  0.1796E+01 eV
  | Change of total energy        : -0.1602E+00 eV


------------------------------------------------------------
  End self-consistency iteration #     6       :  max(cpu_time)    wall_clock(cpu1)
  | Time for this iteration                     :        0.333 s           0.313 s
  | Charge density update                       :        0.001 s           0.000 s
  | Density mixing                              :        0.310 s           0.288 s
  | Hartree multipole update                    :        0.001 s           0.001 s
  | Hartree multipole summation                 :        0.002 s           0.002 s
  | Integration                                 :        0.002 s           0.002 s
  | Fock matrix evaluation                      :        0.019 s           0.018 s
  | Solution of K.-S. eqns.                     :        0.001 s           0.001 s
  | Total energy evaluation                     :        0.000 s           0.001 s

  Partial memory accounting:
  | Current value for overall tracked memory usage:
  |   Minimum:        1.087 MB (on task  5)
  |   Maximum:        1.460 MB (on task 51)
  |   Average:        1.217 MB
  | Peak value for overall tracked memory usage:
  |   Minimum:        1.536 MB (on task  5 after allocating wave)
  |   Maximum:        2.503 MB (on task 34 after allocating ovlp3fn_nosplit%tmploc)
  |   Average:        1.702 MB
  | Largest tracked array allocation so far:
  |   Minimum:        0.691 MB (ovlp3fn2%dat on task  5)
  |   Maximum:        1.001 MB (ovlp3fn_nosplit%dat on task 34)
  |   Average:        0.804 MB
  Note:  These values currently only include a subset of arrays which are explicitly tracked.
  The "true" memory usage will be greater.
------------------------------------------------------------

------------------------------------------------------------
          Begin self-consistency iteration #    7

  Date     :  20260724, Time     :  093439.939
------------------------------------------------------------
  Pulay mixing of updated and previous charge densities.
  Available memory per node after mixing [GB]:   1026.99
  Renormalizing the density to the exact electron count on the 3D integration grid.
  | Formal number of electrons (from input files) :      20.0000000000
  | Integrated number of electrons on 3D grid     :      20.0000000000
  | Charge integration error                      :       0.0000000000
  | Normalization factor for density and gradient :       1.0000000000

  Evaluating partitioned Hartree potential by multipole expansion.
  | Original multipole sum: apparent total charge =  -0.305012E-14
  | Sum of charges compensated after spline to logarithmic grids =   0.616362E-06
  | Analytical far-field extrapolation by fixed multipoles:
  | Hartree multipole sum: apparent total charge =  -0.413242E-14
  Summing up the Hartree potential.
  Time summed over all CPUs for potential: real work        0.001 s, elapsed        0.001 s
  | RMS charge density error from multipole expansion :   0.331804E-02

  Integrating Hamiltonian matrix: batch-based integration.
  Time summed over all CPUs for integration: real work        0.081 s, elapsed        0.096 s
  Calculating non-local Hartree-Fock exchange by two-center RI (RI-LVL).
  screening_threshold (crit_val) =  0.000000100000
  Exact exchange progress report - outermost block loop i_block: 1 ..       3
  |        1         2         3  
 Total ovlp3fn data transfer [GB]   4.4889596756547689E-004
  Average sparsity of tmp1/2 0.50000000
  Average sparsity of fock_matrix_row 0.02325581
  Full exact exchange energy: weighted long- and short-range EXX    173.311479650060 eV.
  Times            DM_x_o3fn   CM_prod_1   CM_prod_2   tmp2_prod        Sync   Imbalance       Other  Total calc
  | Times    0:        0.000       0.001       0.000       0.000       0.000       0.000       0.007       0.009
  | Times    1:        0.000       0.000       0.000       0.000       0.000       0.001       0.007       0.009
  | Times    2:        0.000       0.001       0.000       0.000       0.000       0.000       0.007       0.009
  | Times    3:        0.000       0.000       0.000       0.000       0.000       0.001       0.007       0.009
  | Times    4:        0.000       0.001       0.000       0.000       0.000       0.000       0.007       0.009
  | Times    5:        0.000       0.000       0.000       0.000       0.000       0.001       0.007       0.009
  | Times    6:        0.000       0.001       0.000       0.000       0.000       0.000       0.007       0.009
  | Times    7:        0.000       0.000       0.000       0.000       0.000       0.001       0.007       0.009
  | Times    8:        0.000       0.000       0.000       0.000       0.000       0.000       0.008       0.009
  | Times    9:        0.000       0.000       0.000       0.000       0.000       0.001       0.008       0.009
  | Times   10:        0.000       0.000       0.000       0.000       0.000       0.000       0.007       0.009
  | Times   11:        0.000       0.000       0.000       0.000       0.000       0.001       0.008       0.009
  | Times   12:        0.000       0.000       0.000       0.000       0.000       0.000       0.007       0.009
  | Times   13:        0.000       0.000       0.000       0.000       0.000       0.001       0.007       0.009
  | Times   14:        0.000       0.001       0.000       0.000       0.000       0.000       0.007       0.009
  | Times   15:        0.000       0.000       0.000       0.000       0.000       0.001       0.007       0.009
  | Times   16:        0.000       0.001       0.000       0.000       0.000       0.000       0.007       0.009
  | Times   17:        0.000       0.000       0.000       0.000       0.000       0.001       0.007       0.009
  | Times   18:        0.000       0.001       0.000       0.000       0.000       0.000       0.007       0.009
  | Times   19:        0.000       0.000       0.000       0.000       0.000       0.001       0.007       0.009
  | Times   20:        0.000       0.001       0.000       0.000       0.000       0.000       0.007       0.009
  | Times   21:        0.000       0.000       0.000       0.000       0.000       0.001       0.007       0.009
  | Times   22:        0.000       0.001       0.000       0.000       0.000       0.000       0.007       0.009
  | Times   23:        0.000       0.000       0.000       0.000       0.000       0.001       0.007       0.009
  | Times   24:        0.000       0.001       0.000       0.000       0.000       0.000       0.007       0.009
  | Times   25:        0.000       0.000       0.000       0.000       0.000       0.001       0.007       0.009
  | Times   26:        0.000       0.001       0.000       0.000       0.000       0.000       0.007       0.009
  | Times   27:        0.000       0.000       0.000       0.000       0.000       0.001       0.007       0.009
  | Times   28:        0.000       0.000       0.000       0.000       0.000       0.000       0.008       0.009
  | Times   29:        0.000       0.000       0.000       0.000       0.000       0.001       0.008       0.009
  | Times   30:        0.000       0.000       0.000       0.000       0.000       0.000       0.008       0.009
  | Times   31:        0.000       0.000       0.000       0.000       0.000       0.001       0.008       0.009
  | Times   32:        0.000       0.001       0.000       0.000       0.000       0.000       0.007       0.009
  | Times   33:        0.000       0.000       0.000       0.000       0.000       0.001       0.007       0.009
  | Times   34:        0.000       0.001       0.000       0.000       0.000       0.000       0.007       0.009
  | Times   35:        0.000       0.000       0.000       0.000       0.000       0.001       0.007       0.009
  | Times   36:        0.000       0.001       0.000       0.000       0.000       0.000       0.007       0.009
  | Times   37:        0.000       0.000       0.000       0.000       0.000       0.001       0.007       0.009
  | Times   38:        0.000       0.001       0.000       0.000       0.000       0.000       0.007       0.009
  | Times   39:        0.000       0.000       0.000       0.000       0.000       0.001       0.007       0.009
  | Times   40:        0.000       0.000       0.000       0.000       0.000       0.000       0.007       0.009
  | Times   41:        0.000       0.000       0.000       0.000       0.000       0.001       0.008       0.009
  | Times   42:        0.000       0.000       0.000       0.000       0.000       0.000       0.008       0.009
  | Times   43:        0.000       0.000       0.000       0.000       0.000       0.001       0.008       0.009
  | Times   44:        0.000       0.001       0.000       0.000       0.000       0.000       0.007       0.009
  | Times   45:        0.000       0.000       0.000       0.000       0.000       0.001       0.007       0.009
  | Times   46:        0.000       0.001       0.000       0.000       0.000       0.000       0.007       0.009
  | Times   47:        0.000       0.000       0.000       0.000       0.000       0.001       0.007       0.009
  | Times   48:        0.000       0.000       0.000       0.000       0.000       0.000       0.007       0.009
  | Times   49:        0.000       0.000       0.000       0.000       0.000       0.001       0.007       0.009
  | Times   50:        0.000       0.000       0.000       0.000       0.000       0.000       0.008       0.009
  | Times   51:        0.000       0.000       0.000       0.000       0.000       0.001       0.008       0.009
  | Times   52:        0.000       0.001       0.000       0.000       0.000       0.000       0.007       0.009
  | Times   53:        0.000       0.000       0.000       0.000       0.000       0.001       0.007       0.009
  | Times   54:        0.000       0.001       0.000       0.000       0.000       0.000       0.007       0.009
  | Times   55:        0.000       0.000       0.000       0.000       0.000       0.001       0.007       0.009
  | Times   56:        0.000       0.001       0.000       0.000       0.000       0.000       0.007       0.009
  | Times   57:        0.000       0.000       0.000       0.000       0.000       0.001       0.007       0.009
  | Times   58:        0.000       0.001       0.000       0.000       0.000       0.000       0.007       0.009
  | Times   59:        0.000       0.000       0.000       0.000       0.000       0.001       0.007       0.009
  | Times   60:        0.000       0.000       0.000       0.000       0.000       0.000       0.008       0.009
  | Times   61:        0.000       0.000       0.000       0.000       0.000       0.001       0.008       0.009
  | Times   62:        0.000       0.000       0.000       0.000       0.000       0.000       0.008       0.009
  | Times   63:        0.000       0.000       0.000       0.000       0.000       0.001       0.008       0.009
  | Times  sum:        0.006       0.017       0.007       0.005       0.013       0.037       0.468       0.553

  Decomposition of Other based on code block (only on MPI task 0):
  Times             Block #1    Block #2    Block #3    Block #4    Block #5    Block #6    Block #7    Block #8
  | Times    0:        0.000       0.000       0.000       0.000       0.000       0.000       0.000       0.000

  Times             Block #9   Block #10   Block #11   Block #12   Block #13   Block #14   Block #15   Block #16
  | Times    0:        0.000       0.000       0.000       0.002       0.000       0.004       0.000       0.000

  Times            Block Sum    Expected
  | Times    0:        0.007       0.007
  Time for Fock matrix mixing     0.000

  Updating Kohn-Sham eigenvalues and eigenvectors using ELSI and the ELPA eigensolver.
  Starting ELPA eigensolver
  Finished transformation to standard eigenproblem
  | Time :     0.000 s
  Finished solving standard eigenproblem
  | Time :     0.001 s
  Finished back-transformation of eigenvectors
  | Time :     0.000 s

  Obtaining occupation numbers and electronic chemical potential using ELSI.
  | Note that, for insulating systems, the printed 'chemical potential' value is not uniquely defined.
  | It can be anywhere in the energy gap, as long as it correctly separates occupied and unoccupied states.
  | In systems with a gap, the physically relevant chemical potential is the VBM or HOMO.

  | Chemical potential (Fermi level):    -4.65061163 eV
  Highest occupied state (VBM) at     -7.91228365 eV
  | Occupation number:      2.00000000

  Lowest unoccupied state (CBM) at    -1.38893961 eV
  | Occupation number:      0.00000000

  Overall HOMO-LUMO gap:      6.52334403 eV.

  Total energy components:
  | Sum of eigenvalues            :        -154.61279751 Ha       -4207.22828163 eV
  | XC energy correction          :         -12.66422579 Ha        -344.61111747 eV
  | XC potential correction       :          26.06499607 Ha         709.26463016 eV
  | Free-atom electrostatic energy:        -130.45110463 Ha       -3549.75516663 eV
  | Hartree energy correction     :          -3.98834331 Ha        -108.52834342 eV
  | Entropy correction            :          -0.00000000 Ha          -0.00000000 eV
  | ---------------------------
  | Total energy                  :        -275.65147518 Ha       -7500.85827899 eV
  | Total energy, T -> 0          :        -275.65147518 Ha       -7500.85827899 eV  <-- do not rely on this value for anything but (periodic) metals
  | Electronic free energy        :        -275.65147518 Ha       -7500.85827899 eV

  Derived energy quantities:
  | Kinetic energy                :         278.14413072 Ha        7568.68688738 eV
  | Electrostatic energy          :        -528.36871305 Ha      -14377.64420860 eV
  | Energy correction for multipole
  | error in Hartree potential    :          -0.00079563 Ha          -0.02165026 eV
  | Sum of eigenvalues per atom                           :       -2103.61414082 eV
  | Total energy (T->0) per atom                          :       -3750.42913950 eV  <-- do not rely on this value for anything but (periodic) metals
  | Electronic free energy per atom                       :       -3750.42913950 eV
  Evaluating new KS density.
  Integration grid: deviation in total charge (<rho> - N_e) =   0.000000E+00

  Self-consistency convergence accuracy:
  | Change of charge density      :  0.9003E-01
  | Change of unmixed KS density  :  0.1366E-01
  | Change of sum of eigenvalues  : -0.9781E+01 eV
  | Change of total energy        :  0.6249E+00 eV


------------------------------------------------------------
  End self-consistency iteration #     7       :  max(cpu_time)    wall_clock(cpu1)
  | Time for this iteration                     :        0.273 s           0.203 s
  | Charge density update                       :        0.001 s           0.001 s
  | Density mixing                              :        0.259 s           0.187 s
  | Hartree multipole update                    :        0.001 s           0.001 s
  | Hartree multipole summation                 :        0.002 s           0.002 s
  | Integration                                 :        0.002 s           0.001 s
  | Fock matrix evaluation                      :        0.009 s           0.010 s
  | Solution of K.-S. eqns.                     :        0.001 s           0.001 s
  | Total energy evaluation                     :        0.000 s           0.000 s

  Partial memory accounting:
  | Current value for overall tracked memory usage:
  |   Minimum:        1.087 MB (on task  5)
  |   Maximum:        1.460 MB (on task 51)
  |   Average:        1.217 MB
  | Peak value for overall tracked memory usage:
  |   Minimum:        1.537 MB (on task  5 after allocating wave)
  |   Maximum:        2.503 MB (on task 34 after allocating ovlp3fn_nosplit%tmploc)
  |   Average:        1.702 MB
  | Largest tracked array allocation so far:
  |   Minimum:        0.691 MB (ovlp3fn2%dat on task  5)
  |   Maximum:        1.001 MB (ovlp3fn_nosplit%dat on task 34)
  |   Average:        0.804 MB
  Note:  These values currently only include a subset of arrays which are explicitly tracked.
  The "true" memory usage will be greater.
------------------------------------------------------------

------------------------------------------------------------
          Begin self-consistency iteration #    8

  Date     :  20260724, Time     :  093440.308
------------------------------------------------------------
  Pulay mixing of updated and previous charge densities.
  Available memory per node after mixing [GB]:   1026.98
  Renormalizing the density to the exact electron count on the 3D integration grid.
  | Formal number of electrons (from input files) :      20.0000000000
  | Integrated number of electrons on 3D grid     :      20.0000000000
  | Charge integration error                      :       0.0000000000
  | Normalization factor for density and gradient :       1.0000000000

  Evaluating partitioned Hartree potential by multipole expansion.
  | Original multipole sum: apparent total charge =  -0.108230E-14
  | Sum of charges compensated after spline to logarithmic grids =   0.696623E-06
  | Analytical far-field extrapolation by fixed multipoles:
  | Hartree multipole sum: apparent total charge =  -0.127908E-14
  Summing up the Hartree potential.
  Time summed over all CPUs for potential: real work        0.001 s, elapsed        0.001 s
  | RMS charge density error from multipole expansion :   0.340658E-02

  Integrating Hamiltonian matrix: batch-based integration.
  Time summed over all CPUs for integration: real work        0.082 s, elapsed        0.096 s
  Calculating non-local Hartree-Fock exchange by two-center RI (RI-LVL).
  screening_threshold (crit_val) =  0.000000100000
  Exact exchange progress report - outermost block loop i_block: 1 ..       3
  |        1         2         3  
 Total ovlp3fn data transfer [GB]   4.4889596756547689E-004
  Average sparsity of tmp1/2 0.50000000
  Average sparsity of fock_matrix_row 0.02325581
  Full exact exchange energy: weighted long- and short-range EXX    173.538641418505 eV.
  Times            DM_x_o3fn   CM_prod_1   CM_prod_2   tmp2_prod        Sync   Imbalance       Other  Total calc
  | Times    0:        0.000       0.000       0.000       0.000       0.000       0.000       0.006       0.008
  | Times    1:        0.000       0.000       0.000       0.000       0.000       0.001       0.006       0.008
  | Times    2:        0.000       0.001       0.000       0.000       0.000       0.000       0.006       0.008
  | Times    3:        0.000       0.000       0.000       0.000       0.000       0.001       0.006       0.008
  | Times    4:        0.000       0.001       0.000       0.000       0.000       0.000       0.006       0.008
  | Times    5:        0.000       0.000       0.000       0.000       0.000       0.001       0.006       0.008
  | Times    6:        0.000       0.001       0.000       0.000       0.000       0.000       0.007       0.008
  | Times    7:        0.000       0.000       0.000       0.000       0.000       0.001       0.006       0.008
  | Times    8:        0.000       0.000       0.000       0.000       0.000       0.000       0.007       0.008
  | Times    9:        0.000       0.000       0.000       0.000       0.000       0.001       0.007       0.008
  | Times   10:        0.000       0.000       0.000       0.000       0.000       0.000       0.007       0.008
  | Times   11:        0.000       0.000       0.000       0.000       0.000       0.001       0.007       0.008
  | Times   12:        0.000       0.001       0.000       0.000       0.000       0.000       0.006       0.008
  | Times   13:        0.000       0.000       0.000       0.000       0.000       0.001       0.006       0.008
  | Times   14:        0.000       0.001       0.000       0.000       0.000       0.000       0.006       0.008
  | Times   15:        0.000       0.000       0.000       0.000       0.000       0.001       0.006       0.008
  | Times   16:        0.000       0.001       0.000       0.000       0.000       0.000       0.006       0.008
  | Times   17:        0.000       0.000       0.000       0.000       0.000       0.001       0.006       0.008
  | Times   18:        0.000       0.001       0.000       0.000       0.000       0.000       0.006       0.008
  | Times   19:        0.000       0.000       0.000       0.000       0.000       0.001       0.006       0.008
  | Times   20:        0.000       0.001       0.000       0.000       0.000       0.000       0.007       0.008
  | Times   21:        0.000       0.000       0.000       0.000       0.000       0.001       0.006       0.008
  | Times   22:        0.000       0.001       0.000       0.000       0.000       0.000       0.006       0.008
  | Times   23:        0.000       0.000       0.000       0.000       0.000       0.001       0.006       0.008
  | Times   24:        0.000       0.001       0.000       0.000       0.000       0.000       0.006       0.008
  | Times   25:        0.000       0.000       0.000       0.000       0.000       0.001       0.006       0.008
  | Times   26:        0.000       0.001       0.000       0.000       0.000       0.000       0.006       0.008
  | Times   27:        0.000       0.000       0.000       0.000       0.000       0.001       0.006       0.008
  | Times   28:        0.000       0.001       0.000       0.000       0.000       0.000       0.006       0.008
  | Times   29:        0.000       0.000       0.000       0.000       0.000       0.001       0.006       0.008
  | Times   30:        0.000       0.001       0.000       0.000       0.000       0.000       0.006       0.008
  | Times   31:        0.000       0.000       0.000       0.000       0.000       0.001       0.006       0.008
  | Times   32:        0.000       0.000       0.000       0.000       0.000       0.000       0.007       0.008
  | Times   33:        0.000       0.000       0.000       0.000       0.000       0.001       0.007       0.008
  | Times   34:        0.000       0.000       0.000       0.000       0.000       0.000       0.007       0.008
  | Times   35:        0.000       0.000       0.000       0.000       0.000       0.001       0.007       0.008
  | Times   36:        0.000       0.001       0.000       0.000       0.000       0.000       0.006       0.008
  | Times   37:        0.000       0.000       0.000       0.000       0.000       0.001       0.006       0.008
  | Times   38:        0.000       0.001       0.000       0.000       0.000       0.000       0.006       0.008
  | Times   39:        0.000       0.000       0.000       0.000       0.000       0.001       0.006       0.008
  | Times   40:        0.000       0.000       0.000       0.000       0.000       0.000       0.007       0.008
  | Times   41:        0.000       0.000       0.000       0.000       0.000       0.001       0.007       0.008
  | Times   42:        0.000       0.000       0.000       0.000       0.000       0.000       0.007       0.008
  | Times   43:        0.000       0.000       0.000       0.000       0.000       0.001       0.007       0.008
  | Times   44:        0.000       0.000       0.000       0.000       0.000       0.000       0.006       0.008
  | Times   45:        0.000       0.000       0.000       0.000       0.000       0.001       0.006       0.008
  | Times   46:        0.000       0.001       0.000       0.000       0.000       0.000       0.006       0.008
  | Times   47:        0.000       0.000       0.000       0.000       0.000       0.001       0.006       0.008
  | Times   48:        0.000       0.000       0.000       0.000       0.000       0.000       0.007       0.008
  | Times   49:        0.000       0.000       0.000       0.000       0.000       0.001       0.007       0.008
  | Times   50:        0.000       0.000       0.000       0.000       0.000       0.000       0.007       0.008
  | Times   51:        0.000       0.000       0.000       0.000       0.000       0.001       0.007       0.008
  | Times   52:        0.000       0.001       0.000       0.000       0.000       0.000       0.006       0.008
  | Times   53:        0.000       0.000       0.000       0.000       0.000       0.001       0.006       0.008
  | Times   54:        0.000       0.001       0.000       0.000       0.000       0.000       0.006       0.008
  | Times   55:        0.000       0.000       0.000       0.000       0.000       0.001       0.006       0.008
  | Times   56:        0.000       0.001       0.000       0.000       0.000       0.000       0.006       0.008
  | Times   57:        0.000       0.000       0.000       0.000       0.000       0.001       0.006       0.008
  | Times   58:        0.000       0.001       0.000       0.000       0.000       0.000       0.006       0.008
  | Times   59:        0.000       0.000       0.000       0.000       0.000       0.001       0.006       0.008
  | Times   60:        0.000       0.000       0.000       0.000       0.000       0.000       0.007       0.008
  | Times   61:        0.000       0.000       0.000       0.000       0.000       0.001       0.007       0.008
  | Times   62:        0.000       0.000       0.000       0.000       0.000       0.000       0.007       0.008
  | Times   63:        0.000       0.000       0.000       0.000       0.000       0.001       0.007       0.008
  | Times  sum:        0.006       0.017       0.007       0.005       0.013       0.037       0.413       0.497

  Decomposition of Other based on code block (only on MPI task 0):
  Times             Block #1    Block #2    Block #3    Block #4    Block #5    Block #6    Block #7    Block #8
  | Times    0:        0.000       0.000       0.000       0.000       0.000       0.000       0.000       0.000

  Times             Block #9   Block #10   Block #11   Block #12   Block #13   Block #14   Block #15   Block #16
  | Times    0:        0.000       0.000       0.000       0.001       0.000       0.005       0.000       0.000

  Times            Block Sum    Expected
  | Times    0:        0.006       0.006
  Time for Fock matrix mixing     0.000

  Updating Kohn-Sham eigenvalues and eigenvectors using ELSI and the ELPA eigensolver.
  Starting ELPA eigensolver
  Finished transformation to standard eigenproblem
  | Time :     0.000 s
  Finished solving standard eigenproblem
  | Time :     0.001 s
  Finished back-transformation of eigenvectors
  | Time :     0.000 s

  Obtaining occupation numbers and electronic chemical potential using ELSI.
  | Note that, for insulating systems, the printed 'chemical potential' value is not uniquely defined.
  | It can be anywhere in the energy gap, as long as it correctly separates occupied and unoccupied states.
  | In systems with a gap, the physically relevant chemical potential is the VBM or HOMO.

  | Chemical potential (Fermi level):    -4.53660911 eV
  Highest occupied state (VBM) at     -7.67958171 eV
  | Occupation number:      2.00000000

  Lowest unoccupied state (CBM) at    -1.39363651 eV
  | Occupation number:      0.00000000

  Overall HOMO-LUMO gap:      6.28594519 eV.

  Total energy components:
  | Sum of eigenvalues            :        -154.48937277 Ha       -4203.86972369 eV
  | XC energy correction          :         -12.67590127 Ha        -344.92882329 eV
  | XC potential correction       :          26.07897162 Ha         709.64492402 eV
  | Free-atom electrostatic energy:        -130.45110463 Ha       -3549.75516663 eV
  | Hartree energy correction     :          -4.12104046 Ha        -112.13921650 eV
  | Entropy correction            :          -0.00000000 Ha          -0.00000000 eV
  | ---------------------------
  | Total energy                  :        -275.65844752 Ha       -7501.04800609 eV
  | Total energy, T -> 0          :        -275.65844752 Ha       -7501.04800609 eV  <-- do not rely on this value for anything but (periodic) metals
  | Electronic free energy        :        -275.65844752 Ha       -7501.04800609 eV

  Derived energy quantities:
  | Kinetic energy                :         278.14829668 Ha        7568.80024888 eV
  | Electrostatic energy          :        -528.37178587 Ha      -14377.72782416 eV
  | Energy correction for multipole
  | error in Hartree potential    :          -0.00087034 Ha          -0.02368313 eV
  | Sum of eigenvalues per atom                           :       -2101.93486184 eV
  | Total energy (T->0) per atom                          :       -3750.52400305 eV  <-- do not rely on this value for anything but (periodic) metals
  | Electronic free energy per atom                       :       -3750.52400305 eV
  Evaluating new KS density.
  Integration grid: deviation in total charge (<rho> - N_e) =   0.000000E+00

  Self-consistency convergence accuracy:
  | Change of charge density      :  0.4807E-01
  | Change of unmixed KS density  :  0.3370E-01
  | Change of sum of eigenvalues  :  0.3359E+01 eV
  | Change of total energy        : -0.1897E+00 eV


------------------------------------------------------------
  End self-consistency iteration #     8       :  max(cpu_time)    wall_clock(cpu1)
  | Time for this iteration                     :        0.274 s           0.125 s
  | Charge density update                       :        0.001 s           0.001 s
  | Density mixing                              :        0.261 s           0.110 s
  | Hartree multipole update                    :        0.001 s           0.001 s
  | Hartree multipole summation                 :        0.002 s           0.001 s
  | Integration                                 :        0.002 s           0.002 s
  | Fock matrix evaluation                      :        0.008 s           0.009 s
  | Solution of K.-S. eqns.                     :        0.001 s           0.001 s
  | Total energy evaluation                     :        0.000 s           0.000 s

  Partial memory accounting:
  | Current value for overall tracked memory usage:
  |   Minimum:        1.087 MB (on task  5)
  |   Maximum:        1.460 MB (on task 51)
  |   Average:        1.217 MB
  | Peak value for overall tracked memory usage:
  |   Minimum:        1.537 MB (on task  5 after allocating wave)
  |   Maximum:        2.503 MB (on task 34 after allocating ovlp3fn_nosplit%tmploc)
  |   Average:        1.702 MB
  | Largest tracked array allocation so far:
  |   Minimum:        0.691 MB (ovlp3fn2%dat on task  5)
  |   Maximum:        1.001 MB (ovlp3fn_nosplit%dat on task 34)
  |   Average:        0.804 MB
  Note:  These values currently only include a subset of arrays which are explicitly tracked.
  The "true" memory usage will be greater.
------------------------------------------------------------

------------------------------------------------------------
          Begin self-consistency iteration #    9

  Date     :  20260724, Time     :  093440.571
------------------------------------------------------------
  Pulay mixing of updated and previous charge densities.
  Available memory per node after mixing [GB]:   1026.98
  Renormalizing the density to the exact electron count on the 3D integration grid.
  | Formal number of electrons (from input files) :      20.0000000000
  | Integrated number of electrons on 3D grid     :      20.0000000000
  | Charge integration error                      :       0.0000000000
  | Normalization factor for density and gradient :       1.0000000000

  Evaluating partitioned Hartree potential by multipole expansion.
  | Original multipole sum: apparent total charge =   0.314851E-14
  | Sum of charges compensated after spline to logarithmic grids =   0.670447E-06
  | Analytical far-field extrapolation by fixed multipoles:
  | Hartree multipole sum: apparent total charge =   0.462437E-14
  Summing up the Hartree potential.
  Time summed over all CPUs for potential: real work        0.001 s, elapsed        0.001 s
  | RMS charge density error from multipole expansion :   0.325058E-02

  Integrating Hamiltonian matrix: batch-based integration.
  Time summed over all CPUs for integration: real work        0.083 s, elapsed        0.107 s
  Calculating non-local Hartree-Fock exchange by two-center RI (RI-LVL).
  screening_threshold (crit_val) =  0.000000100000
  Exact exchange progress report - outermost block loop i_block: 1 ..       3
  |        1         2         3  
 Total ovlp3fn data transfer [GB]   4.4889596756547689E-004
  Average sparsity of tmp1/2 0.50000000
  Average sparsity of fock_matrix_row 0.02325581
  Full exact exchange energy: weighted long- and short-range EXX    173.385466213374 eV.
  Times            DM_x_o3fn   CM_prod_1   CM_prod_2   tmp2_prod        Sync   Imbalance       Other  Total calc
  | Times    0:        0.000       0.000       0.000       0.000       0.000       0.000       0.007       0.009
  | Times    1:        0.000       0.000       0.000       0.000       0.000       0.001       0.007       0.009
  | Times    2:        0.000       0.001       0.000       0.000       0.000       0.000       0.007       0.009
  | Times    3:        0.000       0.000       0.000       0.000       0.000       0.001       0.007       0.009
  | Times    4:        0.000       0.001       0.000       0.000       0.000       0.000       0.007       0.009
  | Times    5:        0.000       0.000       0.000       0.000       0.000       0.001       0.007       0.009
  | Times    6:        0.000       0.001       0.000       0.000       0.000       0.000       0.008       0.009
  | Times    7:        0.000       0.000       0.000       0.000       0.000       0.001       0.007       0.009
  | Times    8:        0.000       0.000       0.000       0.000       0.000       0.000       0.008       0.009
  | Times    9:        0.000       0.000       0.000       0.000       0.000       0.001       0.008       0.009
  | Times   10:        0.000       0.000       0.000       0.000       0.000       0.000       0.008       0.009
  | Times   11:        0.000       0.000       0.000       0.000       0.000       0.001       0.008       0.009
  | Times   12:        0.000       0.001       0.000       0.000       0.000       0.000       0.007       0.009
  | Times   13:        0.000       0.000       0.000       0.000       0.000       0.001       0.007       0.009
  | Times   14:        0.000       0.001       0.000       0.000       0.000       0.000       0.007       0.009
  | Times   15:        0.000       0.000       0.000       0.000       0.000       0.001       0.007       0.009
  | Times   16:        0.000       0.001       0.000       0.000       0.000       0.000       0.007       0.009
  | Times   17:        0.000       0.000       0.000       0.000       0.000       0.001       0.007       0.009
  | Times   18:        0.000       0.001       0.000       0.000       0.000       0.000       0.007       0.009
  | Times   19:        0.000       0.000       0.000       0.000       0.000       0.001       0.007       0.009
  | Times   20:        0.000       0.001       0.000       0.000       0.000       0.000       0.007       0.009
  | Times   21:        0.000       0.000       0.000       0.000       0.000       0.001       0.007       0.009
  | Times   22:        0.000       0.001       0.000       0.000       0.000       0.001       0.007       0.009
  | Times   23:        0.000       0.000       0.000       0.000       0.000       0.001       0.007       0.009
  | Times   24:        0.000       0.001       0.000       0.000       0.000       0.000       0.007       0.009
  | Times   25:        0.000       0.000       0.000       0.000       0.000       0.001       0.007       0.009
  | Times   26:        0.000       0.001       0.000       0.000       0.000       0.000       0.007       0.009
  | Times   27:        0.000       0.000       0.000       0.000       0.000       0.001       0.007       0.009
  | Times   28:        0.000       0.000       0.000       0.000       0.000       0.000       0.008       0.009
  | Times   29:        0.000       0.000       0.000       0.000       0.000       0.001       0.008       0.009
  | Times   30:        0.000       0.000       0.000       0.000       0.000       0.000       0.008       0.009
  | Times   31:        0.000       0.000       0.000       0.000       0.000       0.001       0.008       0.009
  | Times   32:        0.000       0.001       0.000       0.000       0.000       0.000       0.007       0.009
  | Times   33:        0.000       0.000       0.000       0.000       0.000       0.001       0.007       0.009
  | Times   34:        0.000       0.001       0.000       0.000       0.000       0.000       0.007       0.009
  | Times   35:        0.000       0.000       0.000       0.000       0.000       0.001       0.007       0.009
  | Times   36:        0.000       0.000       0.000       0.000       0.000       0.000       0.008       0.009
  | Times   37:        0.000       0.000       0.000       0.000       0.000       0.001       0.008       0.009
  | Times   38:        0.000       0.000       0.000       0.000       0.000       0.000       0.008       0.009
  | Times   39:        0.000       0.000       0.000       0.000       0.000       0.001       0.008       0.009
  | Times   40:        0.000       0.001       0.000       0.000       0.000       0.000       0.007       0.009
  | Times   41:        0.000       0.000       0.000       0.000       0.000       0.001       0.007       0.009
  | Times   42:        0.000       0.001       0.000       0.000       0.000       0.000       0.007       0.009
  | Times   43:        0.000       0.000       0.000       0.000       0.000       0.001       0.007       0.009
  | Times   44:        0.000       0.001       0.000       0.000       0.000       0.000       0.007       0.009
  | Times   45:        0.000       0.000       0.000       0.000       0.000       0.001       0.007       0.009
  | Times   46:        0.000       0.001       0.000       0.000       0.000       0.000       0.007       0.009
  | Times   47:        0.000       0.000       0.000       0.000       0.000       0.001       0.007       0.009
  | Times   48:        0.000       0.000       0.000       0.000       0.000       0.000       0.008       0.009
  | Times   49:        0.000       0.000       0.000       0.000       0.000       0.001       0.008       0.009
  | Times   50:        0.000       0.000       0.000       0.000       0.000       0.000       0.008       0.009
  | Times   51:        0.000       0.000       0.000       0.000       0.000       0.001       0.008       0.009
  | Times   52:        0.000       0.001       0.000       0.000       0.000       0.000       0.007       0.009
  | Times   53:        0.000       0.000       0.000       0.000       0.000       0.001       0.007       0.009
  | Times   54:        0.000       0.001       0.000       0.000       0.000       0.000       0.007       0.009
  | Times   55:        0.000       0.000       0.000       0.000       0.000       0.001       0.007       0.009
  | Times   56:        0.000       0.001       0.000       0.000       0.000       0.000       0.007       0.009
  | Times   57:        0.000       0.000       0.000       0.000       0.000       0.001       0.007       0.009
  | Times   58:        0.000       0.001       0.000       0.000       0.000       0.000       0.007       0.009
  | Times   59:        0.000       0.000       0.000       0.000       0.000       0.001       0.007       0.009
  | Times   60:        0.000       0.000       0.000       0.000       0.000       0.000       0.008       0.009
  | Times   61:        0.000       0.000       0.000       0.000       0.000       0.001       0.008       0.009
  | Times   62:        0.000       0.000       0.000       0.000       0.000       0.000       0.008       0.009
  | Times   63:        0.000       0.000       0.000       0.000       0.000       0.001       0.008       0.009
  | Times  sum:        0.006       0.017       0.007       0.005       0.013       0.038       0.470       0.556

  Decomposition of Other based on code block (only on MPI task 0):
  Times             Block #1    Block #2    Block #3    Block #4    Block #5    Block #6    Block #7    Block #8
  | Times    0:        0.000       0.000       0.000       0.000       0.000       0.000       0.000       0.000

  Times             Block #9   Block #10   Block #11   Block #12   Block #13   Block #14   Block #15   Block #16
  | Times    0:        0.000       0.000       0.000       0.001       0.000       0.005       0.000       0.000

  Times            Block Sum    Expected
  | Times    0:        0.007       0.007
  Time for Fock matrix mixing     0.000

  Updating Kohn-Sham eigenvalues and eigenvectors using ELSI and the ELPA eigensolver.
  Starting ELPA eigensolver
  Finished transformation to standard eigenproblem
  | Time :     0.000 s
  Finished solving standard eigenproblem
  | Time :     0.001 s
  Finished back-transformation of eigenvectors
  | Time :     0.000 s

  Obtaining occupation numbers and electronic chemical potential using ELSI.
  | Note that, for insulating systems, the printed 'chemical potential' value is not uniquely defined.
  | It can be anywhere in the energy gap, as long as it correctly separates occupied and unoccupied states.
  | In systems with a gap, the physically relevant chemical potential is the VBM or HOMO.

  | Chemical potential (Fermi level):    -4.80118536 eV
  Highest occupied state (VBM) at     -8.31710057 eV
  | Occupation number:      2.00000000

  Lowest unoccupied state (CBM) at    -1.28527015 eV
  | Occupation number:      0.00000000

  Overall HOMO-LUMO gap:      7.03183042 eV.

  Total energy components:
  | Sum of eigenvalues            :        -154.84984617 Ha       -4213.67870386 eV
  | XC energy correction          :         -12.64511389 Ha        -344.09105604 eV
  | XC potential correction       :          26.03916389 Ha         708.56170059 eV
  | Free-atom electrostatic energy:        -130.45110463 Ha       -3549.75516663 eV
  | Hartree energy correction     :          -3.74379792 Ha        -101.87392456 eV
  | Entropy correction            :          -0.00000000 Ha          -0.00000000 eV
  | ---------------------------
  | Total energy                  :        -275.65069872 Ha       -7500.83715051 eV
  | Total energy, T -> 0          :        -275.65069872 Ha       -7500.83715051 eV  <-- do not rely on this value for anything but (periodic) metals
  | Electronic free energy        :        -275.65069872 Ha       -7500.83715051 eV

  Derived energy quantities:
  | Kinetic energy                :         278.06315953 Ha        7566.48354916 eV
  | Electrostatic energy          :        -528.30443123 Ha      -14375.89501127 eV
  | Energy correction for multipole
  | error in Hartree potential    :          -0.00073946 Ha          -0.02012174 eV
  | Sum of eigenvalues per atom                           :       -2106.83935193 eV
  | Total energy (T->0) per atom                          :       -3750.41857525 eV  <-- do not rely on this value for anything but (periodic) metals
  | Electronic free energy per atom                       :       -3750.41857525 eV
  Evaluating new KS density.
  Integration grid: deviation in total charge (<rho> - N_e) =   7.105427E-15

  Self-consistency convergence accuracy:
  | Change of charge density      :  0.6643E-01
  | Change of unmixed KS density  :  0.1412E-01
  | Change of sum of eigenvalues  : -0.9809E+01 eV
  | Change of total energy        :  0.2109E+00 eV


------------------------------------------------------------
  End self-consistency iteration #     9       :  max(cpu_time)    wall_clock(cpu1)
  | Time for this iteration                     :        0.286 s           0.162 s
  | Charge density update                       :        0.001 s           0.001 s
  | Density mixing                              :        0.272 s           0.146 s
  | Hartree multipole update                    :        0.001 s           0.001 s
  | Hartree multipole summation                 :        0.002 s           0.002 s
  | Integration                                 :        0.002 s           0.002 s
  | Fock matrix evaluation                      :        0.009 s           0.009 s
  | Solution of K.-S. eqns.                     :        0.001 s           0.001 s
  | Total energy evaluation                     :        0.000 s           0.000 s

  Partial memory accounting:
  | Current value for overall tracked memory usage:
  |   Minimum:        1.087 MB (on task  5)
  |   Maximum:        1.460 MB (on task 51)
  |   Average:        1.217 MB
  | Peak value for overall tracked memory usage:
  |   Minimum:        1.537 MB (on task  5 after allocating wave)
  |   Maximum:        2.503 MB (on task 34 after allocating ovlp3fn_nosplit%tmploc)
  |   Average:        1.702 MB
  | Largest tracked array allocation so far:
  |   Minimum:        0.691 MB (ovlp3fn2%dat on task  5)
  |   Maximum:        1.001 MB (ovlp3fn_nosplit%dat on task 34)
  |   Average:        0.804 MB
  Note:  These values currently only include a subset of arrays which are explicitly tracked.
  The "true" memory usage will be greater.
------------------------------------------------------------

------------------------------------------------------------
          Begin self-consistency iteration #   10

  Date     :  20260724, Time     :  093440.842
------------------------------------------------------------
  Pulay mixing of updated and previous charge densities.
  Available memory per node after mixing [GB]:   1026.98
  Renormalizing the density to the exact electron count on the 3D integration grid.
  | Formal number of electrons (from input files) :      20.0000000000
  | Integrated number of electrons on 3D grid     :      20.0000000000
  | Charge integration error                      :      -0.0000000000
  | Normalization factor for density and gradient :       1.0000000000

  Evaluating partitioned Hartree potential by multipole expansion.
  | Original multipole sum: apparent total charge =  -0.816645E-14
  | Sum of charges compensated after spline to logarithmic grids =   0.700116E-06
  | Analytical far-field extrapolation by fixed multipoles:
  | Hartree multipole sum: apparent total charge =  -0.550989E-14
  Summing up the Hartree potential.
  Time summed over all CPUs for potential: real work        0.001 s, elapsed        0.001 s
  | RMS charge density error from multipole expansion :   0.325559E-02

  Integrating Hamiltonian matrix: batch-based integration.
  Time summed over all CPUs for integration: real work        0.082 s, elapsed        0.100 s
  Calculating non-local Hartree-Fock exchange by two-center RI (RI-LVL).
  screening_threshold (crit_val) =  0.000000100000
  Exact exchange progress report - outermost block loop i_block: 1 ..       3
  |        1         2         3  
 Total ovlp3fn data transfer [GB]   4.4889596756547689E-004
  Average sparsity of tmp1/2 0.50000000
  Average sparsity of fock_matrix_row 0.02325581
  Full exact exchange energy: weighted long- and short-range EXX    173.554065088290 eV.
  Times            DM_x_o3fn   CM_prod_1   CM_prod_2   tmp2_prod        Sync   Imbalance       Other  Total calc
  | Times    0:        0.000       0.001       0.000       0.000       0.000       0.000       0.007       0.008
  | Times    1:        0.000       0.000       0.000       0.000       0.000       0.001       0.007       0.008
  | Times    2:        0.000       0.001       0.000       0.000       0.000       0.000       0.007       0.008
  | Times    3:        0.000       0.000       0.000       0.000       0.000       0.001       0.007       0.008
  | Times    4:        0.000       0.001       0.000       0.000       0.000       0.000       0.007       0.008
  | Times    5:        0.000       0.000       0.000       0.000       0.000       0.001       0.007       0.008
  | Times    6:        0.000       0.001       0.000       0.000       0.000       0.000       0.007       0.008
  | Times    7:        0.000       0.000       0.000       0.000       0.000       0.001       0.007       0.008
  | Times    8:        0.000       0.001       0.000       0.000       0.000       0.000       0.007       0.008
  | Times    9:        0.000       0.000       0.000       0.000       0.000       0.001       0.007       0.008
  | Times   10:        0.000       0.001       0.000       0.000       0.000       0.000       0.007       0.008
  | Times   11:        0.000       0.000       0.000       0.000       0.000       0.001       0.007       0.008
  | Times   12:        0.000       0.000       0.000       0.000       0.000       0.000       0.007       0.008
  | Times   13:        0.000       0.000       0.000       0.000       0.000       0.001       0.007       0.008
  | Times   14:        0.000       0.001       0.000       0.000       0.000       0.000       0.007       0.008
  | Times   15:        0.000       0.000       0.000       0.000       0.000       0.001       0.007       0.008
  | Times   16:        0.000       0.000       0.000       0.000       0.000       0.000       0.007       0.008
  | Times   17:        0.000       0.000       0.000       0.000       0.000       0.001       0.007       0.008
  | Times   18:        0.000       0.000       0.000       0.000       0.000       0.000       0.007       0.008
  | Times   19:        0.000       0.000       0.000       0.000       0.000       0.001       0.007       0.008
  | Times   20:        0.000       0.001       0.000       0.000       0.000       0.000       0.007       0.008
  | Times   21:        0.000       0.000       0.000       0.000       0.000       0.001       0.007       0.008
  | Times   22:        0.000       0.001       0.000       0.000       0.000       0.000       0.007       0.008
  | Times   23:        0.000       0.000       0.000       0.000       0.000       0.001       0.007       0.008
  | Times   24:        0.000       0.000       0.000       0.000       0.000       0.000       0.007       0.008
  | Times   25:        0.000       0.000       0.000       0.000       0.000       0.001       0.007       0.008
  | Times   26:        0.000       0.000       0.000       0.000       0.000       0.000       0.007       0.008
  | Times   27:        0.000       0.000       0.000       0.000       0.000       0.001       0.007       0.008
  | Times   28:        0.000       0.000       0.000       0.000       0.000       0.000       0.007       0.008
  | Times   29:        0.000       0.000       0.000       0.000       0.000       0.001       0.007       0.008
  | Times   30:        0.000       0.001       0.000       0.000       0.000       0.000       0.007       0.008
  | Times   31:        0.000       0.000       0.000       0.000       0.000       0.001       0.007       0.008
  | Times   32:        0.000       0.001       0.000       0.000       0.000       0.000       0.007       0.008
  | Times   33:        0.000       0.000       0.000       0.000       0.000       0.001       0.007       0.008
  | Times   34:        0.000       0.001       0.000       0.000       0.000       0.000       0.007       0.008
  | Times   35:        0.000       0.000       0.000       0.000       0.000       0.001       0.007       0.008
  | Times   36:        0.000       0.000       0.000       0.000       0.000       0.000       0.007       0.008
  | Times   37:        0.000       0.000       0.000       0.000       0.000       0.001       0.007       0.008
  | Times   38:        0.000       0.000       0.000       0.000       0.000       0.000       0.007       0.008
  | Times   39:        0.000       0.000       0.000       0.000       0.000       0.001       0.007       0.008
  | Times   40:        0.000       0.001       0.000       0.000       0.000       0.000       0.007       0.008
  | Times   41:        0.000       0.000       0.000       0.000       0.000       0.001       0.007       0.008
  | Times   42:        0.000       0.001       0.000       0.000       0.000       0.000       0.007       0.008
  | Times   43:        0.000       0.000       0.000       0.000       0.000       0.001       0.007       0.008
  | Times   44:        0.000       0.001       0.000       0.000       0.000       0.000       0.007       0.008
  | Times   45:        0.000       0.000       0.000       0.000       0.000       0.001       0.007       0.008
  | Times   46:        0.000       0.001       0.000       0.000       0.000       0.000       0.007       0.008
  | Times   47:        0.000       0.000       0.000       0.000       0.000       0.001       0.007       0.008
  | Times   48:        0.000       0.000       0.000       0.000       0.000       0.000       0.007       0.008
  | Times   49:        0.000       0.000       0.000       0.000       0.000       0.001       0.007       0.008
  | Times   50:        0.000       0.000       0.000       0.000       0.000       0.000       0.007       0.008
  | Times   51:        0.000       0.000       0.000       0.000       0.000       0.001       0.007       0.008
  | Times   52:        0.000       0.001       0.000       0.000       0.000       0.000       0.007       0.008
  | Times   53:        0.000       0.000       0.000       0.000       0.000       0.001       0.007       0.008
  | Times   54:        0.000       0.001       0.000       0.000       0.000       0.000       0.007       0.008
  | Times   55:        0.000       0.000       0.000       0.000       0.000       0.001       0.007       0.008
  | Times   56:        0.000       0.001       0.000       0.000       0.000       0.000       0.007       0.008
  | Times   57:        0.000       0.000       0.000       0.000       0.000       0.001       0.007       0.008
  | Times   58:        0.000       0.001       0.000       0.000       0.000       0.000       0.007       0.008
  | Times   59:        0.000       0.000       0.000       0.000       0.000       0.001       0.007       0.008
  | Times   60:        0.000       0.000       0.000       0.000       0.000       0.000       0.007       0.008
  | Times   61:        0.000       0.000       0.000       0.000       0.000       0.001       0.007       0.008
  | Times   62:        0.000       0.000       0.000       0.000       0.000       0.000       0.007       0.008
  | Times   63:        0.000       0.000       0.000       0.000       0.000       0.001       0.007       0.008
  | Times  sum:        0.006       0.017       0.007       0.005       0.013       0.037       0.444       0.529

  Decomposition of Other based on code block (only on MPI task 0):
  Times             Block #1    Block #2    Block #3    Block #4    Block #5    Block #6    Block #7    Block #8
  | Times    0:        0.000       0.000       0.000       0.000       0.000       0.000       0.000       0.000

  Times             Block #9   Block #10   Block #11   Block #12   Block #13   Block #14   Block #15   Block #16
  | Times    0:        0.000       0.000       0.000       0.001       0.000       0.005       0.000       0.000

  Times            Block Sum    Expected
  | Times    0:        0.006       0.007
  Time for Fock matrix mixing     0.000

  Updating Kohn-Sham eigenvalues and eigenvectors using ELSI and the ELPA eigensolver.
  Starting ELPA eigensolver
  Finished transformation to standard eigenproblem
  | Time :     0.000 s
  Finished solving standard eigenproblem
  | Time :     0.000 s
  Finished back-transformation of eigenvectors
  | Time :     0.000 s

  Obtaining occupation numbers and electronic chemical potential using ELSI.
  | Note that, for insulating systems, the printed 'chemical potential' value is not uniquely defined.
  | It can be anywhere in the energy gap, as long as it correctly separates occupied and unoccupied states.
  | In systems with a gap, the physically relevant chemical potential is the VBM or HOMO.

  | Chemical potential (Fermi level):    -4.80649113 eV
  Highest occupied state (VBM) at     -8.33769354 eV
  | Occupation number:      2.00000000

  Lowest unoccupied state (CBM) at    -1.27528872 eV
  | Occupation number:      0.00000000

  Overall HOMO-LUMO gap:      7.06240482 eV.

  Total energy components:
  | Sum of eigenvalues            :        -154.86701241 Ha       -4214.14582113 eV
  | XC energy correction          :         -12.64380653 Ha        -344.05548111 eV
  | XC potential correction       :          26.03729185 Ha         708.51075976 eV
  | Free-atom electrostatic energy:        -130.45110463 Ha       -3549.75516663 eV
  | Hartree energy correction     :          -3.72657855 Ha        -101.40536180 eV
  | Entropy correction            :          -0.00000000 Ha          -0.00000000 eV
  | ---------------------------
  | Total energy                  :        -275.65121028 Ha       -7500.85107091 eV
  | Total energy, T -> 0          :        -275.65121028 Ha       -7500.85107091 eV  <-- do not rely on this value for anything but (periodic) metals
  | Electronic free energy        :        -275.65121028 Ha       -7500.85107091 eV

  Derived energy quantities:
  | Kinetic energy                :         278.04904174 Ha        7566.09938468 eV
  | Electrostatic energy          :        -528.29218059 Ha      -14375.56165446 eV
  | Energy correction for multipole
  | error in Hartree potential    :          -0.00075241 Ha          -0.02047422 eV
  | Sum of eigenvalues per atom                           :       -2107.07291056 eV
  | Total energy (T->0) per atom                          :       -3750.42553545 eV  <-- do not rely on this value for anything but (periodic) metals
  | Electronic free energy per atom                       :       -3750.42553545 eV
  Evaluating new KS density.
  Integration grid: deviation in total charge (<rho> - N_e) =   3.552714E-15

  Self-consistency convergence accuracy:
  | Change of charge density      :  0.2876E-01
  | Change of unmixed KS density  :  0.2751E-01
  | Change of sum of eigenvalues  : -0.4671E+00 eV
  | Change of total energy        : -0.1392E-01 eV


------------------------------------------------------------
  End self-consistency iteration #    10       :  max(cpu_time)    wall_clock(cpu1)
  | Time for this iteration                     :        0.347 s           0.251 s
  | Charge density update                       :        0.001 s           0.001 s
  | Density mixing                              :        0.332 s           0.235 s
  | Hartree multipole update                    :        0.001 s           0.001 s
  | Hartree multipole summation                 :        0.002 s           0.002 s
  | Integration                                 :        0.002 s           0.002 s
  | Fock matrix evaluation                      :        0.009 s           0.008 s
  | Solution of K.-S. eqns.                     :        0.001 s           0.002 s
  | Total energy evaluation                     :        0.000 s           0.000 s

  Partial memory accounting:
  | Current value for overall tracked memory usage:
  |   Minimum:        1.087 MB (on task  5)
  |   Maximum:        1.460 MB (on task 51)
  |   Average:        1.217 MB
  | Peak value for overall tracked memory usage:
  |   Minimum:        1.537 MB (on task  5 after allocating wave)
  |   Maximum:        2.503 MB (on task 34 after allocating ovlp3fn_nosplit%tmploc)
  |   Average:        1.702 MB
  | Largest tracked array allocation so far:
  |   Minimum:        0.691 MB (ovlp3fn2%dat on task  5)
  |   Maximum:        1.001 MB (ovlp3fn_nosplit%dat on task 34)
  |   Average:        0.804 MB
  Note:  These values currently only include a subset of arrays which are explicitly tracked.
  The "true" memory usage will be greater.
------------------------------------------------------------

------------------------------------------------------------
          Begin self-consistency iteration #   11

  Date     :  20260724, Time     :  093441.126
------------------------------------------------------------
  Pulay mixing of updated and previous charge densities.
  Available memory per node after mixing [GB]:   1026.98
  Renormalizing the density to the exact electron count on the 3D integration grid.
  | Formal number of electrons (from input files) :      20.0000000000
  | Integrated number of electrons on 3D grid     :      20.0000000000
  | Charge integration error                      :       0.0000000000
  | Normalization factor for density and gradient :       1.0000000000

  Evaluating partitioned Hartree potential by multipole expansion.
  | Original multipole sum: apparent total charge =  -0.364047E-14
  | Sum of charges compensated after spline to logarithmic grids =   0.829435E-06
  | Analytical far-field extrapolation by fixed multipoles:
  | Hartree multipole sum: apparent total charge =  -0.216460E-14
  Summing up the Hartree potential.
  Time summed over all CPUs for potential: real work        0.001 s, elapsed        0.001 s
  | RMS charge density error from multipole expansion :   0.307313E-02

  Integrating Hamiltonian matrix: batch-based integration.
  Time summed over all CPUs for integration: real work        0.081 s, elapsed        0.098 s
  Calculating non-local Hartree-Fock exchange by two-center RI (RI-LVL).
  screening_threshold (crit_val) =  0.000000100000
  Exact exchange progress report - outermost block loop i_block: 1 ..       3
  |        1         2         3  
 Total ovlp3fn data transfer [GB]   4.4889596756547689E-004
  Average sparsity of tmp1/2 0.50000000
  Average sparsity of fock_matrix_row 0.02325581
  Full exact exchange energy: weighted long- and short-range EXX    173.541628596877 eV.
  Times            DM_x_o3fn   CM_prod_1   CM_prod_2   tmp2_prod        Sync   Imbalance       Other  Total calc
  | Times    0:        0.000       0.001       0.000       0.000       0.000       0.000       0.007       0.009
  | Times    1:        0.000       0.000       0.000       0.000       0.000       0.001       0.007       0.009
  | Times    2:        0.000       0.001       0.000       0.000       0.000       0.000       0.007       0.009
  | Times    3:        0.000       0.000       0.000       0.000       0.000       0.001       0.007       0.009
  | Times    4:        0.000       0.001       0.000       0.000       0.000       0.000       0.007       0.009
  | Times    5:        0.000       0.000       0.000       0.000       0.000       0.001       0.007       0.009
  | Times    6:        0.000       0.001       0.000       0.000       0.000       0.000       0.007       0.009
  | Times    7:        0.000       0.000       0.000       0.000       0.000       0.001       0.007       0.009
  | Times    8:        0.000       0.000       0.000       0.000       0.000       0.000       0.008       0.009
  | Times    9:        0.000       0.000       0.000       0.000       0.000       0.001       0.008       0.009
  | Times   10:        0.000       0.000       0.000       0.000       0.000       0.000       0.008       0.009
  | Times   11:        0.000       0.000       0.000       0.000       0.000       0.001       0.008       0.009
  | Times   12:        0.000       0.000       0.000       0.000       0.000       0.000       0.007       0.009
  | Times   13:        0.000       0.000       0.000       0.000       0.000       0.001       0.007       0.009
  | Times   14:        0.000       0.001       0.000       0.000       0.000       0.000       0.007       0.009
  | Times   15:        0.000       0.000       0.000       0.000       0.000       0.001       0.007       0.009
  | Times   16:        0.000       0.001       0.000       0.000       0.000       0.000       0.007       0.009
  | Times   17:        0.000       0.000       0.000       0.000       0.000       0.002       0.007       0.009
  | Times   18:        0.000       0.001       0.000       0.000       0.000       0.001       0.007       0.009
  | Times   19:        0.000       0.000       0.000       0.000       0.000       0.001       0.007       0.009
  | Times   20:        0.000       0.001       0.000       0.000       0.000       0.000       0.007       0.009
  | Times   21:        0.000       0.000       0.000       0.000       0.000       0.001       0.007       0.009
  | Times   22:        0.000       0.001       0.000       0.000       0.000       0.000       0.007       0.009
  | Times   23:        0.000       0.000       0.000       0.000       0.000       0.001       0.007       0.009
  | Times   24:        0.000       0.000       0.000       0.000       0.000       0.000       0.008       0.009
  | Times   25:        0.000       0.000       0.000       0.000       0.000       0.001       0.008       0.009
  | Times   26:        0.000       0.000       0.000       0.000       0.000       0.000       0.008       0.009
  | Times   27:        0.000       0.000       0.000       0.000       0.000       0.001       0.008       0.009
  | Times   28:        0.000       0.001       0.000       0.000       0.000       0.000       0.007       0.009
  | Times   29:        0.000       0.000       0.000       0.000       0.000       0.001       0.007       0.009
  | Times   30:        0.000       0.001       0.000       0.000       0.000       0.000       0.007       0.009
  | Times   31:        0.000       0.000       0.000       0.000       0.000       0.001       0.007       0.009
  | Times   32:        0.000       0.001       0.000       0.000       0.000       0.000       0.007       0.009
  | Times   33:        0.000       0.000       0.000       0.000       0.000       0.001       0.007       0.009
  | Times   34:        0.000       0.001       0.000       0.000       0.000       0.000       0.007       0.009
  | Times   35:        0.000       0.000       0.000       0.000       0.000       0.001       0.007       0.009
  | Times   36:        0.000       0.001       0.000       0.000       0.000       0.000       0.007       0.009
  | Times   37:        0.000       0.000       0.000       0.000       0.000       0.001       0.007       0.009
  | Times   38:        0.000       0.001       0.000       0.000       0.000       0.000       0.007       0.009
  | Times   39:        0.000       0.000       0.000       0.000       0.000       0.001       0.007       0.009
  | Times   40:        0.000       0.000       0.000       0.000       0.000       0.000       0.008       0.009
  | Times   41:        0.000       0.000       0.000       0.000       0.000       0.001       0.008       0.009
  | Times   42:        0.000       0.000       0.000       0.000       0.000       0.000       0.008       0.009
  | Times   43:        0.000       0.000       0.000       0.000       0.000       0.001       0.008       0.009
  | Times   44:        0.000       0.001       0.000       0.000       0.000       0.000       0.007       0.009
  | Times   45:        0.000       0.000       0.000       0.000       0.000       0.001       0.007       0.009
  | Times   46:        0.000       0.001       0.000       0.000       0.000       0.000       0.007       0.009
  | Times   47:        0.000       0.000       0.000       0.000       0.000       0.001       0.007       0.009
  | Times   48:        0.000       0.000       0.000       0.000       0.000       0.000       0.007       0.009
  | Times   49:        0.000       0.000       0.000       0.000       0.000       0.001       0.008       0.009
  | Times   50:        0.000       0.000       0.000       0.000       0.000       0.000       0.008       0.009
  | Times   51:        0.000       0.000       0.000       0.000       0.000       0.001       0.008       0.009
  | Times   52:        0.000       0.001       0.000       0.000       0.000       0.000       0.007       0.009
  | Times   53:        0.000       0.000       0.000       0.000       0.000       0.001       0.007       0.009
  | Times   54:        0.000       0.001       0.000       0.000       0.000       0.000       0.007       0.009
  | Times   55:        0.000       0.000       0.000       0.000       0.000       0.001       0.007       0.009
  | Times   56:        0.000       0.001       0.000       0.000       0.000       0.000       0.007       0.009
  | Times   57:        0.000       0.000       0.000       0.000       0.000       0.001       0.007       0.009
  | Times   58:        0.000       0.001       0.000       0.000       0.000       0.000       0.007       0.009
  | Times   59:        0.000       0.000       0.000       0.000       0.000       0.001       0.007       0.009
  | Times   60:        0.000       0.000       0.000       0.000       0.000       0.000       0.008       0.009
  | Times   61:        0.000       0.000       0.000       0.000       0.000       0.001       0.008       0.009
  | Times   62:        0.000       0.000       0.000       0.000       0.000       0.000       0.008       0.009
  | Times   63:        0.000       0.000       0.000       0.000       0.000       0.001       0.008       0.009
  | Times  sum:        0.006       0.017       0.007       0.005       0.012       0.039       0.467       0.554

  Decomposition of Other based on code block (only on MPI task 0):
  Times             Block #1    Block #2    Block #3    Block #4    Block #5    Block #6    Block #7    Block #8
  | Times    0:        0.000       0.000       0.000       0.000       0.000       0.000       0.000       0.000

  Times             Block #9   Block #10   Block #11   Block #12   Block #13   Block #14   Block #15   Block #16
  | Times    0:        0.000       0.000       0.000       0.001       0.000       0.005       0.000       0.000

  Times            Block Sum    Expected
  | Times    0:        0.006       0.007
  Time for Fock matrix mixing     0.000

  Updating Kohn-Sham eigenvalues and eigenvectors using ELSI and the ELPA eigensolver.
  Starting ELPA eigensolver
  Finished transformation to standard eigenproblem
  | Time :     0.000 s
  Finished solving standard eigenproblem
  | Time :     0.001 s
  Finished back-transformation of eigenvectors
  | Time :     0.000 s

  Obtaining occupation numbers and electronic chemical potential using ELSI.
  | Note that, for insulating systems, the printed 'chemical potential' value is not uniquely defined.
  | It can be anywhere in the energy gap, as long as it correctly separates occupied and unoccupied states.
  | In systems with a gap, the physically relevant chemical potential is the VBM or HOMO.

  | Chemical potential (Fermi level):    -4.95471473 eV
  Highest occupied state (VBM) at     -8.64420599 eV
  | Occupation number:      2.00000000

  Lowest unoccupied state (CBM) at    -1.26522346 eV
  | Occupation number:      0.00000000

  Overall HOMO-LUMO gap:      7.37898253 eV.

  Total energy components:
  | Sum of eigenvalues            :        -155.10560629 Ha       -4220.63829077 eV
  | XC energy correction          :         -12.62550163 Ha        -343.55737946 eV
  | XC potential correction       :          26.01316317 Ha         707.85418511 eV
  | Free-atom electrostatic energy:        -130.45110463 Ha       -3549.75516663 eV
  | Hartree energy correction     :          -3.47409412 Ha         -94.53491080 eV
  | Entropy correction            :          -0.00000000 Ha          -0.00000000 eV
  | ---------------------------
  | Total energy                  :        -275.64314350 Ha       -7500.63156255 eV
  | Total energy, T -> 0          :        -275.64314350 Ha       -7500.63156255 eV  <-- do not rely on this value for anything but (periodic) metals
  | Electronic free energy        :        -275.64314350 Ha       -7500.63156255 eV

  Derived energy quantities:
  | Kinetic energy                :         277.99956852 Ha        7564.75314984 eV
  | Electrostatic energy          :        -528.25041331 Ha      -14374.42510892 eV
  | Energy correction for multipole
  | error in Hartree potential    :          -0.00087701 Ha          -0.02386459 eV
  | Sum of eigenvalues per atom                           :       -2110.31914538 eV
  | Total energy (T->0) per atom                          :       -3750.31578127 eV  <-- do not rely on this value for anything but (periodic) metals
  | Electronic free energy per atom                       :       -3750.31578127 eV
  Evaluating new KS density.
  Integration grid: deviation in total charge (<rho> - N_e) =   0.000000E+00

  Self-consistency convergence accuracy:
  | Change of charge density      :  0.2816E-01
  | Change of unmixed KS density  :  0.1807E-02
  | Change of sum of eigenvalues  : -0.6492E+01 eV
  | Change of total energy        :  0.2195E+00 eV


------------------------------------------------------------
  End self-consistency iteration #    11       :  max(cpu_time)    wall_clock(cpu1)
  | Time for this iteration                     :        0.277 s           0.260 s
  | Charge density update                       :        0.001 s           0.001 s
  | Density mixing                              :        0.263 s           0.244 s
  | Hartree multipole update                    :        0.001 s           0.001 s
  | Hartree multipole summation                 :        0.002 s           0.002 s
  | Integration                                 :        0.002 s           0.002 s
  | Fock matrix evaluation                      :        0.009 s           0.009 s
  | Solution of K.-S. eqns.                     :        0.001 s           0.001 s
  | Total energy evaluation                     :        0.000 s           0.000 s

  Partial memory accounting:
  | Current value for overall tracked memory usage:
  |   Minimum:        1.087 MB (on task  5)
  |   Maximum:        1.460 MB (on task 51)
  |   Average:        1.217 MB
  | Peak value for overall tracked memory usage:
  |   Minimum:        1.537 MB (on task  5 after allocating wave)
  |   Maximum:        2.503 MB (on task 34 after allocating ovlp3fn_nosplit%tmploc)
  |   Average:        1.702 MB
  | Largest tracked array allocation so far:
  |   Minimum:        0.691 MB (ovlp3fn2%dat on task  5)
  |   Maximum:        1.001 MB (ovlp3fn_nosplit%dat on task 34)
  |   Average:        0.804 MB
  Note:  These values currently only include a subset of arrays which are explicitly tracked.
  The "true" memory usage will be greater.
------------------------------------------------------------

------------------------------------------------------------
          Begin self-consistency iteration #   12

  Date     :  20260724, Time     :  093441.398
------------------------------------------------------------
  Pulay mixing of updated and previous charge densities.
  Available memory per node after mixing [GB]:   1026.98
  Renormalizing the density to the exact electron count on the 3D integration grid.
  | Formal number of electrons (from input files) :      20.0000000000
  | Integrated number of electrons on 3D grid     :      20.0000000000
  | Charge integration error                      :       0.0000000000
  | Normalization factor for density and gradient :       1.0000000000

  Evaluating partitioned Hartree potential by multipole expansion.
  | Original multipole sum: apparent total charge =  -0.383725E-14
  | Sum of charges compensated after spline to logarithmic grids =   0.827625E-06
  | Analytical far-field extrapolation by fixed multipoles:
  | Hartree multipole sum: apparent total charge =  -0.324690E-14
  Summing up the Hartree potential.
  Time summed over all CPUs for potential: real work        0.001 s, elapsed        0.001 s
  | RMS charge density error from multipole expansion :   0.307854E-02

  Integrating Hamiltonian matrix: batch-based integration.
  Time summed over all CPUs for integration: real work        0.081 s, elapsed        0.093 s
  Calculating non-local Hartree-Fock exchange by two-center RI (RI-LVL).
  screening_threshold (crit_val) =  0.000000100000
  Exact exchange progress report - outermost block loop i_block: 1 ..       3
  |        1         2         3  
 Total ovlp3fn data transfer [GB]   4.4889596756547689E-004
  Average sparsity of tmp1/2 0.50000000
  Average sparsity of fock_matrix_row 0.02325581
  Full exact exchange energy: weighted long- and short-range EXX    173.774404853775 eV.
  Times            DM_x_o3fn   CM_prod_1   CM_prod_2   tmp2_prod        Sync   Imbalance       Other  Total calc
  | Times    0:        0.000       0.001       0.000       0.000       0.000       0.000       0.007       0.008
  | Times    1:        0.000       0.000       0.000       0.000       0.000       0.001       0.007       0.008
  | Times    2:        0.000       0.001       0.000       0.000       0.000       0.000       0.007       0.008
  | Times    3:        0.000       0.000       0.000       0.000       0.000       0.001       0.007       0.008
  | Times    4:        0.000       0.001       0.000       0.000       0.000       0.000       0.007       0.008
  | Times    5:        0.000       0.000       0.000       0.000       0.000       0.001       0.007       0.008
  | Times    6:        0.000       0.001       0.000       0.000       0.000       0.000       0.007       0.008
  | Times    7:        0.000       0.000       0.000       0.000       0.000       0.001       0.007       0.008
  | Times    8:        0.000       0.001       0.000       0.000       0.000       0.000       0.007       0.008
  | Times    9:        0.000       0.000       0.000       0.000       0.000       0.001       0.007       0.008
  | Times   10:        0.000       0.001       0.000       0.000       0.000       0.000       0.007       0.008
  | Times   11:        0.000       0.000       0.000       0.000       0.000       0.001       0.007       0.008
  | Times   12:        0.000       0.001       0.000       0.000       0.000       0.000       0.007       0.008
  | Times   13:        0.000       0.000       0.000       0.000       0.000       0.001       0.007       0.008
  | Times   14:        0.000       0.001       0.000       0.000       0.000       0.000       0.007       0.008
  | Times   15:        0.000       0.000       0.000       0.000       0.000       0.001       0.007       0.008
  | Times   16:        0.000       0.000       0.000       0.000       0.000       0.000       0.007       0.008
  | Times   17:        0.000       0.000       0.000       0.000       0.000       0.001       0.007       0.008
  | Times   18:        0.000       0.000       0.000       0.000       0.000       0.000       0.007       0.008
  | Times   19:        0.000       0.000       0.000       0.000       0.000       0.000       0.007       0.008
  | Times   20:        0.000       0.001       0.000       0.000       0.000       0.000       0.007       0.008
  | Times   21:        0.000       0.000       0.000       0.000       0.000       0.001       0.007       0.008
  | Times   22:        0.000       0.001       0.000       0.000       0.000       0.000       0.007       0.008
  | Times   23:        0.000       0.000       0.000       0.000       0.000       0.001       0.007       0.008
  | Times   24:        0.000       0.001       0.000       0.000       0.000       0.000       0.007       0.008
  | Times   25:        0.000       0.000       0.000       0.000       0.000       0.001       0.007       0.008
  | Times   26:        0.000       0.001       0.000       0.000       0.000       0.000       0.007       0.008
  | Times   27:        0.000       0.000       0.000       0.000       0.000       0.001       0.007       0.008
  | Times   28:        0.000       0.001       0.000       0.000       0.000       0.000       0.007       0.008
  | Times   29:        0.000       0.000       0.000       0.000       0.000       0.001       0.007       0.008
  | Times   30:        0.000       0.001       0.000       0.000       0.000       0.000       0.007       0.008
  | Times   31:        0.000       0.000       0.000       0.000       0.000       0.001       0.007       0.008
  | Times   32:        0.000       0.000       0.000       0.000       0.000       0.000       0.007       0.008
  | Times   33:        0.000       0.000       0.000       0.000       0.000       0.001       0.007       0.008
  | Times   34:        0.000       0.000       0.000       0.000       0.000       0.000       0.007       0.008
  | Times   35:        0.000       0.000       0.000       0.000       0.000       0.001       0.007       0.008
  | Times   36:        0.000       0.001       0.000       0.000       0.000       0.000       0.007       0.008
  | Times   37:        0.000       0.000       0.000       0.000       0.000       0.001       0.007       0.008
  | Times   38:        0.000       0.001       0.000       0.000       0.000       0.000       0.007       0.008
  | Times   39:        0.000       0.000       0.000       0.000       0.000       0.001       0.007       0.008
  | Times   40:        0.000       0.001       0.000       0.000       0.000       0.000       0.007       0.008
  | Times   41:        0.000       0.000       0.000       0.000       0.000       0.001       0.007       0.008
  | Times   42:        0.000       0.001       0.000       0.000       0.000       0.000       0.007       0.008
  | Times   43:        0.000       0.000       0.000       0.000       0.000       0.001       0.007       0.008
  | Times   44:        0.000       0.001       0.000       0.000       0.000       0.000       0.007       0.008
  | Times   45:        0.000       0.000       0.000       0.000       0.000       0.001       0.007       0.008
  | Times   46:        0.000       0.001       0.000       0.000       0.000       0.000       0.007       0.008
  | Times   47:        0.000       0.000       0.000       0.000       0.000       0.001       0.007       0.008
  | Times   48:        0.000       0.000       0.000       0.000       0.000       0.000       0.007       0.008
  | Times   49:        0.000       0.000       0.000       0.000       0.000       0.001       0.007       0.008
  | Times   50:        0.000       0.000       0.000       0.000       0.000       0.000       0.007       0.008
  | Times   51:        0.000       0.000       0.000       0.000       0.000       0.001       0.007       0.008
  | Times   52:        0.000       0.001       0.000       0.000       0.000       0.000       0.007       0.008
  | Times   53:        0.000       0.000       0.000       0.000       0.000       0.001       0.007       0.008
  | Times   54:        0.000       0.001       0.000       0.000       0.000       0.000       0.007       0.008
  | Times   55:        0.000       0.000       0.000       0.000       0.000       0.001       0.007       0.008
  | Times   56:        0.000       0.001       0.000       0.000       0.000       0.000       0.007       0.008
  | Times   57:        0.000       0.000       0.000       0.000       0.000       0.001       0.007       0.008
  | Times   58:        0.000       0.001       0.000       0.000       0.000       0.000       0.007       0.008
  | Times   59:        0.000       0.000       0.000       0.000       0.000       0.001       0.007       0.008
  | Times   60:        0.000       0.000       0.000       0.000       0.000       0.000       0.007       0.008
  | Times   61:        0.000       0.000       0.000       0.000       0.000       0.001       0.007       0.008
  | Times   62:        0.000       0.000       0.000       0.000       0.000       0.000       0.007       0.008
  | Times   63:        0.000       0.000       0.000       0.000       0.000       0.001       0.007       0.008
  | Times  sum:        0.006       0.017       0.007       0.005       0.012       0.037       0.433       0.516

  Decomposition of Other based on code block (only on MPI task 0):
  Times             Block #1    Block #2    Block #3    Block #4    Block #5    Block #6    Block #7    Block #8
  | Times    0:        0.000       0.000       0.000       0.000       0.000       0.000       0.000       0.000

  Times             Block #9   Block #10   Block #11   Block #12   Block #13   Block #14   Block #15   Block #16
  | Times    0:        0.000       0.000       0.000       0.001       0.000       0.005       0.000       0.000

  Times            Block Sum    Expected
  | Times    0:        0.006       0.007
  Time for Fock matrix mixing     0.000

  Updating Kohn-Sham eigenvalues and eigenvectors using ELSI and the ELPA eigensolver.
  Starting ELPA eigensolver
  Finished transformation to standard eigenproblem
  | Time :     0.000 s
  Finished solving standard eigenproblem
  | Time :     0.001 s
  Finished back-transformation of eigenvectors
  | Time :     0.000 s

  Obtaining occupation numbers and electronic chemical potential using ELSI.
  | Note that, for insulating systems, the printed 'chemical potential' value is not uniquely defined.
  | It can be anywhere in the energy gap, as long as it correctly separates occupied and unoccupied states.
  | In systems with a gap, the physically relevant chemical potential is the VBM or HOMO.

  | Chemical potential (Fermi level):    -4.95158711 eV
  Highest occupied state (VBM) at     -8.63621783 eV
  | Occupation number:      2.00000000

  Lowest unoccupied state (CBM) at    -1.26695639 eV
  | Occupation number:      0.00000000

  Overall HOMO-LUMO gap:      7.36926144 eV.

  Total energy components:
  | Sum of eigenvalues            :        -155.10013680 Ha       -4220.48945852 eV
  | XC energy correction          :         -12.62597787 Ha        -343.57033843 eV
  | XC potential correction       :          26.01367346 Ha         707.86807075 eV
  | Free-atom electrostatic energy:        -130.45110463 Ha       -3549.75516663 eV
  | Hartree energy correction     :          -3.47967582 Ha         -94.68679665 eV
  | Entropy correction            :          -0.00000000 Ha          -0.00000000 eV
  | ---------------------------
  | Total energy                  :        -275.64322166 Ha       -7500.63368948 eV
  | Total energy, T -> 0          :        -275.64322166 Ha       -7500.63368948 eV  <-- do not rely on this value for anything but (periodic) metals
  | Electronic free energy        :        -275.64322166 Ha       -7500.63368948 eV

  Derived energy quantities:
  | Kinetic energy                :         278.00015454 Ha        7564.76909614 eV
  | Electrostatic energy          :        -528.25083423 Ha      -14374.43656273 eV
  | Energy correction for multipole
  | error in Hartree potential    :          -0.00087465 Ha          -0.02380050 eV
  | Sum of eigenvalues per atom                           :       -2110.24472926 eV
  | Total energy (T->0) per atom                          :       -3750.31684474 eV  <-- do not rely on this value for anything but (periodic) metals
  | Electronic free energy per atom                       :       -3750.31684474 eV
  Evaluating new KS density.
  Integration grid: deviation in total charge (<rho> - N_e) =   3.552714E-15

  Self-consistency convergence accuracy:
  | Change of charge density      :  0.6143E-02
  | Change of unmixed KS density  :  0.2518E-01
  | Change of sum of eigenvalues  :  0.1488E+00 eV
  | Change of total energy        : -0.2127E-02 eV


------------------------------------------------------------
  End self-consistency iteration #    12       :  max(cpu_time)    wall_clock(cpu1)
  | Time for this iteration                     :        0.281 s           0.281 s
  | Charge density update                       :        0.001 s           0.001 s
  | Density mixing                              :        0.266 s           0.266 s
  | Hartree multipole update                    :        0.001 s           0.001 s
  | Hartree multipole summation                 :        0.002 s           0.002 s
  | Integration                                 :        0.002 s           0.001 s
  | Fock matrix evaluation                      :        0.008 s           0.009 s
  | Solution of K.-S. eqns.                     :        0.001 s           0.001 s
  | Total energy evaluation                     :        0.000 s           0.000 s

  Partial memory accounting:
  | Current value for overall tracked memory usage:
  |   Minimum:        1.087 MB (on task  5)
  |   Maximum:        1.460 MB (on task 51)
  |   Average:        1.217 MB
  | Peak value for overall tracked memory usage:
  |   Minimum:        1.537 MB (on task  5 after allocating wave)
  |   Maximum:        2.503 MB (on task 34 after allocating ovlp3fn_nosplit%tmploc)
  |   Average:        1.702 MB
  | Largest tracked array allocation so far:
  |   Minimum:        0.691 MB (ovlp3fn2%dat on task  5)
  |   Maximum:        1.001 MB (ovlp3fn_nosplit%dat on task 34)
  |   Average:        0.804 MB
  Note:  These values currently only include a subset of arrays which are explicitly tracked.
  The "true" memory usage will be greater.
------------------------------------------------------------

------------------------------------------------------------
          Begin self-consistency iteration #   13

  Date     :  20260724, Time     :  093441.690
------------------------------------------------------------
  Pulay mixing of updated and previous charge densities.
  Available memory per node after mixing [GB]:   1026.98
  Renormalizing the density to the exact electron count on the 3D integration grid.
  | Formal number of electrons (from input files) :      20.0000000000
  | Integrated number of electrons on 3D grid     :      20.0000000000
  | Charge integration error                      :      -0.0000000000
  | Normalization factor for density and gradient :       1.0000000000

  Evaluating partitioned Hartree potential by multipole expansion.
  | Original multipole sum: apparent total charge =  -0.000000E+00
  | Sum of charges compensated after spline to logarithmic grids =   0.776486E-06
  | Analytical far-field extrapolation by fixed multipoles:
  | Hartree multipole sum: apparent total charge =  -0.137747E-14
  Summing up the Hartree potential.
  Time summed over all CPUs for potential: real work        0.001 s, elapsed        0.001 s
  | RMS charge density error from multipole expansion :   0.312074E-02

  Integrating Hamiltonian matrix: batch-based integration.
  Time summed over all CPUs for integration: real work        0.081 s, elapsed        0.092 s
  Calculating non-local Hartree-Fock exchange by two-center RI (RI-LVL).
  screening_threshold (crit_val) =  0.000000100000
  Exact exchange progress report - outermost block loop i_block: 1 ..       3
  |        1         2         3  
 Total ovlp3fn data transfer [GB]   4.4889596756547689E-004
  Average sparsity of tmp1/2 0.50000000
  Average sparsity of fock_matrix_row 0.02325581
  Full exact exchange energy: weighted long- and short-range EXX    173.768708557209 eV.
  Times            DM_x_o3fn   CM_prod_1   CM_prod_2   tmp2_prod        Sync   Imbalance       Other  Total calc
  | Times    0:        0.000       0.001       0.000       0.000       0.000       0.000       0.008       0.010
  | Times    1:        0.000       0.000       0.000       0.000       0.000       0.001       0.008       0.010
  | Times    2:        0.000       0.001       0.000       0.000       0.000       0.000       0.008       0.010
  | Times    3:        0.000       0.000       0.000       0.000       0.000       0.001       0.008       0.010
  | Times    4:        0.000       0.001       0.000       0.000       0.000       0.000       0.008       0.010
  | Times    5:        0.000       0.000       0.000       0.000       0.000       0.001       0.008       0.010
  | Times    6:        0.000       0.001       0.000       0.000       0.000       0.000       0.008       0.010
  | Times    7:        0.000       0.000       0.000       0.000       0.000       0.001       0.008       0.010
  | Times    8:        0.000       0.000       0.000       0.000       0.000       0.000       0.009       0.010
  | Times    9:        0.000       0.000       0.000       0.000       0.000       0.001       0.009       0.010
  | Times   10:        0.000       0.000       0.000       0.000       0.000       0.000       0.009       0.010
  | Times   11:        0.000       0.000       0.000       0.000       0.000       0.001       0.009       0.010
  | Times   12:        0.000       0.001       0.000       0.000       0.000       0.000       0.008       0.010
  | Times   13:        0.000       0.000       0.000       0.000       0.000       0.001       0.008       0.010
  | Times   14:        0.000       0.001       0.000       0.000       0.000       0.000       0.008       0.010
  | Times   15:        0.000       0.000       0.000       0.000       0.000       0.001       0.008       0.010
  | Times   16:        0.000       0.001       0.000       0.000       0.000       0.000       0.008       0.010
  | Times   17:        0.000       0.000       0.000       0.000       0.000       0.001       0.008       0.010
  | Times   18:        0.000       0.001       0.000       0.000       0.000       0.000       0.008       0.010
  | Times   19:        0.000       0.000       0.000       0.000       0.000       0.001       0.008       0.010
  | Times   20:        0.000       0.001       0.000       0.000       0.000       0.000       0.008       0.010
  | Times   21:        0.000       0.000       0.000       0.000       0.000       0.001       0.008       0.010
  | Times   22:        0.000       0.001       0.000       0.000       0.000       0.000       0.008       0.010
  | Times   23:        0.000       0.000       0.000       0.000       0.000       0.001       0.008       0.010
  | Times   24:        0.000       0.000       0.000       0.000       0.000       0.000       0.009       0.010
  | Times   25:        0.000       0.000       0.000       0.000       0.000       0.001       0.009       0.010
  | Times   26:        0.000       0.000       0.000       0.000       0.000       0.000       0.009       0.010
  | Times   27:        0.000       0.000       0.000       0.000       0.000       0.001       0.009       0.010
  | Times   28:        0.000       0.001       0.000       0.000       0.000       0.000       0.008       0.010
  | Times   29:        0.000       0.000       0.000       0.000       0.000       0.001       0.008       0.010
  | Times   30:        0.000       0.001       0.000       0.000       0.000       0.000       0.008       0.010
  | Times   31:        0.000       0.000       0.000       0.000       0.000       0.001       0.008       0.010
  | Times   32:        0.000       0.001       0.000       0.000       0.000       0.000       0.008       0.010
  | Times   33:        0.000       0.000       0.000       0.000       0.000       0.001       0.008       0.010
  | Times   34:        0.000       0.001       0.000       0.000       0.000       0.000       0.008       0.010
  | Times   35:        0.000       0.000       0.000       0.000       0.000       0.001       0.008       0.010
  | Times   36:        0.000       0.000       0.000       0.000       0.000       0.000       0.009       0.010
  | Times   37:        0.000       0.000       0.000       0.000       0.000       0.001       0.009       0.010
  | Times   38:        0.000       0.000       0.000       0.000       0.000       0.000       0.009       0.010
  | Times   39:        0.000       0.000       0.000       0.000       0.000       0.001       0.009       0.010
  | Times   40:        0.000       0.000       0.000       0.000       0.000       0.000       0.008       0.010
  | Times   41:        0.000       0.000       0.000       0.000       0.000       0.001       0.008       0.010
  | Times   42:        0.000       0.001       0.000       0.000       0.000       0.000       0.008       0.010
  | Times   43:        0.000       0.000       0.000       0.000       0.000       0.001       0.008       0.010
  | Times   44:        0.000       0.001       0.000       0.000       0.000       0.000       0.008       0.010
  | Times   45:        0.000       0.000       0.000       0.000       0.000       0.001       0.008       0.010
  | Times   46:        0.000       0.001       0.000       0.000       0.000       0.000       0.008       0.010
  | Times   47:        0.000       0.000       0.000       0.000       0.000       0.001       0.008       0.010
  | Times   48:        0.000       0.000       0.000       0.000       0.000       0.000       0.009       0.010
  | Times   49:        0.000       0.000       0.000       0.000       0.000       0.001       0.009       0.010
  | Times   50:        0.000       0.000       0.000       0.000       0.000       0.000       0.009       0.010
  | Times   51:        0.000       0.000       0.000       0.000       0.000       0.001       0.009       0.010
  | Times   52:        0.000       0.001       0.000       0.000       0.000       0.000       0.008       0.010
  | Times   53:        0.000       0.000       0.000       0.000       0.000       0.001       0.008       0.010
  | Times   54:        0.000       0.001       0.000       0.000       0.000       0.000       0.008       0.010
  | Times   55:        0.000       0.000       0.000       0.000       0.000       0.001       0.008       0.010
  | Times   56:        0.000       0.001       0.000       0.000       0.000       0.000       0.008       0.010
  | Times   57:        0.000       0.000       0.000       0.000       0.000       0.001       0.008       0.010
  | Times   58:        0.000       0.001       0.000       0.000       0.000       0.000       0.008       0.010
  | Times   59:        0.000       0.000       0.000       0.000       0.000       0.001       0.008       0.010
  | Times   60:        0.000       0.000       0.000       0.000       0.000       0.000       0.009       0.010
  | Times   61:        0.000       0.000       0.000       0.000       0.000       0.001       0.009       0.010
  | Times   62:        0.000       0.000       0.000       0.000       0.000       0.000       0.009       0.010
  | Times   63:        0.000       0.000       0.000       0.000       0.000       0.001       0.009       0.010
  | Times  sum:        0.006       0.017       0.007       0.005       0.012       0.037       0.536       0.619

  Decomposition of Other based on code block (only on MPI task 0):
  Times             Block #1    Block #2    Block #3    Block #4    Block #5    Block #6    Block #7    Block #8
  | Times    0:        0.000       0.000       0.000       0.000       0.000       0.000       0.000       0.000

  Times             Block #9   Block #10   Block #11   Block #12   Block #13   Block #14   Block #15   Block #16
  | Times    0:        0.000       0.000       0.000       0.002       0.000       0.005       0.000       0.000

  Times            Block Sum    Expected
  | Times    0:        0.008       0.008
  Time for Fock matrix mixing     0.000

  Updating Kohn-Sham eigenvalues and eigenvectors using ELSI and the ELPA eigensolver.
  Starting ELPA eigensolver
  Finished transformation to standard eigenproblem
  | Time :     0.000 s
  Finished solving standard eigenproblem
  | Time :     0.001 s
  Finished back-transformation of eigenvectors
  | Time :     0.000 s

  Obtaining occupation numbers and electronic chemical potential using ELSI.
  | Note that, for insulating systems, the printed 'chemical potential' value is not uniquely defined.
  | It can be anywhere in the energy gap, as long as it correctly separates occupied and unoccupied states.
  | In systems with a gap, the physically relevant chemical potential is the VBM or HOMO.

  | Chemical potential (Fermi level):    -4.91913929 eV
  Highest occupied state (VBM) at     -8.58582164 eV
  | Occupation number:      2.00000000

  Lowest unoccupied state (CBM) at    -1.25245693 eV
  | Occupation number:      0.00000000

  Overall HOMO-LUMO gap:      7.33336471 eV.

  Total energy components:
  | Sum of eigenvalues            :        -155.04456743 Ha       -4218.97733884 eV
  | XC energy correction          :         -12.62823742 Ha        -343.63182406 eV
  | XC potential correction       :          26.01901325 Ha         708.01337383 eV
  | Free-atom electrostatic energy:        -130.45110463 Ha       -3549.75516663 eV
  | Hartree energy correction     :          -3.54095067 Ha         -96.35417026 eV
  | Entropy correction            :          -0.00000000 Ha          -0.00000000 eV
  | ---------------------------
  | Total energy                  :        -275.64584691 Ha       -7500.70512598 eV
  | Total energy, T -> 0          :        -275.64584691 Ha       -7500.70512598 eV  <-- do not rely on this value for anything but (periodic) metals
  | Electronic free energy        :        -275.64584691 Ha       -7500.70512598 eV

  Derived energy quantities:
  | Kinetic energy                :         278.01196379 Ha        7565.09044226 eV
  | Electrostatic energy          :        -528.26002185 Ha      -14374.68657058 eV
  | Energy correction for multipole
  | error in Hartree potential    :          -0.00084220 Ha          -0.02291737 eV
  | Sum of eigenvalues per atom                           :       -2109.48866942 eV
  | Total energy (T->0) per atom                          :       -3750.35256299 eV  <-- do not rely on this value for anything but (periodic) metals
  | Electronic free energy per atom                       :       -3750.35256299 eV
  Evaluating new KS density.
  Integration grid: deviation in total charge (<rho> - N_e) =  -7.105427E-15

  Self-consistency convergence accuracy:
  | Change of charge density      :  0.5364E-02
  | Change of unmixed KS density  :  0.6138E-03
  | Change of sum of eigenvalues  :  0.1512E+01 eV
  | Change of total energy        : -0.7144E-01 eV


------------------------------------------------------------
  End self-consistency iteration #    13       :  max(cpu_time)    wall_clock(cpu1)
  | Time for this iteration                     :        0.437 s           0.437 s
  | Charge density update                       :        0.001 s           0.001 s
  | Density mixing                              :        0.420 s           0.421 s
  | Hartree multipole update                    :        0.001 s           0.001 s
  | Hartree multipole summation                 :        0.002 s           0.001 s
  | Integration                                 :        0.002 s           0.002 s
  | Fock matrix evaluation                      :        0.010 s           0.010 s
  | Solution of K.-S. eqns.                     :        0.001 s           0.001 s
  | Total energy evaluation                     :        0.000 s           0.000 s

  Partial memory accounting:
  | Current value for overall tracked memory usage:
  |   Minimum:        1.087 MB (on task  5)
  |   Maximum:        1.460 MB (on task 51)
  |   Average:        1.217 MB
  | Peak value for overall tracked memory usage:
  |   Minimum:        1.537 MB (on task  5 after allocating wave)
  |   Maximum:        2.503 MB (on task 34 after allocating ovlp3fn_nosplit%tmploc)
  |   Average:        1.702 MB
  | Largest tracked array allocation so far:
  |   Minimum:        0.691 MB (ovlp3fn2%dat on task  5)
  |   Maximum:        1.001 MB (ovlp3fn_nosplit%dat on task 34)
  |   Average:        0.804 MB
  Note:  These values currently only include a subset of arrays which are explicitly tracked.
  The "true" memory usage will be greater.
------------------------------------------------------------

------------------------------------------------------------
          Begin self-consistency iteration #   14

  Date     :  20260724, Time     :  093442.141
------------------------------------------------------------
  Pulay mixing of updated and previous charge densities.
  Available memory per node after mixing [GB]:   1026.98
  Renormalizing the density to the exact electron count on the 3D integration grid.
  | Formal number of electrons (from input files) :      20.0000000000
  | Integrated number of electrons on 3D grid     :      20.0000000000
  | Charge integration error                      :       0.0000000000
  | Normalization factor for density and gradient :       1.0000000000

  Evaluating partitioned Hartree potential by multipole expansion.
  | Original multipole sum: apparent total charge =   0.590346E-15
  | Sum of charges compensated after spline to logarithmic grids =   0.777053E-06
  | Analytical far-field extrapolation by fixed multipoles:
  | Hartree multipole sum: apparent total charge =   0.491955E-15
  Summing up the Hartree potential.
  Time summed over all CPUs for potential: real work        0.002 s, elapsed        0.003 s
  | RMS charge density error from multipole expansion :   0.311512E-02

  Integrating Hamiltonian matrix: batch-based integration.
  Time summed over all CPUs for integration: real work        0.082 s, elapsed        0.094 s
  Calculating non-local Hartree-Fock exchange by two-center RI (RI-LVL).
  screening_threshold (crit_val) =  0.000000100000
  Exact exchange progress report - outermost block loop i_block: 1 ..       3
  |        1         2         3  
 Total ovlp3fn data transfer [GB]   4.4889596756547689E-004
  Average sparsity of tmp1/2 0.50000000
  Average sparsity of fock_matrix_row 0.02325581
  Full exact exchange energy: weighted long- and short-range EXX    173.736492746698 eV.
  Times            DM_x_o3fn   CM_prod_1   CM_prod_2   tmp2_prod        Sync   Imbalance       Other  Total calc
  | Times    0:        0.000       0.001       0.000       0.000       0.000       0.000       0.007       0.008
  | Times    1:        0.000       0.000       0.000       0.000       0.000       0.001       0.007       0.008
  | Times    2:        0.000       0.001       0.000       0.000       0.000       0.000       0.007       0.008
  | Times    3:        0.000       0.000       0.000       0.000       0.000       0.001       0.007       0.008
  | Times    4:        0.000       0.001       0.000       0.000       0.000       0.000       0.007       0.008
  | Times    5:        0.000       0.000       0.000       0.000       0.000       0.001       0.007       0.008
  | Times    6:        0.000       0.001       0.000       0.000       0.000       0.000       0.007       0.008
  | Times    7:        0.000       0.000       0.000       0.000       0.000       0.001       0.007       0.008
  | Times    8:        0.000       0.000       0.000       0.000       0.000       0.000       0.007       0.008
  | Times    9:        0.000       0.000       0.000       0.000       0.000       0.001       0.007       0.008
  | Times   10:        0.000       0.000       0.000       0.000       0.000       0.000       0.007       0.008
  | Times   11:        0.000       0.000       0.000       0.000       0.000       0.001       0.007       0.008
  | Times   12:        0.000       0.001       0.000       0.000       0.000       0.000       0.007       0.008
  | Times   13:        0.000       0.000       0.000       0.000       0.000       0.001       0.007       0.008
  | Times   14:        0.000       0.001       0.000       0.000       0.000       0.000       0.007       0.008
  | Times   15:        0.000       0.000       0.000       0.000       0.000       0.001       0.007       0.008
  | Times   16:        0.000       0.001       0.000       0.000       0.000       0.000       0.007       0.008
  | Times   17:        0.000       0.000       0.000       0.000       0.000       0.001       0.007       0.008
  | Times   18:        0.000       0.001       0.000       0.000       0.000       0.000       0.007       0.008
  | Times   19:        0.000       0.000       0.000       0.000       0.000       0.001       0.007       0.008
  | Times   20:        0.000       0.001       0.000       0.000       0.000       0.000       0.007       0.008
  | Times   21:        0.000       0.000       0.000       0.000       0.000       0.001       0.007       0.008
  | Times   22:        0.000       0.001       0.000       0.000       0.000       0.000       0.007       0.008
  | Times   23:        0.000       0.000       0.000       0.000       0.000       0.001       0.007       0.008
  | Times   24:        0.000       0.001       0.000       0.000       0.000       0.000       0.007       0.008
  | Times   25:        0.000       0.000       0.000       0.000       0.000       0.001       0.007       0.008
  | Times   26:        0.000       0.000       0.000       0.000       0.000       0.000       0.007       0.008
  | Times   27:        0.000       0.000       0.000       0.000       0.000       0.001       0.007       0.008
  | Times   28:        0.000       0.001       0.000       0.000       0.000       0.000       0.007       0.008
  | Times   29:        0.000       0.000       0.000       0.000       0.000       0.001       0.007       0.008
  | Times   30:        0.000       0.001       0.000       0.000       0.000       0.000       0.007       0.008
  | Times   31:        0.000       0.000       0.000       0.000       0.000       0.001       0.007       0.008
  | Times   32:        0.000       0.001       0.000       0.000       0.000       0.000       0.007       0.008
  | Times   33:        0.000       0.000       0.000       0.000       0.000       0.001       0.007       0.008
  | Times   34:        0.000       0.001       0.000       0.000       0.000       0.000       0.007       0.008
  | Times   35:        0.000       0.000       0.000       0.000       0.000       0.001       0.007       0.008
  | Times   36:        0.000       0.000       0.000       0.000       0.000       0.000       0.007       0.008
  | Times   37:        0.000       0.000       0.000       0.000       0.000       0.001       0.007       0.008
  | Times   38:        0.000       0.000       0.000       0.000       0.000       0.000       0.007       0.008
  | Times   39:        0.000       0.000       0.000       0.000       0.000       0.001       0.007       0.008
  | Times   40:        0.000       0.001       0.000       0.000       0.000       0.000       0.007       0.008
  | Times   41:        0.000       0.000       0.000       0.000       0.000       0.001       0.007       0.008
  | Times   42:        0.000       0.001       0.000       0.000       0.000       0.000       0.007       0.008
  | Times   43:        0.000       0.000       0.000       0.000       0.000       0.001       0.007       0.008
  | Times   44:        0.000       0.001       0.000       0.000       0.000       0.000       0.007       0.008
  | Times   45:        0.000       0.000       0.000       0.000       0.000       0.001       0.007       0.008
  | Times   46:        0.000       0.001       0.000       0.000       0.000       0.000       0.007       0.008
  | Times   47:        0.000       0.000       0.000       0.000       0.000       0.001       0.007       0.008
  | Times   48:        0.000       0.000       0.000       0.000       0.000       0.000       0.007       0.008
  | Times   49:        0.000       0.000       0.000       0.000       0.000       0.001       0.007       0.008
  | Times   50:        0.000       0.000       0.000       0.000       0.000       0.000       0.007       0.008
  | Times   51:        0.000       0.000       0.000       0.000       0.000       0.001       0.007       0.008
  | Times   52:        0.000       0.001       0.000       0.000       0.000       0.000       0.007       0.008
  | Times   53:        0.000       0.000       0.000       0.000       0.000       0.001       0.007       0.008
  | Times   54:        0.000       0.001       0.000       0.000       0.000       0.000       0.007       0.008
  | Times   55:        0.000       0.000       0.000       0.000       0.000       0.001       0.007       0.008
  | Times   56:        0.000       0.001       0.000       0.000       0.000       0.000       0.007       0.008
  | Times   57:        0.000       0.000       0.000       0.000       0.000       0.001       0.007       0.008
  | Times   58:        0.000       0.001       0.000       0.000       0.000       0.000       0.007       0.008
  | Times   59:        0.000       0.000       0.000       0.000       0.000       0.001       0.007       0.008
  | Times   60:        0.000       0.000       0.000       0.000       0.000       0.000       0.007       0.008
  | Times   61:        0.000       0.000       0.000       0.000       0.000       0.001       0.007       0.008
  | Times   62:        0.000       0.001       0.000       0.000       0.000       0.000       0.007       0.008
  | Times   63:        0.000       0.000       0.000       0.000       0.000       0.001       0.007       0.008
  | Times  sum:        0.006       0.017       0.007       0.005       0.012       0.037       0.446       0.530

  Decomposition of Other based on code block (only on MPI task 0):
  Times             Block #1    Block #2    Block #3    Block #4    Block #5    Block #6    Block #7    Block #8
  | Times    0:        0.000       0.000       0.000       0.000       0.000       0.000       0.000       0.000

  Times             Block #9   Block #10   Block #11   Block #12   Block #13   Block #14   Block #15   Block #16
  | Times    0:        0.000       0.000       0.000       0.001       0.000       0.005       0.000       0.000

  Times            Block Sum    Expected
  | Times    0:        0.006       0.007
  Time for Fock matrix mixing     0.000

  Updating Kohn-Sham eigenvalues and eigenvectors using ELSI and the ELPA eigensolver.
  Starting ELPA eigensolver
  Finished transformation to standard eigenproblem
  | Time :     0.000 s
  Finished solving standard eigenproblem
  | Time :     0.000 s
  Finished back-transformation of eigenvectors
  | Time :     0.000 s

  Obtaining occupation numbers and electronic chemical potential using ELSI.
  | Note that, for insulating systems, the printed 'chemical potential' value is not uniquely defined.
  | It can be anywhere in the energy gap, as long as it correctly separates occupied and unoccupied states.
  | In systems with a gap, the physically relevant chemical potential is the VBM or HOMO.

  | Chemical potential (Fermi level):    -4.92393542 eV
  Highest occupied state (VBM) at     -8.59762090 eV
  | Occupation number:      2.00000000

  Lowest unoccupied state (CBM) at    -1.25024993 eV
  | Occupation number:      0.00000000

  Overall HOMO-LUMO gap:      7.34737097 eV.

  Total energy components:
  | Sum of eigenvalues            :        -155.05198766 Ha       -4219.17925359 eV
  | XC energy correction          :         -12.62761903 Ha        -343.61499668 eV
  | XC potential correction       :          26.01827380 Ha         707.99325232 eV
  | Free-atom electrostatic energy:        -130.45110463 Ha       -3549.75516663 eV
  | Hartree energy correction     :          -3.53329776 Ha         -96.14592378 eV
  | Entropy correction            :          -0.00000000 Ha          -0.00000000 eV
  | ---------------------------
  | Total energy                  :        -275.64573528 Ha       -7500.70208836 eV
  | Total energy, T -> 0          :        -275.64573528 Ha       -7500.70208836 eV  <-- do not rely on this value for anything but (periodic) metals
  | Electronic free energy        :        -275.64573528 Ha       -7500.70208836 eV

  Derived energy quantities:
  | Kinetic energy                :         278.01085840 Ha        7565.06036319 eV
  | Electrostatic energy          :        -528.25923127 Ha      -14374.66505788 eV
  | Energy correction for multipole
  | error in Hartree potential    :          -0.00084217 Ha          -0.02291653 eV
  | Sum of eigenvalues per atom                           :       -2109.58962680 eV
  | Total energy (T->0) per atom                          :       -3750.35104418 eV  <-- do not rely on this value for anything but (periodic) metals
  | Electronic free energy per atom                       :       -3750.35104418 eV
  Evaluating new KS density.
  Integration grid: deviation in total charge (<rho> - N_e) =  -3.552714E-15

  Self-consistency convergence accuracy:
  | Change of charge density      :  0.9159E-03
  | Change of unmixed KS density  :  0.4296E-02
  | Change of sum of eigenvalues  : -0.2019E+00 eV
  | Change of total energy        :  0.3038E-02 eV


------------------------------------------------------------
  End self-consistency iteration #    14       :  max(cpu_time)    wall_clock(cpu1)
  | Time for this iteration                     :        0.265 s           0.265 s
  | Charge density update                       :        0.001 s           0.001 s
  | Density mixing                              :        0.249 s           0.248 s
  | Hartree multipole update                    :        0.001 s           0.001 s
  | Hartree multipole summation                 :        0.003 s           0.003 s
  | Integration                                 :        0.002 s           0.002 s
  | Fock matrix evaluation                      :        0.009 s           0.008 s
  | Solution of K.-S. eqns.                     :        0.001 s           0.002 s
  | Total energy evaluation                     :        0.000 s           0.000 s

  Partial memory accounting:
  | Current value for overall tracked memory usage:
  |   Minimum:        1.087 MB (on task  5)
  |   Maximum:        1.460 MB (on task 51)
  |   Average:        1.217 MB
  | Peak value for overall tracked memory usage:
  |   Minimum:        1.537 MB (on task  5 after allocating wave)
  |   Maximum:        2.503 MB (on task 34 after allocating ovlp3fn_nosplit%tmploc)
  |   Average:        1.702 MB
  | Largest tracked array allocation so far:
  |   Minimum:        0.691 MB (ovlp3fn2%dat on task  5)
  |   Maximum:        1.001 MB (ovlp3fn_nosplit%dat on task 34)
  |   Average:        0.804 MB
  Note:  These values currently only include a subset of arrays which are explicitly tracked.
  The "true" memory usage will be greater.
------------------------------------------------------------

------------------------------------------------------------
          Begin self-consistency iteration #   15

  Date     :  20260724, Time     :  093442.711
------------------------------------------------------------
  Pulay mixing of updated and previous charge densities.
  Available memory per node after mixing [GB]:   1026.98
  Renormalizing the density to the exact electron count on the 3D integration grid.
  | Formal number of electrons (from input files) :      20.0000000000
  | Integrated number of electrons on 3D grid     :      20.0000000000
  | Charge integration error                      :       0.0000000000
  | Normalization factor for density and gradient :       1.0000000000

  Evaluating partitioned Hartree potential by multipole expansion.
  | Original multipole sum: apparent total charge =   0.393564E-15
  | Sum of charges compensated after spline to logarithmic grids =   0.771735E-06
  | Analytical far-field extrapolation by fixed multipoles:
  | Hartree multipole sum: apparent total charge =  -0.000000E+00
  Summing up the Hartree potential.
  Time summed over all CPUs for potential: real work        0.002 s, elapsed        0.002 s
  | RMS charge density error from multipole expansion :   0.311829E-02

  Integrating Hamiltonian matrix: batch-based integration.
  Time summed over all CPUs for integration: real work        0.082 s, elapsed        0.094 s
  Calculating non-local Hartree-Fock exchange by two-center RI (RI-LVL).
  screening_threshold (crit_val) =  0.000000100000
  Exact exchange progress report - outermost block loop i_block: 1 ..       3
  |        1         2         3  
 Total ovlp3fn data transfer [GB]   4.4889596756547689E-004
  Average sparsity of tmp1/2 0.50000000
  Average sparsity of fock_matrix_row 0.02325581
  Full exact exchange energy: weighted long- and short-range EXX    173.742114879623 eV.
  Times            DM_x_o3fn   CM_prod_1   CM_prod_2   tmp2_prod        Sync   Imbalance       Other  Total calc
  | Times    0:        0.000       0.001       0.000       0.000       0.000       0.000       0.007       0.008
  | Times    1:        0.000       0.000       0.000       0.000       0.000       0.001       0.007       0.008
  | Times    2:        0.000       0.001       0.000       0.000       0.000       0.000       0.006       0.008
  | Times    3:        0.000       0.000       0.000       0.000       0.000       0.001       0.007       0.008
  | Times    4:        0.000       0.001       0.000       0.000       0.000       0.000       0.007       0.008
  | Times    5:        0.000       0.000       0.000       0.000       0.000       0.001       0.007       0.008
  | Times    6:        0.000       0.001       0.000       0.000       0.000       0.000       0.006       0.008
  | Times    7:        0.000       0.000       0.000       0.000       0.000       0.001       0.007       0.008
  | Times    8:        0.000       0.001       0.000       0.000       0.000       0.000       0.007       0.008
  | Times    9:        0.000       0.000       0.000       0.000       0.000       0.001       0.006       0.008
  | Times   10:        0.000       0.001       0.000       0.000       0.000       0.000       0.006       0.008
  | Times   11:        0.000       0.000       0.000       0.000       0.000       0.001       0.007       0.008
  | Times   12:        0.000       0.000       0.000       0.000       0.000       0.000       0.007       0.008
  | Times   13:        0.000       0.000       0.000       0.000       0.000       0.001       0.007       0.008
  | Times   14:        0.000       0.000       0.000       0.000       0.000       0.000       0.007       0.008
  | Times   15:        0.000       0.000       0.000       0.000       0.000       0.001       0.007       0.008
  | Times   16:        0.000       0.001       0.000       0.000       0.000       0.000       0.007       0.008
  | Times   17:        0.000       0.000       0.000       0.000       0.000       0.001       0.007       0.008
  | Times   18:        0.000       0.001       0.000       0.000       0.000       0.000       0.006       0.008
  | Times   19:        0.000       0.000       0.000       0.000       0.000       0.001       0.007       0.008
  | Times   20:        0.000       0.001       0.000       0.000       0.000       0.000       0.007       0.008
  | Times   21:        0.000       0.000       0.000       0.000       0.000       0.001       0.007       0.008
  | Times   22:        0.000       0.001       0.000       0.000       0.000       0.000       0.007       0.008
  | Times   23:        0.000       0.000       0.000       0.000       0.000       0.001       0.007       0.008
  | Times   24:        0.000       0.001       0.000       0.000       0.000       0.000       0.007       0.008
  | Times   25:        0.000       0.000       0.000       0.000       0.000       0.001       0.007       0.008
  | Times   26:        0.000       0.001       0.000       0.000       0.000       0.000       0.006       0.008
  | Times   27:        0.000       0.000       0.000       0.000       0.000       0.001       0.007       0.008
  | Times   28:        0.000       0.000       0.000       0.000       0.000       0.000       0.007       0.008
  | Times   29:        0.000       0.000       0.000       0.000       0.000       0.001       0.007       0.008
  | Times   30:        0.000       0.000       0.000       0.000       0.000       0.000       0.007       0.008
  | Times   31:        0.000       0.000       0.000       0.000       0.000       0.001       0.007       0.008
  | Times   32:        0.000       0.001       0.000       0.000       0.000       0.000       0.006       0.008
  | Times   33:        0.000       0.000       0.000       0.000       0.000       0.001       0.006       0.008
  | Times   34:        0.000       0.001       0.000       0.000       0.000       0.000       0.007       0.008
  | Times   35:        0.000       0.000       0.000       0.000       0.000       0.001       0.007       0.008
  | Times   36:        0.000       0.001       0.000       0.000       0.000       0.000       0.006       0.008
  | Times   37:        0.000       0.000       0.000       0.000       0.000       0.001       0.006       0.008
  | Times   38:        0.000       0.001       0.000       0.000       0.000       0.000       0.007       0.008
  | Times   39:        0.000       0.000       0.000       0.000       0.000       0.001       0.007       0.008
  | Times   40:        0.000       0.000       0.000       0.000       0.000       0.000       0.007       0.008
  | Times   41:        0.000       0.000       0.000       0.000       0.000       0.001       0.007       0.008
  | Times   42:        0.000       0.000       0.000       0.000       0.000       0.000       0.007       0.008
  | Times   43:        0.000       0.000       0.000       0.000       0.000       0.001       0.007       0.008
  | Times   44:        0.000       0.001       0.000       0.000       0.000       0.000       0.006       0.008
  | Times   45:        0.000       0.000       0.000       0.000       0.000       0.001       0.007       0.008
  | Times   46:        0.000       0.001       0.000       0.000       0.000       0.000       0.007       0.008
  | Times   47:        0.000       0.000       0.000       0.000       0.000       0.001       0.007       0.008
  | Times   48:        0.000       0.000       0.000       0.000       0.000       0.000       0.007       0.008
  | Times   49:        0.000       0.000       0.000       0.000       0.000       0.001       0.007       0.008
  | Times   50:        0.000       0.000       0.000       0.000       0.000       0.000       0.007       0.008
  | Times   51:        0.000       0.000       0.000       0.000       0.000       0.001       0.007       0.008
  | Times   52:        0.000       0.001       0.000       0.000       0.000       0.000       0.007       0.008
  | Times   53:        0.000       0.000       0.000       0.000       0.000       0.001       0.007       0.008
  | Times   54:        0.000       0.001       0.000       0.000       0.000       0.000       0.007       0.008
  | Times   55:        0.000       0.000       0.000       0.000       0.000       0.001       0.007       0.008
  | Times   56:        0.000       0.001       0.000       0.000       0.000       0.000       0.006       0.008
  | Times   57:        0.000       0.000       0.000       0.000       0.000       0.001       0.007       0.008
  | Times   58:        0.000       0.001       0.000       0.000       0.000       0.000       0.007       0.008
  | Times   59:        0.000       0.000       0.000       0.000       0.000       0.001       0.007       0.008
  | Times   60:        0.000       0.000       0.000       0.000       0.000       0.000       0.007       0.008
  | Times   61:        0.000       0.000       0.000       0.000       0.000       0.001       0.007       0.008
  | Times   62:        0.000       0.000       0.000       0.000       0.000       0.000       0.007       0.008
  | Times   63:        0.000       0.000       0.000       0.000       0.000       0.001       0.007       0.008
  | Times  sum:        0.006       0.017       0.007       0.005       0.012       0.037       0.427       0.510

  Decomposition of Other based on code block (only on MPI task 0):
  Times             Block #1    Block #2    Block #3    Block #4    Block #5    Block #6    Block #7    Block #8
  | Times    0:        0.000       0.000       0.000       0.000       0.000       0.000       0.000       0.000

  Times             Block #9   Block #10   Block #11   Block #12   Block #13   Block #14   Block #15   Block #16
  | Times    0:        0.000       0.000       0.000       0.001       0.000       0.005       0.000       0.000

  Times            Block Sum    Expected
  | Times    0:        0.006       0.007
  Time for Fock matrix mixing     0.000

  Updating Kohn-Sham eigenvalues and eigenvectors using ELSI and the ELPA eigensolver.
  Starting ELPA eigensolver
  Finished transformation to standard eigenproblem
  | Time :     0.000 s
  Finished solving standard eigenproblem
  | Time :     0.000 s
  Finished back-transformation of eigenvectors
  | Time :     0.000 s

  Obtaining occupation numbers and electronic chemical potential using ELSI.
  | Note that, for insulating systems, the printed 'chemical potential' value is not uniquely defined.
  | It can be anywhere in the energy gap, as long as it correctly separates occupied and unoccupied states.
  | In systems with a gap, the physically relevant chemical potential is the VBM or HOMO.

  | Chemical potential (Fermi level):    -4.92284109 eV
  Highest occupied state (VBM) at     -8.59436747 eV
  | Occupation number:      2.00000000

  Lowest unoccupied state (CBM) at    -1.25131472 eV
  | Occupation number:      0.00000000

  Overall HOMO-LUMO gap:      7.34305275 eV.

  Total energy components:
  | Sum of eigenvalues            :        -155.04945922 Ha       -4219.11045128 eV
  | XC energy correction          :         -12.62763013 Ha        -343.61529888 eV
  | XC potential correction       :          26.01839013 Ha         707.99641792 eV
  | Free-atom electrostatic energy:        -130.45110463 Ha       -3549.75516663 eV
  | Hartree energy correction     :          -3.53598626 Ha         -96.21908176 eV
  | Entropy correction            :          -0.00000000 Ha          -0.00000000 eV
  | ---------------------------
  | Total energy                  :        -275.64579011 Ha       -7500.70358063 eV
  | Total energy, T -> 0          :        -275.64579011 Ha       -7500.70358063 eV  <-- do not rely on this value for anything but (periodic) metals
  | Electronic free energy        :        -275.64579011 Ha       -7500.70358063 eV

  Derived energy quantities:
  | Kinetic energy                :         278.01046915 Ha        7565.04977099 eV
  | Electrostatic energy          :        -528.25875427 Ha      -14374.65207799 eV
  | Energy correction for multipole
  | error in Hartree potential    :          -0.00083860 Ha          -0.02281940 eV
  | Sum of eigenvalues per atom                           :       -2109.55522564 eV
  | Total energy (T->0) per atom                          :       -3750.35179031 eV  <-- do not rely on this value for anything but (periodic) metals
  | Electronic free energy per atom                       :       -3750.35179031 eV
  Evaluating new KS density.
  Integration grid: deviation in total charge (<rho> - N_e) =   7.105427E-15

  Self-consistency convergence accuracy:
  | Change of charge density      :  0.1321E-03
  | Change of unmixed KS density  :  0.6816E-03
  | Change of sum of eigenvalues  :  0.6880E-01 eV
  | Change of total energy        : -0.1492E-02 eV


------------------------------------------------------------
  End self-consistency iteration #    15       :  max(cpu_time)    wall_clock(cpu1)
  | Time for this iteration                     :        0.309 s           0.017 s
  | Charge density update                       :        0.001 s           0.001 s
  | Density mixing                              :        0.295 s           0.001 s
  | Hartree multipole update                    :        0.001 s           0.001 s
  | Hartree multipole summation                 :        0.003 s           0.003 s
  | Integration                                 :        0.002 s           0.001 s
  | Fock matrix evaluation                      :        0.008 s           0.008 s
  | Solution of K.-S. eqns.                     :        0.001 s           0.002 s
  | Total energy evaluation                     :        0.000 s           0.000 s

  Partial memory accounting:
  | Current value for overall tracked memory usage:
  |   Minimum:        1.087 MB (on task  5)
  |   Maximum:        1.460 MB (on task 51)
  |   Average:        1.217 MB
  | Peak value for overall tracked memory usage:
  |   Minimum:        1.537 MB (on task  5 after allocating wave)
  |   Maximum:        2.503 MB (on task 34 after allocating ovlp3fn_nosplit%tmploc)
  |   Average:        1.702 MB
  | Largest tracked array allocation so far:
  |   Minimum:        0.691 MB (ovlp3fn2%dat on task  5)
  |   Maximum:        1.001 MB (ovlp3fn_nosplit%dat on task 34)
  |   Average:        0.804 MB
  Note:  These values currently only include a subset of arrays which are explicitly tracked.
  The "true" memory usage will be greater.
------------------------------------------------------------

------------------------------------------------------------
          Begin self-consistency iteration #   16

  Date     :  20260724, Time     :  093442.773
------------------------------------------------------------
  Pulay mixing of updated and previous charge densities.
  Available memory per node after mixing [GB]:   1026.98
  Renormalizing the density to the exact electron count on the 3D integration grid.
  | Formal number of electrons (from input files) :      20.0000000000
  | Integrated number of electrons on 3D grid     :      20.0000000000
  | Charge integration error                      :       0.0000000000
  | Normalization factor for density and gradient :       1.0000000000

  Evaluating partitioned Hartree potential by multipole expansion.
  | Original multipole sum: apparent total charge =  -0.127908E-14
  | Sum of charges compensated after spline to logarithmic grids =   0.774273E-06
  | Analytical far-field extrapolation by fixed multipoles:
  | Hartree multipole sum: apparent total charge =  -0.295173E-14
  Summing up the Hartree potential.
  Time summed over all CPUs for potential: real work        0.001 s, elapsed        0.001 s
  | RMS charge density error from multipole expansion :   0.311648E-02

  Integrating Hamiltonian matrix: batch-based integration.
  Time summed over all CPUs for integration: real work        0.081 s, elapsed        0.095 s
  Calculating non-local Hartree-Fock exchange by two-center RI (RI-LVL).
  screening_threshold (crit_val) =  0.000000100000
  Exact exchange progress report - outermost block loop i_block: 1 ..       3
  |        1         2         3  
 Total ovlp3fn data transfer [GB]   4.4889596756547689E-004
  Average sparsity of tmp1/2 0.50000000
  Average sparsity of fock_matrix_row 0.02325581
  Full exact exchange energy: weighted long- and short-range EXX    173.742412368415 eV.
  Times            DM_x_o3fn   CM_prod_1   CM_prod_2   tmp2_prod        Sync   Imbalance       Other  Total calc
  | Times    0:        0.000       0.001       0.000       0.000       0.000       0.000       0.007       0.008
  | Times    1:        0.000       0.000       0.000       0.000       0.000       0.001       0.007       0.008
  | Times    2:        0.000       0.001       0.000       0.000       0.000       0.000       0.007       0.008
  | Times    3:        0.000       0.000       0.000       0.000       0.000       0.001       0.007       0.008
  | Times    4:        0.000       0.001       0.000       0.000       0.000       0.000       0.007       0.008
  | Times    5:        0.000       0.000       0.000       0.000       0.000       0.001       0.007       0.008
  | Times    6:        0.000       0.001       0.000       0.000       0.000       0.000       0.007       0.008
  | Times    7:        0.000       0.000       0.000       0.000       0.000       0.001       0.007       0.008
  | Times    8:        0.000       0.000       0.000       0.000       0.000       0.000       0.007       0.008
  | Times    9:        0.000       0.000       0.000       0.000       0.000       0.001       0.007       0.008
  | Times   10:        0.000       0.000       0.000       0.000       0.000       0.000       0.007       0.008
  | Times   11:        0.000       0.000       0.000       0.000       0.000       0.001       0.007       0.008
  | Times   12:        0.000       0.001       0.000       0.000       0.000       0.000       0.007       0.008
  | Times   13:        0.000       0.000       0.000       0.000       0.000       0.001       0.007       0.008
  | Times   14:        0.000       0.001       0.000       0.000       0.000       0.000       0.007       0.008
  | Times   15:        0.000       0.000       0.000       0.000       0.000       0.001       0.007       0.008
  | Times   16:        0.000       0.001       0.000       0.000       0.000       0.000       0.007       0.008
  | Times   17:        0.000       0.000       0.000       0.000       0.000       0.001       0.007       0.008
  | Times   18:        0.000       0.001       0.000       0.000       0.000       0.000       0.007       0.008
  | Times   19:        0.000       0.000       0.000       0.000       0.000       0.001       0.007       0.008
  | Times   20:        0.000       0.001       0.000       0.000       0.000       0.000       0.007       0.008
  | Times   21:        0.000       0.000       0.000       0.000       0.000       0.001       0.007       0.008
  | Times   22:        0.000       0.001       0.000       0.000       0.000       0.000       0.007       0.008
  | Times   23:        0.000       0.000       0.000       0.000       0.000       0.001       0.007       0.008
  | Times   24:        0.000       0.001       0.000       0.000       0.000       0.000       0.007       0.008
  | Times   25:        0.000       0.000       0.000       0.000       0.000       0.001       0.007       0.008
  | Times   26:        0.000       0.001       0.000       0.000       0.000       0.000       0.007       0.008
  | Times   27:        0.000       0.000       0.000       0.000       0.000       0.001       0.007       0.008
  | Times   28:        0.000       0.000       0.000       0.000       0.000       0.000       0.007       0.008
  | Times   29:        0.000       0.000       0.000       0.000       0.000       0.001       0.007       0.008
  | Times   30:        0.000       0.000       0.000       0.000       0.000       0.000       0.007       0.008
  | Times   31:        0.000       0.000       0.000       0.000       0.000       0.001       0.007       0.008
  | Times   32:        0.000       0.001       0.000       0.000       0.000       0.000       0.006       0.008
  | Times   33:        0.000       0.000       0.000       0.000       0.000       0.001       0.006       0.008
  | Times   34:        0.000       0.001       0.000       0.000       0.000       0.000       0.007       0.008
  | Times   35:        0.000       0.000       0.000       0.000       0.000       0.001       0.007       0.008
  | Times   36:        0.000       0.001       0.000       0.000       0.000       0.000       0.006       0.008
  | Times   37:        0.000       0.000       0.000       0.000       0.000       0.001       0.006       0.008
  | Times   38:        0.000       0.001       0.000       0.000       0.000       0.000       0.007       0.008
  | Times   39:        0.000       0.000       0.000       0.000       0.000       0.001       0.007       0.008
  | Times   40:        0.000       0.000       0.000       0.000       0.000       0.000       0.007       0.008
  | Times   41:        0.000       0.000       0.000       0.000       0.000       0.001       0.007       0.008
  | Times   42:        0.000       0.000       0.000       0.000       0.000       0.000       0.007       0.008
  | Times   43:        0.000       0.000       0.000       0.000       0.000       0.001       0.007       0.008
  | Times   44:        0.000       0.001       0.000       0.000       0.000       0.000       0.007       0.008
  | Times   45:        0.000       0.000       0.000       0.000       0.000       0.001       0.007       0.008
  | Times   46:        0.000       0.001       0.000       0.000       0.000       0.000       0.007       0.008
  | Times   47:        0.000       0.000       0.000       0.000       0.000       0.001       0.007       0.008
  | Times   48:        0.000       0.000       0.000       0.000       0.000       0.000       0.007       0.008
  | Times   49:        0.000       0.000       0.000       0.000       0.000       0.001       0.007       0.008
  | Times   50:        0.000       0.000       0.000       0.000       0.000       0.000       0.007       0.008
  | Times   51:        0.000       0.000       0.000       0.000       0.000       0.001       0.007       0.008
  | Times   52:        0.000       0.001       0.000       0.000       0.000       0.000       0.007       0.008
  | Times   53:        0.000       0.000       0.000       0.000       0.000       0.001       0.007       0.008
  | Times   54:        0.000       0.001       0.000       0.000       0.000       0.000       0.007       0.008
  | Times   55:        0.000       0.000       0.000       0.000       0.000       0.001       0.007       0.008
  | Times   56:        0.000       0.001       0.000       0.000       0.000       0.000       0.006       0.008
  | Times   57:        0.000       0.000       0.000       0.000       0.000       0.001       0.006       0.008
  | Times   58:        0.000       0.001       0.000       0.000       0.000       0.000       0.007       0.008
  | Times   59:        0.000       0.000       0.000       0.000       0.000       0.001       0.007       0.008
  | Times   60:        0.000       0.000       0.000       0.000       0.000       0.000       0.007       0.008
  | Times   61:        0.000       0.000       0.000       0.000       0.000       0.001       0.007       0.008
  | Times   62:        0.000       0.000       0.000       0.000       0.000       0.000       0.007       0.008
  | Times   63:        0.000       0.000       0.000       0.000       0.000       0.001       0.007       0.008
  | Times  sum:        0.006       0.017       0.007       0.005       0.012       0.037       0.429       0.512

  Decomposition of Other based on code block (only on MPI task 0):
  Times             Block #1    Block #2    Block #3    Block #4    Block #5    Block #6    Block #7    Block #8
  | Times    0:        0.000       0.000       0.000       0.000       0.000       0.000       0.000       0.000

  Times             Block #9   Block #10   Block #11   Block #12   Block #13   Block #14   Block #15   Block #16
  | Times    0:        0.000       0.000       0.000       0.001       0.000       0.005       0.000       0.000

  Times            Block Sum    Expected
  | Times    0:        0.006       0.007
  Time for Fock matrix mixing     0.000

  Updating Kohn-Sham eigenvalues and eigenvectors using ELSI and the ELPA eigensolver.
  Starting ELPA eigensolver
  Finished transformation to standard eigenproblem
  | Time :     0.001 s
  Finished solving standard eigenproblem
  | Time :     0.000 s
  Finished back-transformation of eigenvectors
  | Time :     0.000 s

  Obtaining occupation numbers and electronic chemical potential using ELSI.
  | Note that, for insulating systems, the printed 'chemical potential' value is not uniquely defined.
  | It can be anywhere in the energy gap, as long as it correctly separates occupied and unoccupied states.
  | In systems with a gap, the physically relevant chemical potential is the VBM or HOMO.

  | Chemical potential (Fermi level):    -4.92380800 eV
  Highest occupied state (VBM) at     -8.59729129 eV
  | Occupation number:      2.00000000

  Lowest unoccupied state (CBM) at    -1.25032470 eV
  | Occupation number:      0.00000000

  Overall HOMO-LUMO gap:      7.34696659 eV.

  Total energy components:
  | Sum of eigenvalues            :        -155.05205721 Ha       -4219.18114619 eV
  | XC energy correction          :         -12.62747457 Ha        -343.61106588 eV
  | XC potential correction       :          26.01813928 Ha         707.98959202 eV
  | Free-atom electrostatic energy:        -130.45110463 Ha       -3549.75516663 eV
  | Hartree energy correction     :          -3.53327103 Ha         -96.14519652 eV
  | Entropy correction            :          -0.00000000 Ha          -0.00000000 eV
  | ---------------------------
  | Total energy                  :        -275.64576816 Ha       -7500.70298319 eV
  | Total energy, T -> 0          :        -275.64576816 Ha       -7500.70298319 eV  <-- do not rely on this value for anything but (periodic) metals
  | Electronic free energy        :        -275.64576816 Ha       -7500.70298319 eV

  Derived energy quantities:
  | Kinetic energy                :         278.00976340 Ha        7565.03056669 eV
  | Electrostatic energy          :        -528.25822490 Ha      -14374.63767313 eV
  | Energy correction for multipole
  | error in Hartree potential    :          -0.00084030 Ha          -0.02286581 eV
  | Sum of eigenvalues per atom                           :       -2109.59057309 eV
  | Total energy (T->0) per atom                          :       -3750.35149159 eV  <-- do not rely on this value for anything but (periodic) metals
  | Electronic free energy per atom                       :       -3750.35149159 eV
  Evaluating new KS density.
  Integration grid: deviation in total charge (<rho> - N_e) =  -3.552714E-15

  Self-consistency convergence accuracy:
  | Change of charge density      :  0.1810E-03
  | Change of unmixed KS density  :  0.2174E-03
  | Change of sum of eigenvalues  : -0.7069E-01 eV
  | Change of total energy        :  0.5974E-03 eV


------------------------------------------------------------
  End self-consistency iteration #    16       :  max(cpu_time)    wall_clock(cpu1)
  | Time for this iteration                     :        0.375 s           0.346 s
  | Charge density update                       :        0.001 s           0.001 s
  | Density mixing                              :        0.362 s           0.332 s
  | Hartree multipole update                    :        0.001 s           0.001 s
  | Hartree multipole summation                 :        0.002 s           0.001 s
  | Integration                                 :        0.002 s           0.002 s
  | Fock matrix evaluation                      :        0.008 s           0.008 s
  | Solution of K.-S. eqns.                     :        0.001 s           0.001 s
  | Total energy evaluation                     :        0.000 s           0.000 s

  Partial memory accounting:
  | Current value for overall tracked memory usage:
  |   Minimum:        1.087 MB (on task  5)
  |   Maximum:        1.460 MB (on task 51)
  |   Average:        1.217 MB
  | Peak value for overall tracked memory usage:
  |   Minimum:        1.537 MB (on task  5 after allocating wave)
  |   Maximum:        2.503 MB (on task 34 after allocating ovlp3fn_nosplit%tmploc)
  |   Average:        1.702 MB
  | Largest tracked array allocation so far:
  |   Minimum:        0.691 MB (ovlp3fn2%dat on task  5)
  |   Maximum:        1.001 MB (ovlp3fn_nosplit%dat on task 34)
  |   Average:        0.804 MB
  Note:  These values currently only include a subset of arrays which are explicitly tracked.
  The "true" memory usage will be greater.
------------------------------------------------------------

------------------------------------------------------------
          Begin self-consistency iteration #   17

  Date     :  20260724, Time     :  093443.291
------------------------------------------------------------
  Pulay mixing of updated and previous charge densities.
  Available memory per node after mixing [GB]:   1026.97
  Renormalizing the density to the exact electron count on the 3D integration grid.
  | Formal number of electrons (from input files) :      20.0000000000
  | Integrated number of electrons on 3D grid     :      20.0000000000
  | Charge integration error                      :       0.0000000000
  | Normalization factor for density and gradient :       1.0000000000

  Evaluating partitioned Hartree potential by multipole expansion.
  | Original multipole sum: apparent total charge =  -0.885519E-15
  | Sum of charges compensated after spline to logarithmic grids =   0.774477E-06
  | Analytical far-field extrapolation by fixed multipoles:
  | Hartree multipole sum: apparent total charge =  -0.236138E-14
  Summing up the Hartree potential.
  Time summed over all CPUs for potential: real work        0.001 s, elapsed        0.001 s
  | RMS charge density error from multipole expansion :   0.311665E-02

  Integrating Hamiltonian matrix: batch-based integration.
  Time summed over all CPUs for integration: real work        0.080 s, elapsed        0.097 s
  Calculating non-local Hartree-Fock exchange by two-center RI (RI-LVL).
  screening_threshold (crit_val) =  0.000000100000
  Exact exchange progress report - outermost block loop i_block: 1 ..       3
  |        1         2         3  
 Total ovlp3fn data transfer [GB]   4.4889596756547689E-004
  Average sparsity of tmp1/2 0.50000000
  Average sparsity of fock_matrix_row 0.02325581
  Full exact exchange energy: weighted long- and short-range EXX    173.742428831742 eV.
  Times            DM_x_o3fn   CM_prod_1   CM_prod_2   tmp2_prod        Sync   Imbalance       Other  Total calc
  | Times    0:        0.000       0.001       0.000       0.000       0.000       0.000       0.006       0.008
  | Times    1:        0.000       0.000       0.000       0.000       0.000       0.001       0.006       0.008
  | Times    2:        0.000       0.001       0.000       0.000       0.000       0.000       0.006       0.008
  | Times    3:        0.000       0.000       0.000       0.000       0.000       0.001       0.006       0.008
  | Times    4:        0.000       0.001       0.000       0.000       0.000       0.000       0.007       0.008
  | Times    5:        0.000       0.000       0.000       0.000       0.000       0.001       0.006       0.008
  | Times    6:        0.000       0.001       0.000       0.000       0.000       0.000       0.006       0.008
  | Times    7:        0.000       0.000       0.000       0.000       0.000       0.001       0.006       0.008
  | Times    8:        0.000       0.000       0.000       0.000       0.000       0.000       0.007       0.008
  | Times    9:        0.000       0.000       0.000       0.000       0.000       0.001       0.007       0.008
  | Times   10:        0.000       0.000       0.000       0.000       0.000       0.000       0.007       0.008
  | Times   11:        0.000       0.000       0.000       0.000       0.000       0.001       0.007       0.008
  | Times   12:        0.000       0.001       0.000       0.000       0.000       0.000       0.007       0.008
  | Times   13:        0.000       0.000       0.000       0.000       0.000       0.001       0.007       0.008
  | Times   14:        0.000       0.001       0.000       0.000       0.000       0.000       0.006       0.008
  | Times   15:        0.000       0.000       0.000       0.000       0.000       0.001       0.007       0.008
  | Times   16:        0.000       0.001       0.000       0.000       0.000       0.000       0.007       0.008
  | Times   17:        0.000       0.000       0.000       0.000       0.000       0.001       0.006       0.008
  | Times   18:        0.000       0.001       0.000       0.000       0.000       0.000       0.006       0.008
  | Times   19:        0.000       0.000       0.000       0.000       0.000       0.001       0.007       0.008
  | Times   20:        0.000       0.001       0.000       0.000       0.000       0.000       0.007       0.008
  | Times   21:        0.000       0.000       0.000       0.000       0.000       0.001       0.007       0.008
  | Times   22:        0.000       0.001       0.000       0.000       0.000       0.000       0.007       0.008
  | Times   23:        0.000       0.000       0.000       0.000       0.000       0.001       0.007       0.008
  | Times   24:        0.000       0.001       0.000       0.000       0.000       0.000       0.007       0.008
  | Times   25:        0.000       0.000       0.000       0.000       0.000       0.001       0.006       0.008
  | Times   26:        0.000       0.001       0.000       0.000       0.000       0.000       0.006       0.008
  | Times   27:        0.000       0.000       0.000       0.000       0.000       0.001       0.006       0.008
  | Times   28:        0.000       0.000       0.000       0.000       0.000       0.000       0.007       0.008
  | Times   29:        0.000       0.000       0.000       0.000       0.000       0.001       0.007       0.008
  | Times   30:        0.000       0.000       0.000       0.000       0.000       0.000       0.007       0.008
  | Times   31:        0.000       0.000       0.000       0.000       0.000       0.001       0.007       0.008
  | Times   32:        0.000       0.001       0.000       0.000       0.000       0.000       0.006       0.008
  | Times   33:        0.000       0.000       0.000       0.000       0.000       0.001       0.006       0.008
  | Times   34:        0.000       0.001       0.000       0.000       0.000       0.000       0.006       0.008
  | Times   35:        0.000       0.000       0.000       0.000       0.000       0.001       0.006       0.008
  | Times   36:        0.000       0.001       0.000       0.000       0.000       0.000       0.006       0.008
  | Times   37:        0.000       0.000       0.000       0.000       0.000       0.001       0.006       0.008
  | Times   38:        0.000       0.001       0.000       0.000       0.000       0.000       0.007       0.008
  | Times   39:        0.000       0.000       0.000       0.000       0.000       0.001       0.006       0.008
  | Times   40:        0.000       0.000       0.000       0.000       0.000       0.000       0.007       0.008
  | Times   41:        0.000       0.000       0.000       0.000       0.000       0.001       0.007       0.008
  | Times   42:        0.000       0.000       0.000       0.000       0.000       0.000       0.007       0.008
  | Times   43:        0.000       0.000       0.000       0.000       0.000       0.001       0.007       0.008
  | Times   44:        0.000       0.001       0.000       0.000       0.000       0.000       0.006       0.008
  | Times   45:        0.000       0.000       0.000       0.000       0.000       0.001       0.006       0.008
  | Times   46:        0.000       0.001       0.000       0.000       0.000       0.000       0.007       0.008
  | Times   47:        0.000       0.000       0.000       0.000       0.000       0.001       0.007       0.008
  | Times   48:        0.000       0.000       0.000       0.000       0.000       0.000       0.007       0.008
  | Times   49:        0.000       0.000       0.000       0.000       0.000       0.001       0.007       0.008
  | Times   50:        0.000       0.000       0.000       0.000       0.000       0.000       0.007       0.008
  | Times   51:        0.000       0.000       0.000       0.000       0.000       0.001       0.007       0.008
  | Times   52:        0.000       0.001       0.000       0.000       0.000       0.000       0.007       0.008
  | Times   53:        0.000       0.000       0.000       0.000       0.000       0.001       0.007       0.008
  | Times   54:        0.000       0.001       0.000       0.000       0.000       0.000       0.007       0.008
  | Times   55:        0.000       0.000       0.000       0.000       0.000       0.001       0.007       0.008
  | Times   56:        0.000       0.001       0.000       0.000       0.000       0.000       0.006       0.008
  | Times   57:        0.000       0.000       0.000       0.000       0.000       0.001       0.006       0.008
  | Times   58:        0.000       0.001       0.000       0.000       0.000       0.000       0.007       0.008
  | Times   59:        0.000       0.000       0.000       0.000       0.000       0.001       0.006       0.008
  | Times   60:        0.000       0.000       0.000       0.000       0.000       0.000       0.007       0.008
  | Times   61:        0.000       0.000       0.000       0.000       0.000       0.001       0.007       0.008
  | Times   62:        0.000       0.000       0.000       0.000       0.000       0.000       0.007       0.008
  | Times   63:        0.000       0.000       0.000       0.000       0.000       0.001       0.007       0.008
  | Times  sum:        0.006       0.017       0.007       0.005       0.012       0.037       0.423       0.507

  Decomposition of Other based on code block (only on MPI task 0):
  Times             Block #1    Block #2    Block #3    Block #4    Block #5    Block #6    Block #7    Block #8
  | Times    0:        0.000       0.000       0.000       0.000       0.000       0.000       0.000       0.000

  Times             Block #9   Block #10   Block #11   Block #12   Block #13   Block #14   Block #15   Block #16
  | Times    0:        0.000       0.000       0.000       0.001       0.000       0.005       0.000       0.000

  Times            Block Sum    Expected
  | Times    0:        0.006       0.006
  Time for Fock matrix mixing     0.000

  Updating Kohn-Sham eigenvalues and eigenvectors using ELSI and the ELPA eigensolver.
  Starting ELPA eigensolver
  Finished transformation to standard eigenproblem
  | Time :     0.000 s
  Finished solving standard eigenproblem
  | Time :     0.001 s
  Finished back-transformation of eigenvectors
  | Time :     0.000 s

  Obtaining occupation numbers and electronic chemical potential using ELSI.
  | Note that, for insulating systems, the printed 'chemical potential' value is not uniquely defined.
  | It can be anywhere in the energy gap, as long as it correctly separates occupied and unoccupied states.
  | In systems with a gap, the physically relevant chemical potential is the VBM or HOMO.

  | Chemical potential (Fermi level):    -4.92359340 eV
  Highest occupied state (VBM) at     -8.59670933 eV
  | Occupation number:      2.00000000

  Lowest unoccupied state (CBM) at    -1.25047747 eV
  | Occupation number:      0.00000000

  Overall HOMO-LUMO gap:      7.34623186 eV.

  Total energy components:
  | Sum of eigenvalues            :        -155.05182774 Ha       -4219.17490197 eV
  | XC energy correction          :         -12.62750300 Ha        -343.61183940 eV
  | XC potential correction       :          26.01816291 Ha         707.99023490 eV
  | Free-atom electrostatic energy:        -130.45110463 Ha       -3549.75516663 eV
  | Hartree energy correction     :          -3.53349421 Ha         -96.15126953 eV
  | Entropy correction            :          -0.00000000 Ha          -0.00000000 eV
  | ---------------------------
  | Total energy                  :        -275.64576667 Ha       -7500.70294262 eV
  | Total energy, T -> 0          :        -275.64576667 Ha       -7500.70294262 eV  <-- do not rely on this value for anything but (periodic) metals
  | Electronic free energy        :        -275.64576667 Ha       -7500.70294262 eV

  Derived energy quantities:
  | Kinetic energy                :         278.00978151 Ha        7565.03105944 eV
  | Electrostatic energy          :        -528.25823635 Ha      -14374.63798456 eV
  | Energy correction for multipole
  | error in Hartree potential    :          -0.00084056 Ha          -0.02287283 eV
  | Sum of eigenvalues per atom                           :       -2109.58745099 eV
  | Total energy (T->0) per atom                          :       -3750.35147131 eV  <-- do not rely on this value for anything but (periodic) metals
  | Electronic free energy per atom                       :       -3750.35147131 eV
  Evaluating new KS density.
  Integration grid: deviation in total charge (<rho> - N_e) =   7.105427E-15

  Self-consistency convergence accuracy:
  | Change of charge density      :  0.5293E-04
  | Change of unmixed KS density  :  0.2440E-03
  | Change of sum of eigenvalues  :  0.6244E-02 eV
  | Change of total energy        :  0.4056E-04 eV


------------------------------------------------------------
  End self-consistency iteration #    17       :  max(cpu_time)    wall_clock(cpu1)
  | Time for this iteration                     :        0.266 s           0.113 s
  | Charge density update                       :        0.001 s           0.001 s
  | Density mixing                              :        0.253 s           0.098 s
  | Hartree multipole update                    :        0.001 s           0.001 s
  | Hartree multipole summation                 :        0.002 s           0.002 s
  | Integration                                 :        0.002 s           0.002 s
  | Fock matrix evaluation                      :        0.008 s           0.008 s
  | Solution of K.-S. eqns.                     :        0.001 s           0.001 s
  | Total energy evaluation                     :        0.000 s           0.000 s

  Partial memory accounting:
  | Current value for overall tracked memory usage:
  |   Minimum:        1.087 MB (on task  5)
  |   Maximum:        1.460 MB (on task 51)
  |   Average:        1.217 MB
  | Peak value for overall tracked memory usage:
  |   Minimum:        1.537 MB (on task  5 after allocating wave)
  |   Maximum:        2.503 MB (on task 34 after allocating ovlp3fn_nosplit%tmploc)
  |   Average:        1.702 MB
  | Largest tracked array allocation so far:
  |   Minimum:        0.691 MB (ovlp3fn2%dat on task  5)
  |   Maximum:        1.001 MB (ovlp3fn_nosplit%dat on task 34)
  |   Average:        0.804 MB
  Note:  These values currently only include a subset of arrays which are explicitly tracked.
  The "true" memory usage will be greater.
------------------------------------------------------------

------------------------------------------------------------
          Begin self-consistency iteration #   18

  Date     :  20260724, Time     :  093443.647
------------------------------------------------------------
  Pulay mixing of updated and previous charge densities.
  Available memory per node after mixing [GB]:   1026.97
  Renormalizing the density to the exact electron count on the 3D integration grid.
  | Formal number of electrons (from input files) :      20.0000000000
  | Integrated number of electrons on 3D grid     :      20.0000000000
  | Charge integration error                      :       0.0000000000
  | Normalization factor for density and gradient :       1.0000000000

  Evaluating partitioned Hartree potential by multipole expansion.
  | Original multipole sum: apparent total charge =  -0.127908E-14
  | Sum of charges compensated after spline to logarithmic grids =   0.773623E-06
  | Analytical far-field extrapolation by fixed multipoles:
  | Hartree multipole sum: apparent total charge =  -0.147586E-14
  Summing up the Hartree potential.
  Time summed over all CPUs for potential: real work        0.001 s, elapsed        0.001 s
  | RMS charge density error from multipole expansion :   0.311676E-02

  Integrating Hamiltonian matrix: batch-based integration.
  Time summed over all CPUs for integration: real work        0.080 s, elapsed        0.093 s
  Calculating non-local Hartree-Fock exchange by two-center RI (RI-LVL).
  screening_threshold (crit_val) =  0.000000100000
  Exact exchange progress report - outermost block loop i_block: 1 ..       3
  |        1         2         3  
 Total ovlp3fn data transfer [GB]   4.4889596756547689E-004
  Average sparsity of tmp1/2 0.50000000
  Average sparsity of fock_matrix_row 0.02325581
  Full exact exchange energy: weighted long- and short-range EXX    173.742152963648 eV.
  Times            DM_x_o3fn   CM_prod_1   CM_prod_2   tmp2_prod        Sync   Imbalance       Other  Total calc
  | Times    0:        0.000       0.001       0.000       0.000       0.000       0.000       0.008       0.009
  | Times    1:        0.000       0.000       0.000       0.000       0.000       0.001       0.008       0.009
  | Times    2:        0.000       0.001       0.000       0.000       0.000       0.000       0.008       0.009
  | Times    3:        0.000       0.000       0.000       0.000       0.000       0.001       0.008       0.009
  | Times    4:        0.000       0.001       0.000       0.000       0.000       0.001       0.008       0.009
  | Times    5:        0.000       0.000       0.000       0.000       0.000       0.001       0.008       0.009
  | Times    6:        0.000       0.001       0.000       0.000       0.000       0.000       0.008       0.009
  | Times    7:        0.000       0.000       0.000       0.000       0.000       0.001       0.008       0.009
  | Times    8:        0.000       0.000       0.000       0.000       0.000       0.000       0.008       0.009
  | Times    9:        0.000       0.000       0.000       0.000       0.000       0.001       0.008       0.009
  | Times   10:        0.000       0.001       0.000       0.000       0.000       0.000       0.008       0.009
  | Times   11:        0.000       0.000       0.000       0.000       0.000       0.001       0.008       0.009
  | Times   12:        0.000       0.001       0.000       0.000       0.000       0.000       0.008       0.009
  | Times   13:        0.000       0.000       0.000       0.000       0.000       0.001       0.008       0.009
  | Times   14:        0.000       0.001       0.000       0.000       0.000       0.000       0.008       0.009
  | Times   15:        0.000       0.000       0.000       0.000       0.000       0.001       0.008       0.009
  | Times   16:        0.000       0.001       0.000       0.000       0.000       0.000       0.008       0.009
  | Times   17:        0.000       0.000       0.000       0.000       0.000       0.001       0.008       0.009
  | Times   18:        0.000       0.001       0.000       0.000       0.000       0.000       0.008       0.009
  | Times   19:        0.000       0.000       0.000       0.000       0.000       0.001       0.008       0.009
  | Times   20:        0.000       0.001       0.000       0.000       0.000       0.000       0.008       0.009
  | Times   21:        0.000       0.000       0.000       0.000       0.000       0.001       0.008       0.009
  | Times   22:        0.000       0.001       0.000       0.000       0.000       0.000       0.008       0.009
  | Times   23:        0.000       0.000       0.000       0.000       0.000       0.001       0.008       0.009
  | Times   24:        0.000       0.001       0.000       0.000       0.000       0.000       0.008       0.009
  | Times   25:        0.000       0.000       0.000       0.000       0.000       0.001       0.008       0.009
  | Times   26:        0.000       0.001       0.000       0.000       0.000       0.000       0.008       0.009
  | Times   27:        0.000       0.000       0.000       0.000       0.000       0.001       0.008       0.009
  | Times   28:        0.000       0.000       0.000       0.000       0.000       0.000       0.008       0.009
  | Times   29:        0.000       0.000       0.000       0.000       0.000       0.001       0.008       0.009
  | Times   30:        0.000       0.001       0.000       0.000       0.000       0.000       0.008       0.009
  | Times   31:        0.000       0.000       0.000       0.000       0.000       0.001       0.008       0.009
  | Times   32:        0.000       0.001       0.000       0.000       0.000       0.000       0.008       0.009
  | Times   33:        0.000       0.000       0.000       0.000       0.000       0.001       0.008       0.009
  | Times   34:        0.000       0.001       0.000       0.000       0.000       0.000       0.008       0.009
  | Times   35:        0.000       0.000       0.000       0.000       0.000       0.001       0.008       0.009
  | Times   36:        0.000       0.001       0.000       0.000       0.000       0.000       0.008       0.009
  | Times   37:        0.000       0.000       0.000       0.000       0.000       0.001       0.008       0.009
  | Times   38:        0.000       0.001       0.000       0.000       0.000       0.000       0.008       0.009
  | Times   39:        0.000       0.000       0.000       0.000       0.000       0.001       0.008       0.009
  | Times   40:        0.000       0.000       0.000       0.000       0.000       0.000       0.008       0.009
  | Times   41:        0.000       0.000       0.000       0.000       0.000       0.001       0.008       0.009
  | Times   42:        0.000       0.000       0.000       0.000       0.000       0.000       0.008       0.009
  | Times   43:        0.000       0.000       0.000       0.000       0.000       0.001       0.008       0.009
  | Times   44:        0.000       0.001       0.000       0.000       0.000       0.000       0.008       0.009
  | Times   45:        0.000       0.000       0.000       0.000       0.000       0.001       0.008       0.009
  | Times   46:        0.000       0.001       0.000       0.000       0.000       0.000       0.008       0.009
  | Times   47:        0.000       0.000       0.000       0.000       0.000       0.001       0.008       0.009
  | Times   48:        0.000       0.000       0.000       0.000       0.000       0.000       0.008       0.009
  | Times   49:        0.000       0.000       0.000       0.000       0.000       0.001       0.008       0.009
  | Times   50:        0.000       0.000       0.000       0.000       0.000       0.000       0.008       0.009
  | Times   51:        0.000       0.000       0.000       0.000       0.000       0.001       0.008       0.009
  | Times   52:        0.000       0.001       0.000       0.000       0.000       0.000       0.008       0.009
  | Times   53:        0.000       0.000       0.000       0.000       0.000       0.001       0.008       0.009
  | Times   54:        0.000       0.001       0.000       0.000       0.000       0.000       0.008       0.009
  | Times   55:        0.000       0.000       0.000       0.000       0.000       0.001       0.008       0.009
  | Times   56:        0.000       0.001       0.000       0.000       0.000       0.000       0.008       0.009
  | Times   57:        0.000       0.000       0.000       0.000       0.000       0.001       0.008       0.009
  | Times   58:        0.000       0.001       0.000       0.000       0.000       0.000       0.008       0.009
  | Times   59:        0.000       0.000       0.000       0.000       0.000       0.001       0.008       0.009
  | Times   60:        0.000       0.000       0.000       0.000       0.000       0.000       0.008       0.009
  | Times   61:        0.000       0.000       0.000       0.000       0.000       0.001       0.008       0.009
  | Times   62:        0.000       0.000       0.000       0.000       0.000       0.000       0.009       0.009
  | Times   63:        0.000       0.000       0.000       0.000       0.000       0.001       0.008       0.009
  | Times  sum:        0.006       0.019       0.007       0.005       0.012       0.040       0.517       0.605

  Decomposition of Other based on code block (only on MPI task 0):
  Times             Block #1    Block #2    Block #3    Block #4    Block #5    Block #6    Block #7    Block #8
  | Times    0:        0.000       0.000       0.000       0.000       0.000       0.000       0.000       0.000

  Times             Block #9   Block #10   Block #11   Block #12   Block #13   Block #14   Block #15   Block #16
  | Times    0:        0.000       0.000       0.000       0.002       0.000       0.005       0.000       0.000

  Times            Block Sum    Expected
  | Times    0:        0.007       0.008
  Time for Fock matrix mixing     0.000

  Updating Kohn-Sham eigenvalues and eigenvectors using ELSI and the ELPA eigensolver.
  Starting ELPA eigensolver
  Finished transformation to standard eigenproblem
  | Time :     0.001 s
  Finished solving standard eigenproblem
  | Time :     0.000 s
  Finished back-transformation of eigenvectors
  | Time :     0.000 s

  Obtaining occupation numbers and electronic chemical potential using ELSI.
  | Note that, for insulating systems, the printed 'chemical potential' value is not uniquely defined.
  | It can be anywhere in the energy gap, as long as it correctly separates occupied and unoccupied states.
  | In systems with a gap, the physically relevant chemical potential is the VBM or HOMO.

  | Chemical potential (Fermi level):    -4.92360842 eV
  Highest occupied state (VBM) at     -8.59654797 eV
  | Occupation number:      2.00000000

  Lowest unoccupied state (CBM) at    -1.25066887 eV
  | Occupation number:      0.00000000

  Overall HOMO-LUMO gap:      7.34587910 eV.

  Total energy components:
  | Sum of eigenvalues            :        -155.05164126 Ha       -4219.16982781 eV
  | XC energy correction          :         -12.62751184 Ha        -343.61208002 eV
  | XC potential correction       :          26.01818177 Ha         707.99074806 eV
  | Free-atom electrostatic energy:        -130.45110463 Ha       -3549.75516663 eV
  | Hartree energy correction     :          -3.53369040 Ha         -96.15660829 eV
  | Entropy correction            :          -0.00000000 Ha          -0.00000000 eV
  | ---------------------------
  | Total energy                  :        -275.64576638 Ha       -7500.70293469 eV
  | Total energy, T -> 0          :        -275.64576638 Ha       -7500.70293469 eV  <-- do not rely on this value for anything but (periodic) metals
  | Electronic free energy        :        -275.64576638 Ha       -7500.70293469 eV

  Derived energy quantities:
  | Kinetic energy                :         278.00991199 Ha        7565.03461004 eV
  | Electrostatic energy          :        -528.25834841 Ha      -14374.64103403 eV
  | Energy correction for multipole
  | error in Hartree potential    :          -0.00084000 Ha          -0.02285753 eV
  | Sum of eigenvalues per atom                           :       -2109.58491391 eV
  | Total energy (T->0) per atom                          :       -3750.35146735 eV  <-- do not rely on this value for anything but (periodic) metals
  | Electronic free energy per atom                       :       -3750.35146735 eV
  Evaluating new KS density.
  Integration grid: deviation in total charge (<rho> - N_e) =  -7.105427E-15

  Self-consistency convergence accuracy:
  | Change of charge density      :  0.2625E-04
  | Change of unmixed KS density  :  0.2544E-04
  | Change of sum of eigenvalues  :  0.5074E-02 eV
  | Change of total energy        :  0.7933E-05 eV


------------------------------------------------------------
  End self-consistency iteration #    18       :  max(cpu_time)    wall_clock(cpu1)
  | Time for this iteration                     :        0.268 s           0.043 s
  | Charge density update                       :        0.001 s           0.001 s
  | Density mixing                              :        0.255 s           0.026 s
  | Hartree multipole update                    :        0.001 s           0.001 s
  | Hartree multipole summation                 :        0.002 s           0.002 s
  | Integration                                 :        0.002 s           0.002 s
  | Fock matrix evaluation                      :        0.010 s           0.009 s
  | Solution of K.-S. eqns.                     :        0.001 s           0.001 s
  | Total energy evaluation                     :        0.000 s           0.001 s

  Partial memory accounting:
  | Current value for overall tracked memory usage:
  |   Minimum:        1.087 MB (on task  5)
  |   Maximum:        1.460 MB (on task 51)
  |   Average:        1.217 MB
  | Peak value for overall tracked memory usage:
  |   Minimum:        1.537 MB (on task  5 after allocating wave)
  |   Maximum:        2.503 MB (on task 34 after allocating ovlp3fn_nosplit%tmploc)
  |   Average:        1.702 MB
  | Largest tracked array allocation so far:
  |   Minimum:        0.691 MB (ovlp3fn2%dat on task  5)
  |   Maximum:        1.001 MB (ovlp3fn_nosplit%dat on task 34)
  |   Average:        0.804 MB
  Note:  These values currently only include a subset of arrays which are explicitly tracked.
  The "true" memory usage will be greater.
------------------------------------------------------------

------------------------------------------------------------
          Begin self-consistency iteration #   19

  Date     :  20260724, Time     :  093443.954
------------------------------------------------------------
  Pulay mixing of updated and previous charge densities.
  Available memory per node after mixing [GB]:   1026.97
  Renormalizing the density to the exact electron count on the 3D integration grid.
  | Formal number of electrons (from input files) :      20.0000000000
  | Integrated number of electrons on 3D grid     :      20.0000000000
  | Charge integration error                      :      -0.0000000000
  | Normalization factor for density and gradient :       1.0000000000

  Evaluating partitioned Hartree potential by multipole expansion.
  | Original multipole sum: apparent total charge =  -0.531311E-14
  | Sum of charges compensated after spline to logarithmic grids =   0.773743E-06
  | Analytical far-field extrapolation by fixed multipoles:
  | Hartree multipole sum: apparent total charge =  -0.550989E-14
  Summing up the Hartree potential.
  Time summed over all CPUs for potential: real work        0.001 s, elapsed        0.001 s
  | RMS charge density error from multipole expansion :   0.311675E-02

  Integrating Hamiltonian matrix: batch-based integration.
  Time summed over all CPUs for integration: real work        0.080 s, elapsed        0.095 s
  Calculating non-local Hartree-Fock exchange by two-center RI (RI-LVL).
  screening_threshold (crit_val) =  0.000000100000
  Exact exchange progress report - outermost block loop i_block: 1 ..       3
  |        1         2         3  
 Total ovlp3fn data transfer [GB]   4.4889596756547689E-004
  Average sparsity of tmp1/2 0.50000000
  Average sparsity of fock_matrix_row 0.02325581
  Full exact exchange energy: weighted long- and short-range EXX    173.742287133219 eV.
  Times            DM_x_o3fn   CM_prod_1   CM_prod_2   tmp2_prod        Sync   Imbalance       Other  Total calc
  | Times    0:        0.000       0.001       0.000       0.000       0.000       0.000       0.006       0.007
  | Times    1:        0.000       0.000       0.000       0.000       0.000       0.001       0.006       0.007
  | Times    2:        0.000       0.001       0.000       0.000       0.000       0.000       0.006       0.007
  | Times    3:        0.000       0.000       0.000       0.000       0.000       0.001       0.006       0.007
  | Times    4:        0.000       0.000       0.000       0.000       0.000       0.000       0.006       0.007
  | Times    5:        0.000       0.000       0.000       0.000       0.000       0.001       0.006       0.007
  | Times    6:        0.000       0.000       0.000       0.000       0.000       0.000       0.006       0.007
  | Times    7:        0.000       0.000       0.000       0.000       0.000       0.001       0.006       0.007
  | Times    8:        0.000       0.001       0.000       0.000       0.000       0.000       0.006       0.007
  | Times    9:        0.000       0.000       0.000       0.000       0.000       0.001       0.006       0.007
  | Times   10:        0.000       0.001       0.000       0.000       0.000       0.000       0.006       0.007
  | Times   11:        0.000       0.000       0.000       0.000       0.000       0.001       0.006       0.007
  | Times   12:        0.000       0.000       0.000       0.000       0.000       0.000       0.006       0.007
  | Times   13:        0.000       0.000       0.000       0.000       0.000       0.001       0.006       0.007
  | Times   14:        0.000       0.000       0.000       0.000       0.000       0.000       0.006       0.007
  | Times   15:        0.000       0.000       0.000       0.000       0.000       0.001       0.006       0.007
  | Times   16:        0.000       0.001       0.000       0.000       0.000       0.000       0.006       0.007
  | Times   17:        0.000       0.000       0.000       0.000       0.000       0.001       0.006       0.007
  | Times   18:        0.000       0.001       0.000       0.000       0.000       0.000       0.006       0.007
  | Times   19:        0.000       0.000       0.000       0.000       0.000       0.001       0.006       0.007
  | Times   20:        0.000       0.000       0.000       0.000       0.000       0.000       0.006       0.007
  | Times   21:        0.000       0.000       0.000       0.000       0.000       0.001       0.006       0.007
  | Times   22:        0.000       0.000       0.000       0.000       0.000       0.000       0.006       0.007
  | Times   23:        0.000       0.000       0.000       0.000       0.000       0.001       0.006       0.007
  | Times   24:        0.000       0.001       0.000       0.000       0.000       0.000       0.006       0.007
  | Times   25:        0.000       0.000       0.000       0.000       0.000       0.001       0.006       0.007
  | Times   26:        0.000       0.001       0.000       0.000       0.000       0.000       0.006       0.007
  | Times   27:        0.000       0.000       0.000       0.000       0.000       0.001       0.006       0.007
  | Times   28:        0.000       0.000       0.000       0.000       0.000       0.000       0.006       0.007
  | Times   29:        0.000       0.000       0.000       0.000       0.000       0.001       0.006       0.007
  | Times   30:        0.000       0.000       0.000       0.000       0.000       0.000       0.006       0.007
  | Times   31:        0.000       0.000       0.000       0.000       0.000       0.001       0.006       0.007
  | Times   32:        0.000       0.001       0.000       0.000       0.000       0.000       0.006       0.007
  | Times   33:        0.000       0.000       0.000       0.000       0.000       0.001       0.006       0.007
  | Times   34:        0.000       0.001       0.000       0.000       0.000       0.000       0.006       0.007
  | Times   35:        0.000       0.000       0.000       0.000       0.000       0.001       0.006       0.007
  | Times   36:        0.000       0.000       0.000       0.000       0.000       0.000       0.006       0.007
  | Times   37:        0.000       0.000       0.000       0.000       0.000       0.001       0.006       0.007
  | Times   38:        0.000       0.000       0.000       0.000       0.000       0.000       0.006       0.007
  | Times   39:        0.000       0.000       0.000       0.000       0.000       0.001       0.006       0.007
  | Times   40:        0.000       0.001       0.000       0.000       0.000       0.000       0.006       0.007
  | Times   41:        0.000       0.000       0.000       0.000       0.000       0.001       0.006       0.007
  | Times   42:        0.000       0.001       0.000       0.000       0.000       0.000       0.006       0.007
  | Times   43:        0.000       0.000       0.000       0.000       0.000       0.001       0.006       0.007
  | Times   44:        0.000       0.000       0.000       0.000       0.000       0.000       0.006       0.007
  | Times   45:        0.000       0.000       0.000       0.000       0.000       0.001       0.006       0.007
  | Times   46:        0.000       0.001       0.000       0.000       0.000       0.000       0.006       0.007
  | Times   47:        0.000       0.000       0.000       0.000       0.000       0.001       0.006       0.007
  | Times   48:        0.000       0.001       0.000       0.000       0.000       0.000       0.006       0.007
  | Times   49:        0.000       0.000       0.000       0.000       0.000       0.001       0.006       0.007
  | Times   50:        0.000       0.001       0.000       0.000       0.000       0.000       0.006       0.007
  | Times   51:        0.000       0.000       0.000       0.000       0.000       0.001       0.006       0.007
  | Times   52:        0.000       0.001       0.000       0.000       0.000       0.000       0.006       0.007
  | Times   53:        0.000       0.000       0.000       0.000       0.000       0.001       0.006       0.007
  | Times   54:        0.000       0.001       0.000       0.000       0.000       0.000       0.006       0.007
  | Times   55:        0.000       0.000       0.000       0.000       0.000       0.001       0.006       0.007
  | Times   56:        0.000       0.001       0.000       0.000       0.000       0.000       0.006       0.007
  | Times   57:        0.000       0.000       0.000       0.000       0.000       0.001       0.006       0.007
  | Times   58:        0.000       0.001       0.000       0.000       0.000       0.000       0.006       0.007
  | Times   59:        0.000       0.000       0.000       0.000       0.000       0.001       0.006       0.007
  | Times   60:        0.000       0.000       0.000       0.000       0.000       0.000       0.006       0.007
  | Times   61:        0.000       0.000       0.000       0.000       0.000       0.001       0.006       0.007
  | Times   62:        0.000       0.000       0.000       0.000       0.000       0.000       0.006       0.007
  | Times   63:        0.000       0.000       0.000       0.000       0.000       0.001       0.006       0.007
  | Times  sum:        0.006       0.017       0.007       0.005       0.012       0.037       0.392       0.474

  Decomposition of Other based on code block (only on MPI task 0):
  Times             Block #1    Block #2    Block #3    Block #4    Block #5    Block #6    Block #7    Block #8
  | Times    0:        0.000       0.000       0.000       0.000       0.000       0.000       0.000       0.000

  Times             Block #9   Block #10   Block #11   Block #12   Block #13   Block #14   Block #15   Block #16
  | Times    0:        0.000       0.000       0.000       0.001       0.000       0.004       0.000       0.000

  Times            Block Sum    Expected
  | Times    0:        0.005       0.006
  Time for Fock matrix mixing     0.000

  Updating Kohn-Sham eigenvalues and eigenvectors using ELSI and the ELPA eigensolver.
  Starting ELPA eigensolver
  Finished transformation to standard eigenproblem
  | Time :     0.000 s
  Finished solving standard eigenproblem
  | Time :     0.001 s
  Finished back-transformation of eigenvectors
  | Time :     0.000 s

  Obtaining occupation numbers and electronic chemical potential using ELSI.
  | Note that, for insulating systems, the printed 'chemical potential' value is not uniquely defined.
  | It can be anywhere in the energy gap, as long as it correctly separates occupied and unoccupied states.
  | In systems with a gap, the physically relevant chemical potential is the VBM or HOMO.

  | Chemical potential (Fermi level):    -4.92358926 eV
  Highest occupied state (VBM) at     -8.59652695 eV
  | Occupation number:      2.00000000

  Lowest unoccupied state (CBM) at    -1.25065157 eV
  | Occupation number:      0.00000000

  Overall HOMO-LUMO gap:      7.34587538 eV.

  Total energy components:
  | Sum of eigenvalues            :        -155.05165877 Ha       -4219.17030411 eV
  | XC energy correction          :         -12.62751258 Ha        -343.61210017 eV
  | XC potential correction       :          26.01818019 Ha         707.99070521 eV
  | Free-atom electrostatic energy:        -130.45110463 Ha       -3549.75516663 eV
  | Hartree energy correction     :          -3.53367087 Ha         -96.15607662 eV
  | Entropy correction            :          -0.00000000 Ha          -0.00000000 eV
  | ---------------------------
  | Total energy                  :        -275.64576666 Ha       -7500.70294233 eV
  | Total energy, T -> 0          :        -275.64576666 Ha       -7500.70294233 eV  <-- do not rely on this value for anything but (periodic) metals
  | Electronic free energy        :        -275.64576666 Ha       -7500.70294233 eV

  Derived energy quantities:
  | Kinetic energy                :         278.00989362 Ha        7565.03411022 eV
  | Electrostatic energy          :        -528.25833328 Ha      -14374.64062234 eV
  | Energy correction for multipole
  | error in Hartree potential    :          -0.00084010 Ha          -0.02286022 eV
  | Sum of eigenvalues per atom                           :       -2109.58515206 eV
  | Total energy (T->0) per atom                          :       -3750.35147116 eV  <-- do not rely on this value for anything but (periodic) metals
  | Electronic free energy per atom                       :       -3750.35147116 eV
  Evaluating new KS density.
  Integration grid: deviation in total charge (<rho> - N_e) =   0.000000E+00

  Self-consistency convergence accuracy:
  | Change of charge density      :  0.4996E-05
  | Change of unmixed KS density  :  0.2680E-04
  | Change of sum of eigenvalues  : -0.4763E-03 eV
  | Change of total energy        : -0.7637E-05 eV


------------------------------------------------------------
  End self-consistency iteration #    19       :  max(cpu_time)    wall_clock(cpu1)
  | Time for this iteration                     :        0.269 s           0.018 s
  | Charge density update                       :        0.001 s           0.001 s
  | Density mixing                              :        0.256 s           0.004 s
  | Hartree multipole update                    :        0.001 s           0.001 s
  | Hartree multipole summation                 :        0.002 s           0.001 s
  | Integration                                 :        0.002 s           0.002 s
  | Fock matrix evaluation                      :        0.008 s           0.008 s
  | Solution of K.-S. eqns.                     :        0.001 s           0.001 s
  | Total energy evaluation                     :        0.000 s           0.000 s

  Partial memory accounting:
  | Current value for overall tracked memory usage:
  |   Minimum:        1.087 MB (on task  5)
  |   Maximum:        1.460 MB (on task 51)
  |   Average:        1.217 MB
  | Peak value for overall tracked memory usage:
  |   Minimum:        1.537 MB (on task  5 after allocating wave)
  |   Maximum:        2.503 MB (on task 34 after allocating ovlp3fn_nosplit%tmploc)
  |   Average:        1.702 MB
  | Largest tracked array allocation so far:
  |   Minimum:        0.691 MB (ovlp3fn2%dat on task  5)
  |   Maximum:        1.001 MB (ovlp3fn_nosplit%dat on task 34)
  |   Average:        0.804 MB
  Note:  These values currently only include a subset of arrays which are explicitly tracked.
  The "true" memory usage will be greater.
------------------------------------------------------------

------------------------------------------------------------
          Begin self-consistency iteration #   20

  Date     :  20260724, Time     :  093444.258
------------------------------------------------------------
  Pulay mixing of updated and previous charge densities.
  Available memory per node after mixing [GB]:   1026.97
  Renormalizing the density to the exact electron count on the 3D integration grid.
  | Formal number of electrons (from input files) :      20.0000000000
  | Integrated number of electrons on 3D grid     :      20.0000000000
  | Charge integration error                      :       0.0000000000
  | Normalization factor for density and gradient :       1.0000000000

  Evaluating partitioned Hartree potential by multipole expansion.
  | Original multipole sum: apparent total charge =  -0.196782E-14
  | Sum of charges compensated after spline to logarithmic grids =   0.773729E-06
  | Analytical far-field extrapolation by fixed multipoles:
  | Hartree multipole sum: apparent total charge =  -0.157426E-14
  Summing up the Hartree potential.
  Time summed over all CPUs for potential: real work        0.001 s, elapsed        0.001 s
  | RMS charge density error from multipole expansion :   0.311676E-02

  Integrating Hamiltonian matrix: batch-based integration.
  Time summed over all CPUs for integration: real work        0.081 s, elapsed        0.094 s
  Calculating non-local Hartree-Fock exchange by two-center RI (RI-LVL).
  screening_threshold (crit_val) =  0.000000100000
  Exact exchange progress report - outermost block loop i_block: 1 ..       3
  |        1         2         3  
 Total ovlp3fn data transfer [GB]   4.4889596756547689E-004
  Average sparsity of tmp1/2 0.50000000
  Average sparsity of fock_matrix_row 0.02325581
  Full exact exchange energy: weighted long- and short-range EXX    173.742229188728 eV.
  Times            DM_x_o3fn   CM_prod_1   CM_prod_2   tmp2_prod        Sync   Imbalance       Other  Total calc
  | Times    0:        0.000       0.001       0.000       0.000       0.000       0.000       0.006       0.007
  | Times    1:        0.000       0.000       0.000       0.000       0.000       0.001       0.006       0.007
  | Times    2:        0.000       0.001       0.000       0.000       0.000       0.000       0.006       0.007
  | Times    3:        0.000       0.000       0.000       0.000       0.000       0.001       0.006       0.007
  | Times    4:        0.000       0.001       0.000       0.000       0.000       0.000       0.006       0.007
  | Times    5:        0.000       0.000       0.000       0.000       0.000       0.001       0.006       0.007
  | Times    6:        0.000       0.001       0.000       0.000       0.000       0.000       0.006       0.007
  | Times    7:        0.000       0.000       0.000       0.000       0.000       0.001       0.006       0.007
  | Times    8:        0.000       0.000       0.000       0.000       0.000       0.000       0.006       0.007
  | Times    9:        0.000       0.000       0.000       0.000       0.000       0.001       0.006       0.007
  | Times   10:        0.000       0.000       0.000       0.000       0.000       0.000       0.006       0.007
  | Times   11:        0.000       0.000       0.000       0.000       0.000       0.001       0.006       0.007
  | Times   12:        0.000       0.001       0.000       0.000       0.000       0.000       0.006       0.007
  | Times   13:        0.000       0.000       0.000       0.000       0.000       0.001       0.006       0.007
  | Times   14:        0.000       0.001       0.000       0.000       0.000       0.000       0.006       0.007
  | Times   15:        0.000       0.000       0.000       0.000       0.000       0.001       0.006       0.007
  | Times   16:        0.000       0.001       0.000       0.000       0.000       0.000       0.006       0.007
  | Times   17:        0.000       0.000       0.000       0.000       0.000       0.001       0.006       0.007
  | Times   18:        0.000       0.001       0.000       0.000       0.000       0.000       0.006       0.007
  | Times   19:        0.000       0.000       0.000       0.000       0.000       0.001       0.006       0.007
  | Times   20:        0.000       0.000       0.000       0.000       0.000       0.000       0.006       0.007
  | Times   21:        0.000       0.000       0.000       0.000       0.000       0.001       0.006       0.007
  | Times   22:        0.000       0.000       0.000       0.000       0.000       0.000       0.006       0.007
  | Times   23:        0.000       0.000       0.000       0.000       0.000       0.001       0.006       0.007
  | Times   24:        0.000       0.001       0.000       0.000       0.000       0.000       0.006       0.007
  | Times   25:        0.000       0.000       0.000       0.000       0.000       0.001       0.006       0.007
  | Times   26:        0.000       0.001       0.000       0.000       0.000       0.000       0.006       0.007
  | Times   27:        0.000       0.000       0.000       0.000       0.000       0.001       0.006       0.007
  | Times   28:        0.000       0.001       0.000       0.000       0.000       0.000       0.006       0.007
  | Times   29:        0.000       0.000       0.000       0.000       0.000       0.001       0.006       0.007
  | Times   30:        0.000       0.001       0.000       0.000       0.000       0.000       0.006       0.007
  | Times   31:        0.000       0.000       0.000       0.000       0.000       0.001       0.006       0.007
  | Times   32:        0.000       0.001       0.000       0.000       0.000       0.000       0.006       0.007
  | Times   33:        0.000       0.000       0.000       0.000       0.000       0.001       0.006       0.007
  | Times   34:        0.000       0.001       0.000       0.000       0.000       0.000       0.006       0.007
  | Times   35:        0.000       0.000       0.000       0.000       0.000       0.001       0.006       0.007
  | Times   36:        0.000       0.000       0.000       0.000       0.000       0.000       0.006       0.007
  | Times   37:        0.000       0.000       0.000       0.000       0.000       0.001       0.006       0.007
  | Times   38:        0.000       0.000       0.000       0.000       0.000       0.000       0.006       0.007
  | Times   39:        0.000       0.000       0.000       0.000       0.000       0.001       0.006       0.007
  | Times   40:        0.000       0.001       0.000       0.000       0.000       0.000       0.006       0.007
  | Times   41:        0.000       0.000       0.000       0.000       0.000       0.001       0.006       0.007
  | Times   42:        0.000       0.001       0.000       0.000       0.000       0.000       0.006       0.007
  | Times   43:        0.000       0.000       0.000       0.000       0.000       0.001       0.006       0.007
  | Times   44:        0.000       0.001       0.000       0.000       0.000       0.000       0.006       0.007
  | Times   45:        0.000       0.000       0.000       0.000       0.000       0.001       0.006       0.007
  | Times   46:        0.000       0.001       0.000       0.000       0.000       0.000       0.006       0.007
  | Times   47:        0.000       0.000       0.000       0.000       0.000       0.001       0.006       0.007
  | Times   48:        0.000       0.000       0.000       0.000       0.000       0.000       0.006       0.007
  | Times   49:        0.000       0.000       0.000       0.000       0.000       0.001       0.006       0.007
  | Times   50:        0.000       0.000       0.000       0.000       0.000       0.000       0.006       0.007
  | Times   51:        0.000       0.000       0.000       0.000       0.000       0.001       0.006       0.007
  | Times   52:        0.000       0.001       0.000       0.000       0.000       0.000       0.006       0.007
  | Times   53:        0.000       0.000       0.000       0.000       0.000       0.001       0.006       0.007
  | Times   54:        0.000       0.001       0.000       0.000       0.000       0.000       0.006       0.007
  | Times   55:        0.000       0.000       0.000       0.000       0.000       0.001       0.006       0.007
  | Times   56:        0.000       0.001       0.000       0.000       0.000       0.000       0.006       0.007
  | Times   57:        0.000       0.000       0.000       0.000       0.000       0.001       0.006       0.007
  | Times   58:        0.000       0.001       0.000       0.000       0.000       0.000       0.006       0.007
  | Times   59:        0.000       0.000       0.000       0.000       0.000       0.001       0.006       0.007
  | Times   60:        0.000       0.000       0.000       0.000       0.000       0.000       0.006       0.007
  | Times   61:        0.000       0.000       0.000       0.000       0.000       0.001       0.006       0.007
  | Times   62:        0.000       0.000       0.000       0.000       0.000       0.000       0.006       0.007
  | Times   63:        0.000       0.000       0.000       0.000       0.000       0.001       0.006       0.007
  | Times  sum:        0.006       0.017       0.007       0.005       0.012       0.037       0.392       0.475

  Decomposition of Other based on code block (only on MPI task 0):
  Times             Block #1    Block #2    Block #3    Block #4    Block #5    Block #6    Block #7    Block #8
  | Times    0:        0.000       0.000       0.000       0.000       0.000       0.000       0.000       0.000

  Times             Block #9   Block #10   Block #11   Block #12   Block #13   Block #14   Block #15   Block #16
  | Times    0:        0.000       0.000       0.000       0.001       0.000       0.004       0.000       0.000

  Times            Block Sum    Expected
  | Times    0:        0.006       0.006
  Time for Fock matrix mixing     0.000

  Updating Kohn-Sham eigenvalues and eigenvectors using ELSI and the ELPA eigensolver.
  Starting ELPA eigensolver
  Finished transformation to standard eigenproblem
  | Time :     0.000 s
  Finished solving standard eigenproblem
  | Time :     0.000 s
  Finished back-transformation of eigenvectors
  | Time :     0.001 s

  Obtaining occupation numbers and electronic chemical potential using ELSI.
  | Note that, for insulating systems, the printed 'chemical potential' value is not uniquely defined.
  | It can be anywhere in the energy gap, as long as it correctly separates occupied and unoccupied states.
  | In systems with a gap, the physically relevant chemical potential is the VBM or HOMO.

  | Chemical potential (Fermi level):    -4.92358519 eV
  Highest occupied state (VBM) at     -8.59653918 eV
  | Occupation number:      2.00000000

  Lowest unoccupied state (CBM) at    -1.25063120 eV
  | Occupation number:      0.00000000

  Overall HOMO-LUMO gap:      7.34590798 eV.

  Total energy components:
  | Sum of eigenvalues            :        -155.05165320 Ha       -4219.17015257 eV
  | XC energy correction          :         -12.62751074 Ha        -343.61205009 eV
  | XC potential correction       :          26.01818054 Ha         707.99071475 eV
  | Free-atom electrostatic energy:        -130.45110463 Ha       -3549.75516663 eV
  | Hartree energy correction     :          -3.53368050 Ha         -96.15633891 eV
  | Entropy correction            :          -0.00000000 Ha          -0.00000000 eV
  | ---------------------------
  | Total energy                  :        -275.64576854 Ha       -7500.70299344 eV
  | Total energy, T -> 0          :        -275.64576854 Ha       -7500.70299344 eV  <-- do not rely on this value for anything but (periodic) metals
  | Electronic free energy        :        -275.64576854 Ha       -7500.70299344 eV

  Derived energy quantities:
  | Kinetic energy                :         278.00988476 Ha        7565.03386887 eV
  | Electrostatic energy          :        -528.25832401 Ha      -14374.64036991 eV
  | Energy correction for multipole
  | error in Hartree potential    :          -0.00084015 Ha          -0.02286154 eV
  | Sum of eigenvalues per atom                           :       -2109.58507628 eV
  | Total energy (T->0) per atom                          :       -3750.35149672 eV  <-- do not rely on this value for anything but (periodic) metals
  | Electronic free energy per atom                       :       -3750.35149672 eV
  Evaluating new KS density.
  Integration grid: deviation in total charge (<rho> - N_e) =   1.065814E-14

  Self-consistency convergence accuracy:
  | Change of charge density      :  0.1643E-05
  | Change of unmixed KS density  :  0.6653E-05
  | Change of sum of eigenvalues  :  0.1515E-03 eV
  | Change of total energy        : -0.5112E-04 eV


------------------------------------------------------------
  End self-consistency iteration #    20       :  max(cpu_time)    wall_clock(cpu1)
  | Time for this iteration                     :        0.329 s           0.066 s
  | Charge density update                       :        0.001 s           0.001 s
  | Density mixing                              :        0.317 s           0.051 s
  | Hartree multipole update                    :        0.001 s           0.001 s
  | Hartree multipole summation                 :        0.002 s           0.002 s
  | Integration                                 :        0.002 s           0.002 s
  | Fock matrix evaluation                      :        0.008 s           0.008 s
  | Solution of K.-S. eqns.                     :        0.001 s           0.001 s
  | Total energy evaluation                     :        0.000 s           0.000 s

  Partial memory accounting:
  | Current value for overall tracked memory usage:
  |   Minimum:        1.087 MB (on task  5)
  |   Maximum:        1.460 MB (on task 51)
  |   Average:        1.217 MB
  | Peak value for overall tracked memory usage:
  |   Minimum:        1.537 MB (on task  5 after allocating wave)
  |   Maximum:        2.503 MB (on task 34 after allocating ovlp3fn_nosplit%tmploc)
  |   Average:        1.702 MB
  | Largest tracked array allocation so far:
  |   Minimum:        0.691 MB (ovlp3fn2%dat on task  5)
  |   Maximum:        1.001 MB (ovlp3fn_nosplit%dat on task 34)
  |   Average:        0.804 MB
  Note:  These values currently only include a subset of arrays which are explicitly tracked.
  The "true" memory usage will be greater.
------------------------------------------------------------

------------------------------------------------------------
          Begin self-consistency iteration #   21

  Date     :  20260724, Time     :  093444.340
------------------------------------------------------------
  Pulay mixing of updated and previous charge densities.
  Available memory per node after mixing [GB]:   1026.97
  Renormalizing the density to the exact electron count on the 3D integration grid.
  | Formal number of electrons (from input files) :      20.0000000000
  | Integrated number of electrons on 3D grid     :      20.0000000000
  | Charge integration error                      :       0.0000000000
  | Normalization factor for density and gradient :       1.0000000000

  Evaluating partitioned Hartree potential by multipole expansion.
  | Original multipole sum: apparent total charge =  -0.285334E-14
  | Sum of charges compensated after spline to logarithmic grids =   0.773731E-06
  | Analytical far-field extrapolation by fixed multipoles:
  | Hartree multipole sum: apparent total charge =  -0.255816E-14
  Summing up the Hartree potential.
  Time summed over all CPUs for potential: real work        0.001 s, elapsed        0.001 s
  | RMS charge density error from multipole expansion :   0.311676E-02

  Integrating Hamiltonian matrix: batch-based integration.
  Time summed over all CPUs for integration: real work        0.080 s, elapsed        0.096 s
  Calculating non-local Hartree-Fock exchange by two-center RI (RI-LVL).
  screening_threshold (crit_val) =  0.000000100000
  Exact exchange progress report - outermost block loop i_block: 1 ..       3
  |        1         2         3  
 Total ovlp3fn data transfer [GB]   4.4889596756547689E-004
  Average sparsity of tmp1/2 0.50000000
  Average sparsity of fock_matrix_row 0.02325581
  Full exact exchange energy: weighted long- and short-range EXX    173.742234216522 eV.
  Times            DM_x_o3fn   CM_prod_1   CM_prod_2   tmp2_prod        Sync   Imbalance       Other  Total calc
  | Times    0:        0.000       0.001       0.000       0.000       0.000       0.000       0.007       0.009
  | Times    1:        0.000       0.000       0.000       0.000       0.000       0.002       0.007       0.009
  | Times    2:        0.000       0.001       0.000       0.000       0.000       0.000       0.007       0.009
  | Times    3:        0.000       0.000       0.000       0.000       0.000       0.001       0.007       0.009
  | Times    4:        0.000       0.001       0.000       0.000       0.000       0.000       0.007       0.009
  | Times    5:        0.000       0.000       0.000       0.000       0.000       0.002       0.007       0.009
  | Times    6:        0.000       0.001       0.000       0.000       0.000       0.000       0.007       0.009
  | Times    7:        0.000       0.000       0.000       0.000       0.000       0.001       0.007       0.009
  | Times    8:        0.000       0.001       0.000       0.000       0.000       0.000       0.007       0.009
  | Times    9:        0.000       0.000       0.000       0.000       0.000       0.002       0.007       0.009
  | Times   10:        0.000       0.001       0.000       0.000       0.000       0.000       0.007       0.009
  | Times   11:        0.000       0.000       0.000       0.000       0.000       0.001       0.007       0.009
  | Times   12:        0.000       0.001       0.000       0.000       0.000       0.000       0.008       0.009
  | Times   13:        0.000       0.000       0.000       0.000       0.000       0.001       0.007       0.009
  | Times   14:        0.000       0.001       0.000       0.000       0.000       0.000       0.007       0.009
  | Times   15:        0.000       0.000       0.000       0.000       0.000       0.001       0.008       0.009
  | Times   16:        0.000       0.001       0.000       0.000       0.000       0.001       0.007       0.009
  | Times   17:        0.000       0.000       0.000       0.000       0.000       0.002       0.007       0.009
  | Times   18:        0.000       0.001       0.000       0.000       0.000       0.000       0.007       0.009
  | Times   19:        0.000       0.000       0.000       0.000       0.000       0.001       0.007       0.009
  | Times   20:        0.000       0.001       0.000       0.000       0.000       0.001       0.007       0.009
  | Times   21:        0.000       0.000       0.000       0.000       0.000       0.002       0.007       0.009
  | Times   22:        0.000       0.001       0.000       0.000       0.000       0.000       0.007       0.009
  | Times   23:        0.000       0.000       0.000       0.000       0.000       0.001       0.007       0.009
  | Times   24:        0.000       0.001       0.000       0.000       0.000       0.000       0.007       0.009
  | Times   25:        0.000       0.000       0.000       0.000       0.000       0.002       0.007       0.009
  | Times   26:        0.000       0.001       0.000       0.000       0.000       0.000       0.007       0.009
  | Times   27:        0.000       0.000       0.000       0.000       0.000       0.001       0.007       0.009
  | Times   28:        0.000       0.001       0.000       0.000       0.000       0.000       0.007       0.009
  | Times   29:        0.000       0.000       0.000       0.000       0.000       0.002       0.007       0.009
  | Times   30:        0.000       0.001       0.000       0.000       0.000       0.000       0.007       0.009
  | Times   31:        0.000       0.000       0.000       0.000       0.000       0.002       0.007       0.009
  | Times   32:        0.000       0.000       0.000       0.000       0.000       0.000       0.008       0.009
  | Times   33:        0.000       0.000       0.000       0.000       0.000       0.001       0.008       0.009
  | Times   34:        0.000       0.000       0.000       0.000       0.000       0.000       0.008       0.009
  | Times   35:        0.000       0.000       0.000       0.000       0.000       0.001       0.008       0.009
  | Times   36:        0.000       0.001       0.000       0.000       0.000       0.000       0.007       0.009
  | Times   37:        0.000       0.000       0.000       0.000       0.000       0.001       0.008       0.009
  | Times   38:        0.000       0.001       0.000       0.000       0.000       0.000       0.008       0.009
  | Times   39:        0.000       0.000       0.000       0.000       0.000       0.001       0.008       0.009
  | Times   40:        0.000       0.000       0.000       0.000       0.000       0.000       0.008       0.009
  | Times   41:        0.000       0.000       0.000       0.000       0.000       0.001       0.008       0.009
  | Times   42:        0.000       0.000       0.000       0.000       0.000       0.000       0.008       0.009
  | Times   43:        0.000       0.000       0.000       0.000       0.000       0.001       0.008       0.009
  | Times   44:        0.000       0.001       0.000       0.000       0.000       0.000       0.007       0.009
  | Times   45:        0.000       0.000       0.000       0.000       0.000       0.001       0.008       0.009
  | Times   46:        0.000       0.001       0.000       0.000       0.000       0.000       0.008       0.009
  | Times   47:        0.000       0.000       0.000       0.000       0.000       0.001       0.008       0.009
  | Times   48:        0.000       0.000       0.000       0.000       0.000       0.000       0.008       0.009
  | Times   49:        0.000       0.000       0.000       0.000       0.000       0.001       0.008       0.009
  | Times   50:        0.000       0.000       0.000       0.000       0.000       0.000       0.008       0.009
  | Times   51:        0.000       0.000       0.000       0.000       0.000       0.001       0.008       0.009
  | Times   52:        0.000       0.001       0.000       0.000       0.000       0.000       0.008       0.009
  | Times   53:        0.000       0.000       0.000       0.000       0.000       0.001       0.008       0.009
  | Times   54:        0.000       0.001       0.000       0.000       0.000       0.000       0.008       0.009
  | Times   55:        0.000       0.000       0.000       0.000       0.000       0.001       0.008       0.009
  | Times   56:        0.000       0.001       0.000       0.000       0.000       0.000       0.007       0.009
  | Times   57:        0.000       0.000       0.000       0.000       0.000       0.001       0.007       0.009
  | Times   58:        0.000       0.001       0.000       0.000       0.000       0.000       0.008       0.009
  | Times   59:        0.000       0.000       0.000       0.000       0.000       0.001       0.008       0.009
  | Times   60:        0.000       0.000       0.000       0.000       0.000       0.000       0.008       0.009
  | Times   61:        0.000       0.000       0.000       0.000       0.000       0.001       0.008       0.009
  | Times   62:        0.000       0.001       0.000       0.000       0.000       0.000       0.008       0.009
  | Times   63:        0.000       0.000       0.000       0.000       0.000       0.001       0.008       0.009
  | Times  sum:        0.006       0.022       0.008       0.005       0.011       0.047       0.476       0.576

  Decomposition of Other based on code block (only on MPI task 0):
  Times             Block #1    Block #2    Block #3    Block #4    Block #5    Block #6    Block #7    Block #8
  | Times    0:        0.000       0.000       0.000       0.000       0.000       0.000       0.000       0.000

  Times             Block #9   Block #10   Block #11   Block #12   Block #13   Block #14   Block #15   Block #16
  | Times    0:        0.000       0.000       0.000       0.001       0.000       0.005       0.000       0.000

  Times            Block Sum    Expected
  | Times    0:        0.007       0.007
  Time for Fock matrix mixing     0.000

  Updating Kohn-Sham eigenvalues and eigenvectors using ELSI and the ELPA eigensolver.
  Starting ELPA eigensolver
  Finished transformation to standard eigenproblem
  | Time :     0.000 s
  Finished solving standard eigenproblem
  | Time :     0.037 s
  Finished back-transformation of eigenvectors
  | Time :     0.000 s

  Obtaining occupation numbers and electronic chemical potential using ELSI.
  | Note that, for insulating systems, the printed 'chemical potential' value is not uniquely defined.
  | It can be anywhere in the energy gap, as long as it correctly separates occupied and unoccupied states.
  | In systems with a gap, the physically relevant chemical potential is the VBM or HOMO.

  | Chemical potential (Fermi level):    -4.92358454 eV
  Highest occupied state (VBM) at     -8.59653991 eV
  | Occupation number:      2.00000000

  Lowest unoccupied state (CBM) at    -1.25062916 eV
  | Occupation number:      0.00000000

  Overall HOMO-LUMO gap:      7.34591075 eV.

  Total energy components:
  | Sum of eigenvalues            :        -155.05165344 Ha       -4219.17015915 eV
  | XC energy correction          :         -12.62751064 Ha        -343.61204731 eV
  | XC potential correction       :          26.01818054 Ha         707.99071474 eV
  | Free-atom electrostatic energy:        -130.45110463 Ha       -3549.75516663 eV
  | Hartree energy correction     :          -3.53368046 Ha         -96.15633771 eV
  | Entropy correction            :          -0.00000000 Ha          -0.00000000 eV
  | ---------------------------
  | Total energy                  :        -275.64576863 Ha       -7500.70299607 eV
  | Total energy, T -> 0          :        -275.64576863 Ha       -7500.70299607 eV  <-- do not rely on this value for anything but (periodic) metals
  | Electronic free energy        :        -275.64576863 Ha       -7500.70299607 eV

  Derived energy quantities:
  | Kinetic energy                :         278.00988453 Ha        7565.03386275 eV
  | Electrostatic energy          :        -528.25832378 Ha      -14374.64036373 eV
  | Energy correction for multipole
  | error in Hartree potential    :          -0.00084015 Ha          -0.02286174 eV
  | Sum of eigenvalues per atom                           :       -2109.58507958 eV
  | Total energy (T->0) per atom                          :       -3750.35149803 eV  <-- do not rely on this value for anything but (periodic) metals
  | Electronic free energy per atom                       :       -3750.35149803 eV
  Evaluating new KS density.
  Integration grid: deviation in total charge (<rho> - N_e) =   7.105427E-15

  Self-consistency convergence accuracy:
  | Change of charge density      :  0.8757E-06
  | Change of unmixed KS density  :  0.1173E-05
  | Change of sum of eigenvalues  : -0.6583E-05 eV
  | Change of total energy        : -0.2623E-05 eV


------------------------------------------------------------
  End self-consistency iteration #    21       :  max(cpu_time)    wall_clock(cpu1)
  | Time for this iteration                     :        0.299 s           0.300 s
  | Charge density update                       :        0.001 s           0.001 s
  | Density mixing                              :        0.247 s           0.248 s
  | Hartree multipole update                    :        0.001 s           0.001 s
  | Hartree multipole summation                 :        0.002 s           0.002 s
  | Integration                                 :        0.002 s           0.001 s
  | Fock matrix evaluation                      :        0.009 s           0.010 s
  | Solution of K.-S. eqns.                     :        0.037 s           0.037 s
  | Total energy evaluation                     :        0.000 s           0.000 s

  Partial memory accounting:
  | Current value for overall tracked memory usage:
  |   Minimum:        1.087 MB (on task  5)
  |   Maximum:        1.460 MB (on task 51)
  |   Average:        1.217 MB
  | Peak value for overall tracked memory usage:
  |   Minimum:        1.537 MB (on task  5 after allocating wave)
  |   Maximum:        2.503 MB (on task 34 after allocating ovlp3fn_nosplit%tmploc)
  |   Average:        1.702 MB
  | Largest tracked array allocation so far:
  |   Minimum:        0.691 MB (ovlp3fn2%dat on task  5)
  |   Maximum:        1.001 MB (ovlp3fn_nosplit%dat on task 34)
  |   Average:        0.804 MB
  Note:  These values currently only include a subset of arrays which are explicitly tracked.
  The "true" memory usage will be greater.
------------------------------------------------------------

------------------------------------------------------------
          Begin self-consistency iteration #   22

  Date     :  20260724, Time     :  093444.664
------------------------------------------------------------
  Pulay mixing of updated and previous charge densities.
  Available memory per node after mixing [GB]:   1026.97
  Renormalizing the density to the exact electron count on the 3D integration grid.
  | Formal number of electrons (from input files) :      20.0000000000
  | Integrated number of electrons on 3D grid     :      20.0000000000
  | Charge integration error                      :       0.0000000000
  | Normalization factor for density and gradient :       1.0000000000

  Evaluating partitioned Hartree potential by multipole expansion.
  | Original multipole sum: apparent total charge =  -0.196782E-15
  | Sum of charges compensated after spline to logarithmic grids =   0.773700E-06
  | Analytical far-field extrapolation by fixed multipoles:
  | Hartree multipole sum: apparent total charge =   0.432920E-14
  Summing up the Hartree potential.
  Time summed over all CPUs for potential: real work        0.001 s, elapsed        0.001 s
  | RMS charge density error from multipole expansion :   0.311676E-02

  Integrating Hamiltonian matrix: batch-based integration.
  Time summed over all CPUs for integration: real work        0.080 s, elapsed        0.093 s
  Calculating non-local Hartree-Fock exchange by two-center RI (RI-LVL).
  screening_threshold (crit_val) =  0.000000100000
  Exact exchange progress report - outermost block loop i_block: 1 ..       3
  |        1         2         3  
 Total ovlp3fn data transfer [GB]   4.4889596756547689E-004
  Average sparsity of tmp1/2 0.50000000
  Average sparsity of fock_matrix_row 0.02325581
  Full exact exchange energy: weighted long- and short-range EXX    173.742234326887 eV.
  Times            DM_x_o3fn   CM_prod_1   CM_prod_2   tmp2_prod        Sync   Imbalance       Other  Total calc
  | Times    0:        0.000       0.001       0.000       0.000       0.000       0.000       0.007       0.009
  | Times    1:        0.000       0.000       0.000       0.000       0.000       0.001       0.007       0.009
  | Times    2:        0.000       0.001       0.000       0.000       0.000       0.000       0.007       0.009
  | Times    3:        0.000       0.000       0.000       0.000       0.000       0.001       0.007       0.009
  | Times    4:        0.000       0.001       0.000       0.000       0.000       0.000       0.007       0.009
  | Times    5:        0.000       0.000       0.000       0.000       0.000       0.001       0.007       0.009
  | Times    6:        0.000       0.001       0.000       0.000       0.000       0.000       0.007       0.009
  | Times    7:        0.000       0.000       0.000       0.000       0.000       0.001       0.007       0.009
  | Times    8:        0.000       0.001       0.000       0.000       0.000       0.000       0.007       0.009
  | Times    9:        0.000       0.000       0.000       0.000       0.000       0.001       0.007       0.009
  | Times   10:        0.000       0.001       0.000       0.000       0.000       0.000       0.007       0.009
  | Times   11:        0.000       0.000       0.000       0.000       0.000       0.001       0.007       0.009
  | Times   12:        0.000       0.001       0.000       0.000       0.000       0.000       0.007       0.009
  | Times   13:        0.000       0.000       0.000       0.000       0.000       0.002       0.007       0.009
  | Times   14:        0.000       0.001       0.000       0.000       0.000       0.000       0.007       0.009
  | Times   15:        0.000       0.000       0.000       0.000       0.000       0.001       0.007       0.009
  | Times   16:        0.000       0.001       0.000       0.000       0.000       0.000       0.007       0.009
  | Times   17:        0.000       0.000       0.000       0.000       0.000       0.001       0.007       0.009
  | Times   18:        0.000       0.001       0.000       0.000       0.000       0.000       0.007       0.009
  | Times   19:        0.000       0.000       0.000       0.000       0.000       0.001       0.007       0.009
  | Times   20:        0.000       0.001       0.000       0.000       0.000       0.000       0.007       0.009
  | Times   21:        0.000       0.000       0.000       0.000       0.000       0.001       0.007       0.009
  | Times   22:        0.000       0.001       0.000       0.000       0.000       0.000       0.007       0.009
  | Times   23:        0.000       0.000       0.000       0.000       0.000       0.001       0.007       0.009
  | Times   24:        0.000       0.001       0.000       0.000       0.000       0.000       0.007       0.009
  | Times   25:        0.000       0.000       0.000       0.000       0.000       0.001       0.007       0.009
  | Times   26:        0.000       0.001       0.000       0.000       0.000       0.000       0.007       0.009
  | Times   27:        0.000       0.000       0.000       0.000       0.000       0.001       0.007       0.009
  | Times   28:        0.000       0.001       0.000       0.000       0.000       0.000       0.007       0.009
  | Times   29:        0.000       0.000       0.000       0.000       0.000       0.001       0.007       0.009
  | Times   30:        0.000       0.001       0.000       0.000       0.000       0.000       0.007       0.009
  | Times   31:        0.000       0.000       0.000       0.000       0.000       0.001       0.007       0.009
  | Times   32:        0.000       0.000       0.000       0.000       0.000       0.000       0.007       0.009
  | Times   33:        0.000       0.000       0.000       0.000       0.000       0.001       0.007       0.009
  | Times   34:        0.000       0.001       0.000       0.000       0.000       0.000       0.007       0.009
  | Times   35:        0.000       0.000       0.000       0.000       0.000       0.001       0.007       0.009
  | Times   36:        0.000       0.001       0.000       0.000       0.000       0.000       0.007       0.009
  | Times   37:        0.000       0.000       0.000       0.000       0.000       0.001       0.007       0.009
  | Times   38:        0.000       0.001       0.000       0.000       0.000       0.000       0.007       0.009
  | Times   39:        0.000       0.000       0.000       0.000       0.000       0.001       0.007       0.009
  | Times   40:        0.000       0.001       0.000       0.000       0.000       0.000       0.007       0.009
  | Times   41:        0.000       0.000       0.000       0.000       0.000       0.001       0.007       0.009
  | Times   42:        0.000       0.001       0.000       0.000       0.000       0.000       0.007       0.009
  | Times   43:        0.000       0.000       0.000       0.000       0.000       0.001       0.007       0.009
  | Times   44:        0.000       0.001       0.000       0.000       0.000       0.000       0.007       0.009
  | Times   45:        0.000       0.000       0.000       0.000       0.000       0.001       0.007       0.009
  | Times   46:        0.000       0.001       0.000       0.000       0.000       0.000       0.007       0.009
  | Times   47:        0.000       0.000       0.000       0.000       0.000       0.001       0.007       0.009
  | Times   48:        0.000       0.001       0.000       0.000       0.000       0.000       0.007       0.009
  | Times   49:        0.000       0.000       0.000       0.000       0.000       0.001       0.007       0.009
  | Times   50:        0.000       0.001       0.000       0.000       0.000       0.000       0.007       0.009
  | Times   51:        0.000       0.000       0.000       0.000       0.000       0.001       0.007       0.009
  | Times   52:        0.000       0.001       0.000       0.000       0.000       0.000       0.007       0.009
  | Times   53:        0.000       0.000       0.000       0.000       0.000       0.001       0.007       0.009
  | Times   54:        0.000       0.001       0.000       0.000       0.000       0.000       0.007       0.009
  | Times   55:        0.000       0.000       0.000       0.000       0.000       0.001       0.007       0.009
  | Times   56:        0.000       0.001       0.000       0.000       0.000       0.000       0.007       0.009
  | Times   57:        0.000       0.000       0.000       0.000       0.000       0.001       0.007       0.009
  | Times   58:        0.000       0.001       0.000       0.000       0.000       0.000       0.007       0.009
  | Times   59:        0.000       0.000       0.000       0.000       0.000       0.001       0.007       0.009
  | Times   60:        0.000       0.001       0.000       0.000       0.000       0.000       0.007       0.009
  | Times   61:        0.000       0.000       0.000       0.000       0.000       0.001       0.007       0.009
  | Times   62:        0.000       0.001       0.000       0.000       0.000       0.000       0.007       0.009
  | Times   63:        0.000       0.000       0.000       0.000       0.000       0.001       0.007       0.009
  | Times  sum:        0.006       0.021       0.008       0.005       0.012       0.044       0.450       0.545

  Decomposition of Other based on code block (only on MPI task 0):
  Times             Block #1    Block #2    Block #3    Block #4    Block #5    Block #6    Block #7    Block #8
  | Times    0:        0.000       0.000       0.000       0.000       0.000       0.000       0.000       0.000

  Times             Block #9   Block #10   Block #11   Block #12   Block #13   Block #14   Block #15   Block #16
  | Times    0:        0.000       0.000       0.000       0.001       0.000       0.004       0.000       0.000

  Times            Block Sum    Expected
  | Times    0:        0.006       0.007
  Time for Fock matrix mixing     0.000

  Updating Kohn-Sham eigenvalues and eigenvectors using ELSI and the ELPA eigensolver.
  Starting ELPA eigensolver
  Finished transformation to standard eigenproblem
  | Time :     0.000 s
  Finished solving standard eigenproblem
  | Time :     0.000 s
  Finished back-transformation of eigenvectors
  | Time :     0.001 s

  Obtaining occupation numbers and electronic chemical potential using ELSI.
  | Note that, for insulating systems, the printed 'chemical potential' value is not uniquely defined.
  | It can be anywhere in the energy gap, as long as it correctly separates occupied and unoccupied states.
  | In systems with a gap, the physically relevant chemical potential is the VBM or HOMO.

  | Chemical potential (Fermi level):    -4.92358079 eV
  Highest occupied state (VBM) at     -8.59654190 eV
  | Occupation number:      2.00000000

  Lowest unoccupied state (CBM) at    -1.25061968 eV
  | Occupation number:      0.00000000

  Overall HOMO-LUMO gap:      7.34592223 eV.

  Total energy components:
  | Sum of eigenvalues            :        -155.05164285 Ha       -4219.16987095 eV
  | XC energy correction          :         -12.62751048 Ha        -343.61204304 eV
  | XC potential correction       :          26.01818161 Ha         707.99074386 eV
  | Free-atom electrostatic energy:        -130.45110463 Ha       -3549.75516663 eV
  | Hartree energy correction     :          -3.53369295 Ha         -96.15667749 eV
  | Entropy correction            :          -0.00000000 Ha          -0.00000000 eV
  | ---------------------------
  | Total energy                  :        -275.64576930 Ha       -7500.70301426 eV
  | Total energy, T -> 0          :        -275.64576930 Ha       -7500.70301426 eV  <-- do not rely on this value for anything but (periodic) metals
  | Electronic free energy        :        -275.64576930 Ha       -7500.70301426 eV

  Derived energy quantities:
  | Kinetic energy                :         278.00989217 Ha        7565.03407061 eV
  | Electrostatic energy          :        -528.25833043 Ha      -14374.64054461 eV
  | Energy correction for multipole
  | error in Hartree potential    :          -0.00084016 Ha          -0.02286202 eV
  | Sum of eigenvalues per atom                           :       -2109.58493547 eV
  | Total energy (T->0) per atom                          :       -3750.35150713 eV  <-- do not rely on this value for anything but (periodic) metals
  | Electronic free energy per atom                       :       -3750.35150713 eV
  Evaluating new KS density.
  Integration grid: deviation in total charge (<rho> - N_e) =   7.105427E-15

  Self-consistency convergence accuracy:
  | Change of charge density      :  0.7764E-06
  | Change of unmixed KS density  :  0.1354E-06
  | Change of sum of eigenvalues  :  0.2882E-03 eV
  | Change of total energy        : -0.1819E-04 eV


------------------------------------------------------------
  End self-consistency iteration #    22       :  max(cpu_time)    wall_clock(cpu1)
  | Time for this iteration                     :        0.265 s           0.259 s
  | Charge density update                       :        0.001 s           0.001 s
  | Density mixing                              :        0.253 s           0.243 s
  | Hartree multipole update                    :        0.001 s           0.001 s
  | Hartree multipole summation                 :        0.002 s           0.002 s
  | Integration                                 :        0.002 s           0.002 s
  | Fock matrix evaluation                      :        0.009 s           0.009 s
  | Solution of K.-S. eqns.                     :        0.001 s           0.001 s
  | Total energy evaluation                     :        0.000 s           0.000 s

  Partial memory accounting:
  | Current value for overall tracked memory usage:
  |   Minimum:        1.087 MB (on task  5)
  |   Maximum:        1.460 MB (on task 51)
  |   Average:        1.217 MB
  | Peak value for overall tracked memory usage:
  |   Minimum:        1.537 MB (on task  5 after allocating wave)
  |   Maximum:        2.503 MB (on task 34 after allocating ovlp3fn_nosplit%tmploc)
  |   Average:        1.702 MB
  | Largest tracked array allocation so far:
  |   Minimum:        0.691 MB (ovlp3fn2%dat on task  5)
  |   Maximum:        1.001 MB (ovlp3fn_nosplit%dat on task 34)
  |   Average:        0.804 MB
  Note:  These values currently only include a subset of arrays which are explicitly tracked.
  The "true" memory usage will be greater.
------------------------------------------------------------

------------------------------------------------------------
          Begin self-consistency iteration #   23

  Date     :  20260724, Time     :  093445.007
------------------------------------------------------------
  Pulay mixing of updated and previous charge densities.
  Available memory per node after mixing [GB]:   1026.97
  Renormalizing the density to the exact electron count on the 3D integration grid.
  | Formal number of electrons (from input files) :      20.0000000000
  | Integrated number of electrons on 3D grid     :      20.0000000000
  | Charge integration error                      :      -0.0000000000
  | Normalization factor for density and gradient :       1.0000000000

  Evaluating partitioned Hartree potential by multipole expansion.
  | Original multipole sum: apparent total charge =  -0.100359E-13
  | Sum of charges compensated after spline to logarithmic grids =   0.773698E-06
  | Analytical far-field extrapolation by fixed multipoles:
  | Hartree multipole sum: apparent total charge =  -0.993749E-14
  Summing up the Hartree potential.
  Time summed over all CPUs for potential: real work        0.001 s, elapsed        0.002 s
  | RMS charge density error from multipole expansion :   0.311677E-02

  Integrating Hamiltonian matrix: batch-based integration.
  Time summed over all CPUs for integration: real work        0.081 s, elapsed        0.093 s
  Calculating non-local Hartree-Fock exchange by two-center RI (RI-LVL).
  screening_threshold (crit_val) =  0.000000100000
  Exact exchange progress report - outermost block loop i_block: 1 ..       3
  |        1         2         3  
 Total ovlp3fn data transfer [GB]   4.4889596756547689E-004
  Average sparsity of tmp1/2 0.50000000
  Average sparsity of fock_matrix_row 0.02325581
  Full exact exchange energy: weighted long- and short-range EXX    173.742240845872 eV.
  Times            DM_x_o3fn   CM_prod_1   CM_prod_2   tmp2_prod        Sync   Imbalance       Other  Total calc
  | Times    0:        0.000       0.001       0.000       0.000       0.000       0.000       0.006       0.008
  | Times    1:        0.000       0.000       0.000       0.000       0.000       0.002       0.006       0.008
  | Times    2:        0.000       0.001       0.000       0.000       0.000       0.000       0.006       0.008
  | Times    3:        0.000       0.000       0.000       0.000       0.000       0.002       0.006       0.008
  | Times    4:        0.000       0.001       0.000       0.000       0.000       0.000       0.007       0.008
  | Times    5:        0.000       0.000       0.000       0.000       0.000       0.001       0.007       0.008
  | Times    6:        0.000       0.001       0.000       0.000       0.000       0.000       0.007       0.008
  | Times    7:        0.000       0.000       0.000       0.000       0.000       0.001       0.007       0.008
  | Times    8:        0.000       0.001       0.000       0.000       0.000       0.000       0.007       0.008
  | Times    9:        0.000       0.000       0.000       0.000       0.000       0.001       0.007       0.008
  | Times   10:        0.000       0.001       0.000       0.000       0.000       0.000       0.007       0.008
  | Times   11:        0.000       0.000       0.000       0.000       0.000       0.001       0.007       0.008
  | Times   12:        0.000       0.001       0.000       0.000       0.000       0.000       0.007       0.008
  | Times   13:        0.000       0.000       0.000       0.000       0.000       0.001       0.007       0.008
  | Times   14:        0.000       0.001       0.000       0.000       0.000       0.000       0.007       0.008
  | Times   15:        0.000       0.000       0.000       0.000       0.000       0.001       0.007       0.008
  | Times   16:        0.000       0.001       0.000       0.000       0.000       0.000       0.007       0.008
  | Times   17:        0.000       0.000       0.000       0.000       0.000       0.002       0.006       0.008
  | Times   18:        0.000       0.001       0.000       0.000       0.000       0.000       0.006       0.008
  | Times   19:        0.000       0.000       0.000       0.000       0.000       0.002       0.006       0.008
  | Times   20:        0.000       0.001       0.000       0.000       0.000       0.000       0.007       0.008
  | Times   21:        0.000       0.000       0.000       0.000       0.000       0.001       0.007       0.008
  | Times   22:        0.000       0.001       0.000       0.000       0.000       0.000       0.007       0.008
  | Times   23:        0.000       0.000       0.000       0.000       0.000       0.001       0.007       0.008
  | Times   24:        0.000       0.001       0.000       0.000       0.000       0.000       0.007       0.008
  | Times   25:        0.000       0.000       0.000       0.000       0.000       0.001       0.007       0.008
  | Times   26:        0.000       0.001       0.000       0.000       0.000       0.000       0.007       0.008
  | Times   27:        0.000       0.000       0.000       0.000       0.000       0.001       0.007       0.008
  | Times   28:        0.000       0.001       0.000       0.000       0.000       0.000       0.007       0.008
  | Times   29:        0.000       0.000       0.000       0.000       0.000       0.001       0.007       0.008
  | Times   30:        0.000       0.001       0.000       0.000       0.000       0.000       0.007       0.008
  | Times   31:        0.000       0.000       0.000       0.000       0.000       0.001       0.007       0.008
  | Times   32:        0.000       0.000       0.000       0.000       0.000       0.000       0.007       0.008
  | Times   33:        0.000       0.000       0.000       0.000       0.000       0.001       0.007       0.008
  | Times   34:        0.000       0.001       0.000       0.000       0.000       0.000       0.007       0.008
  | Times   35:        0.000       0.000       0.000       0.000       0.000       0.001       0.007       0.008
  | Times   36:        0.000       0.001       0.000       0.000       0.000       0.000       0.007       0.008
  | Times   37:        0.000       0.000       0.000       0.000       0.000       0.001       0.007       0.008
  | Times   38:        0.000       0.001       0.000       0.000       0.000       0.000       0.007       0.008
  | Times   39:        0.000       0.000       0.000       0.000       0.000       0.001       0.007       0.008
  | Times   40:        0.000       0.001       0.000       0.000       0.000       0.000       0.007       0.008
  | Times   41:        0.000       0.000       0.000       0.000       0.000       0.001       0.007       0.008
  | Times   42:        0.000       0.001       0.000       0.000       0.000       0.000       0.007       0.008
  | Times   43:        0.000       0.000       0.000       0.000       0.000       0.001       0.007       0.008
  | Times   44:        0.000       0.000       0.000       0.000       0.000       0.000       0.007       0.008
  | Times   45:        0.000       0.000       0.000       0.000       0.000       0.001       0.007       0.008
  | Times   46:        0.000       0.001       0.000       0.000       0.000       0.000       0.007       0.008
  | Times   47:        0.000       0.000       0.000       0.000       0.000       0.001       0.007       0.008
  | Times   48:        0.000       0.001       0.000       0.000       0.000       0.000       0.007       0.008
  | Times   49:        0.000       0.000       0.000       0.000       0.000       0.001       0.007       0.008
  | Times   50:        0.000       0.001       0.000       0.000       0.000       0.000       0.007       0.008
  | Times   51:        0.000       0.000       0.000       0.000       0.000       0.001       0.007       0.008
  | Times   52:        0.000       0.000       0.000       0.000       0.000       0.000       0.007       0.008
  | Times   53:        0.000       0.000       0.000       0.000       0.000       0.001       0.007       0.008
  | Times   54:        0.000       0.001       0.000       0.000       0.000       0.000       0.007       0.008
  | Times   55:        0.000       0.000       0.000       0.000       0.000       0.001       0.007       0.008
  | Times   56:        0.000       0.001       0.000       0.000       0.000       0.000       0.007       0.008
  | Times   57:        0.000       0.000       0.000       0.000       0.000       0.001       0.007       0.008
  | Times   58:        0.000       0.001       0.000       0.000       0.000       0.000       0.007       0.008
  | Times   59:        0.000       0.000       0.000       0.000       0.000       0.001       0.007       0.008
  | Times   60:        0.000       0.000       0.000       0.000       0.000       0.000       0.007       0.008
  | Times   61:        0.000       0.000       0.000       0.000       0.000       0.001       0.007       0.008
  | Times   62:        0.000       0.001       0.000       0.000       0.000       0.000       0.007       0.008
  | Times   63:        0.000       0.000       0.000       0.000       0.000       0.001       0.007       0.008
  | Times  sum:        0.006       0.023       0.009       0.005       0.012       0.047       0.440       0.541

  Decomposition of Other based on code block (only on MPI task 0):
  Times             Block #1    Block #2    Block #3    Block #4    Block #5    Block #6    Block #7    Block #8
  | Times    0:        0.000       0.000       0.000       0.000       0.000       0.000       0.000       0.000

  Times             Block #9   Block #10   Block #11   Block #12   Block #13   Block #14   Block #15   Block #16
  | Times    0:        0.000       0.000       0.000       0.001       0.000       0.005       0.000       0.000

  Times            Block Sum    Expected
  | Times    0:        0.006       0.006
  Time for Fock matrix mixing     0.000

  Updating Kohn-Sham eigenvalues and eigenvectors using ELSI and the ELPA eigensolver.
  Starting ELPA eigensolver
  Finished transformation to standard eigenproblem
  | Time :     0.000 s
  Finished solving standard eigenproblem
  | Time :     0.000 s
  Finished back-transformation of eigenvectors
  | Time :     0.000 s

  Obtaining occupation numbers and electronic chemical potential using ELSI.
  | Note that, for insulating systems, the printed 'chemical potential' value is not uniquely defined.
  | It can be anywhere in the energy gap, as long as it correctly separates occupied and unoccupied states.
  | In systems with a gap, the physically relevant chemical potential is the VBM or HOMO.

  | Chemical potential (Fermi level):    -4.92358123 eV
  Highest occupied state (VBM) at     -8.59654357 eV
  | Occupation number:      2.00000000

  Lowest unoccupied state (CBM) at    -1.25061890 eV
  | Occupation number:      0.00000000

  Overall HOMO-LUMO gap:      7.34592467 eV.

  Total energy components:
  | Sum of eigenvalues            :        -155.05164313 Ha       -4219.16987849 eV
  | XC energy correction          :         -12.62751045 Ha        -343.61204216 eV
  | XC potential correction       :          26.01818157 Ha         707.99074269 eV
  | Free-atom electrostatic energy:        -130.45110463 Ha       -3549.75516663 eV
  | Hartree energy correction     :          -3.53369268 Ha         -96.15667022 eV
  | Entropy correction            :          -0.00000000 Ha          -0.00000000 eV
  | ---------------------------
  | Total energy                  :        -275.64576932 Ha       -7500.70301481 eV
  | Total energy, T -> 0          :        -275.64576932 Ha       -7500.70301481 eV  <-- do not rely on this value for anything but (periodic) metals
  | Electronic free energy        :        -275.64576932 Ha       -7500.70301481 eV

  Derived energy quantities:
  | Kinetic energy                :         278.00989235 Ha        7565.03407557 eV
  | Electrostatic energy          :        -528.25833066 Ha      -14374.64055088 eV
  | Energy correction for multipole
  | error in Hartree potential    :          -0.00084016 Ha          -0.02286202 eV
  | Sum of eigenvalues per atom                           :       -2109.58493924 eV
  | Total energy (T->0) per atom                          :       -3750.35150741 eV  <-- do not rely on this value for anything but (periodic) metals
  | Electronic free energy per atom                       :       -3750.35150741 eV

  Self-consistency convergence accuracy:
  | Change of charge density      :  0.4249E-06
  | Change of unmixed KS density  :  0.6934E-06
  | Change of sum of eigenvalues  : -0.7540E-05 eV
  | Change of total energy        : -0.5561E-06 eV

  Writing Kohn-Sham eigenvalues.

  State    Occupation    Eigenvalue [Ha]    Eigenvalue [eV]
      1       2.00000         -47.151063        -1283.04571
      2       2.00000         -19.231614         -523.31884
      3       2.00000          -3.260988          -88.73600
      4       2.00000          -1.988494          -54.10967
      5       2.00000          -1.945955          -52.95213
      6       2.00000          -1.945955          -52.95213
      7       2.00000          -0.939287          -25.55930
      8       2.00000          -0.373275          -10.15732
      9       2.00000          -0.373275          -10.15732
     10       2.00000          -0.315917           -8.59654
     11       0.00000          -0.045959           -1.25062
     12       0.00000           0.084235            2.29216
     13       0.00000           0.084235            2.29216
     14       0.00000           0.121549            3.30751
     15       0.00000           0.201316            5.47808
     16       0.00000           0.202837            5.51947

  Highest occupied state (VBM) at     -8.59654357 eV
  | Occupation number:      2.00000000

  Lowest unoccupied state (CBM) at    -1.25061890 eV
  | Occupation number:      0.00000000

  Overall HOMO-LUMO gap:      7.34592467 eV.

  | Chemical Potential                          :    -4.92358123 eV
  | Note that, for insulating systems, the printed 'chemical potential' value is not uniquely defined.
  | It can be anywhere in the energy gap, as long as it correctly separates occupied and unoccupied states.
  | In systems with a gap, the physically relevant chemical potential is the VBM or HOMO.

  Self-consistency cycle converged.


------------------------------------------------------------
  End self-consistency iteration #    23       :  max(cpu_time)    wall_clock(cpu1)
  | Time for this iteration                     :        0.346 s           0.278 s
  | Charge density update                       :        0.000 s           0.000 s
  | Density mixing                              :        0.333 s           0.263 s
  | Hartree multipole update                    :        0.001 s           0.001 s
  | Hartree multipole summation                 :        0.002 s           0.002 s
  | Integration                                 :        0.002 s           0.002 s
  | Fock matrix evaluation                      :        0.009 s           0.008 s
  | Solution of K.-S. eqns.                     :        0.001 s           0.001 s
  | Total energy evaluation                     :        0.000 s           0.000 s

  Partial memory accounting:
  | Current value for overall tracked memory usage:
  |   Minimum:        1.087 MB (on task  5)
  |   Maximum:        1.460 MB (on task 51)
  |   Average:        1.217 MB
  | Peak value for overall tracked memory usage:
  |   Minimum:        1.537 MB (on task  5 after allocating wave)
  |   Maximum:        2.503 MB (on task 34 after allocating ovlp3fn_nosplit%tmploc)
  |   Average:        1.702 MB
  | Largest tracked array allocation so far:
  |   Minimum:        0.691 MB (ovlp3fn2%dat on task  5)
  |   Maximum:        1.001 MB (ovlp3fn_nosplit%dat on task 34)
  |   Average:        0.804 MB
  Note:  These values currently only include a subset of arrays which are explicitly tracked.
  The "true" memory usage will be greater.
------------------------------------------------------------

  Energy and forces in a compact form:
  | Total energy uncorrected      :         -0.750070301481315E+04 eV
  | Total energy corrected        :         -0.750070301481315E+04 eV  <-- do not rely on this value for anything but (periodic) metals
  | Electronic free energy        :         -0.750070301481315E+04 eV

  ------------------------------------ 
  Start decomposition of the XC Energy 
  ------------------------------------ 
  Since you specified a libxc flag with exchange and correlation combined, only the total XC energy is shown below.
  Hartree-Fock Energy :         -6.384909994 Ha           -173.742240846 eV
  XC Energy w/o HF    :        -19.012420733 Ha           -517.354290834 eV
  Total XC Energy     :        -25.397330727 Ha           -691.096531680 eV
  ------------------------------------ 
  LDA X and C from self-consistent density 
  X Energy LDA        :        -22.419336981 Ha           -610.061198822 eV
  C Energy LDA        :         -1.468574546 Ha            -39.961946626 eV
  ------------------------------------ 
  End decomposition of the XC Energy 
  ------------------------------------ 

------------------------------------------------------------

------------------------------------------------------------------------------
  Final output of selected total energy values:

  The following output summarizes some interesting total energy values
  at the end of a run (AFTER all relaxation, molecular dynamics, etc.).

  | Total energy of the DFT / Hartree-Fock s.c.f. calculation      :          -7500.703014813 eV
  | Final zero-broadening corrected energy (caution - metals only) :          -7500.703014813 eV
  | For reference only, the value of 1 Hartree used in FHI-aims is :             27.211384500 eV

  Before relying on these values, please be sure to understand exactly which
  total energy value is referred to by a given number. Different objects may
  all carry the same name 'total energy'. Definitions:

  Total energy of the DFT / Hartree-Fock s.c.f. calculation:
  | Note that this energy does not include ANY quantities calculated after the
  | s.c.f. cycle, in particular not ANY RPA, MP2, etc. many-body perturbation terms.

  Final zero-broadening corrected energy:
  | For metallic systems only, a broadening of the occupation numbers at the Fermi
  | level can be extrapolated back to zero broadening by an electron-gas inspired
  | formula. For all systems that are not real metals, this value can be
  | meaningless and should be avoided.

------------------------------------------------------------------------------
  Methods described in the following list of references were used in this FHI-aims run.
  If you publish the results, please make sure to cite these reference if they apply.
  FHI-aims is an academic code, and for our developers (often, Ph.D. students
  and postdocs), scientific credit in the community is essential.
  Thank you for helping us!

  For any use of FHI-aims, please cite:

    Volker Blum, Ralf Gehrke, Felix Hanke, Paula Havu, Ville Havu,
    Xinguo Ren, Karsten Reuter, and Matthias Scheffler
    'Ab initio molecular simulations with numeric atom-centered orbitals'
    Computer Physics Communications 180, 2175-2196 (2009)
    http://doi.org/10.1016/j.cpc.2009.06.022


  For Hartree-Fock, hybrid functionals, or many-body perturbation theory used in your run, please cite:

    Xinguo Ren, Patrick Rinke, Volker Blum, Juergen Wieferink, Alex Tkatchenko,
    Andrea Sanfilippo, Karsten Reuter, and Matthias Scheffler,
    'Resolution-of-identity approach to Hartree-Fock, hybrid density functionals,
    RPA, MP2, and GW with numeric atom-centered orbital basis functions'
    New Journal of Physics 14, 053020 (2012).
    http://doi.org/10.1088/1367-2630/14/5/053020


  For using hybrid functionals or Hartree-Fock in FHI-aims, please cite

    Sergey V. Levchenko, Xinguo Ren, Juergen Wieferink, Rainer Joahanni,
    Patrick Rinke, Volker Blum, and Matthias Scheffler
    Hybrid functionals for large periodic systems in an all-electron,
    numeric atom-centered basis framework

    Comput. Phys. Commun. 192, 60-69 (2015)
    https://doi.org/10.1016/j.cpc.2015.02.021


  For using hybrid functionals or Hartree-Fock in FHI-aims, please also cite

    Sebastian Kokott, Florian Merz, Yi Yao, Christian Carbogno, Mariana Rossi,
    Ville Havu, Markus Rampp, Matthias Scheffler, and Volker Blum
    Efficient all-electron hybrid density functionals for atomistic simulations
    beyond 10,000 atoms

    J. Chem. Phys. 161, 024112 (2024)
    https://doi.org/10.1063/5.0208103


  The ELSI infrastructure was used in your run to solve the Kohn-Sham electronic structure.
  Please check out https://wordpress.elsi-interchange.org to learn more.
  If scalability is important for your project, please acknowledge ELSI by citing:

    V. W-z. Yu, F. Corsetti, A. Garcia, W. P. Huhn, M. Jacquelin, W. Jia,
    B. Lange, L. Lin, J. Lu, W. Mi, A. Seifitokaldani, A. Vazquez-Mayagoitia,
    C. Yang, H. Yang, and V. Blum
    'ELSI: A unified software interface for Kohn-Sham electronic structure solvers'
    Computer Physics Communications 222, 267-285 (2018).
    http://doi.org/10.1016/j.cpc.2017.09.007


  For the real-space grid partitioning and parallelization used in this calculation, please cite:

    Ville Havu, Volker Blum, Paula Havu, and Matthias Scheffler,
    'Efficient O(N) integration for all-electron electronic structure calculation'
    'using numerically tabulated basis functions'
    Journal of Computational Physics 228, 8367-8379 (2009).
    http://doi.org/10.1016/j.jcp.2009.08.008


  The high-level electronic structure method used in your calculation
  employed our efficient localized resolution of identity for the Coulomb operator.
  Some calculations, especially large-scale hybrid density functional theory,
  are only possible thanks to this development. For this feature, please cite:

    Arvid Ihrig, Juergen Wieferink, Igor Ying Zhang, Matti Ropo, Xinguo Ren,
    Patrick Rinke, Matthias Scheffler, and Volker Blum,
    'Accurate localized resolution of identity approach for linear-scaling
    hybrid density functionals and for many-body perturbation theory'
    New Journal of Physics 117, 093020 (2015).
    http://doi.org/10.1088/1367-2630/17/9/093020

  Of course, there are many other important community references, e.g., those cited in the
  above references. Our list is limited to references that describe implementations in the
  FHI-aims code. The reason is purely practical (length of this list) - please credit others as well.
------------------------------------------------------------
Warnings summary:

At least    2 warnings were raised during execution.

------------------------------------------------------------
          Leaving FHI-aims.
          Date     :  20260724, Time     :  093445.556

          Computational steps:
          | Number of self-consistency cycles          :           23
          | Number of SCF (re)initializations          :            1

          Detailed time accounting                     :  max(cpu_time)    wall_clock(cpu1)
          | Total time                                  :        8.100 s           9.922 s
          | Preparation time                            :        0.144 s           0.562 s
          | Boundary condition initalization            :        0.002 s           0.002 s
          | Grid partitioning                           :        0.013 s           0.013 s
          | Preloading free-atom quantities on grid     :        0.004 s           0.004 s
          | Free-atom superposition energy              :        0.001 s           0.001 s
          | Total time for integrations                 :        0.050 s           0.052 s
          | Product basis setup: Total time             :        0.708 s           1.367 s
          | Total time evaluating exchange matrix       :        0.343 s           0.354 s
          | Total time for solution of K.-S. equations  :        0.209 s           0.238 s
          | Total time for density update               :        0.021 s           0.022 s
          | Total time for mixing                       :        6.313 s           4.079 s
          | Total time for Hartree multipole update     :        0.025 s           0.024 s
          | Total time for Hartree multipole sum        :        0.044 s           0.044 s
          | Total time for total energy evaluation      :        0.002 s           0.002 s
          | Total time for scaled ZORA corrections      :        0.000 s           0.000 s

          Partial memory accounting:
          | Residual value for overall tracked memory usage across tasks:     0.000000 MB (should be 0.000000 MB)
          | Peak values for overall tracked memory usage:
          |   Minimum:        1.537 MB (on task  5 after allocating wave)
          |   Maximum:        2.503 MB (on task 34 after allocating ovlp3fn_nosplit%tmploc)
          |   Average:        1.702 MB
          | Largest tracked array allocation:
          |   Minimum:        0.691 MB (ovlp3fn2%dat on task  5)
          |   Maximum:        1.001 MB (ovlp3fn_nosplit%dat on task 34)
          |   Average:        0.804 MB
          Note:  These values currently only include a subset of arrays which are explicitly tracked.
          The "true" memory usage will be greater.

          Have a nice day.
------------------------------------------------------------
