------------------------------------------------------------
          Invoking FHI-aims ...

          When using FHI-aims, please cite the following reference:

            Volker Blum, Ralf Gehrke, Felix Hanke, Paula Havu,
            Ville Havu, Xinguo Ren, Karsten Reuter, and Matthias Scheffler,
            'Ab Initio Molecular Simulations with Numeric Atom-Centered Orbitals',
            Computer Physics Communications 180, 2175-2196 (2009)

          In addition, many other developments in FHI-aims are likely important for
          your particular application. If so, please cite them. A partial list of references
          is written at the end of this file. Thank you for giving credit to the authors
          of these developments.

          For general information about FHI-aims please find us at

            https://fhi-aims.org

          Online tutorials can be found at

            https://fhi-aims-club.gitlab.io/tutorials/tutorials-overview/

          For any questions about FHI-aims, please visit our slack channel at

            https://fhi-aims.slack.com

          and our main development and support site at

            https://aims-git.rz-berlin.mpg.de .

          The latter site, in particular, has a wiki to collect information, as well
          as an issue tracker to log discussions, suggest improvements, and report issues
          or bugs. https://aims-git.rz-berlin.mpg.de is also the main development site
          of the project and all new and updated code versions can be obtained there.
          Please send an email to aims-coordinators@ms1p.org and we will add
          you to these sites. They are for you and everyone is welcome there.

------------------------------------------------------------



  Date     :  20260724, Time     :  101710.828
  Time zero on CPU 1             :   0.316950000000000E+00  s.
  Internal wall clock time zero  :           554120230.828  s.

  FHI-aims created a unique identifier for this run for later identification
  aims_uuid : 1EF245C6-22C1-4257-A26B-40A5865C1BCB

  Build configuration of the current instance of FHI-aims
  -------------------------------------------------------
  FHI-aims version      : 260331
  Commit number         : GITDIR-NOTFOUND
  CMake host system     : Linux-4.18.0-553.97.1.el8_10.x86_64
  CMake version         : 3.31.6
  OS Distribution       : Rocky Linux 8.10 (Green Obsidian)
  Built on              : Intel(R) Xeon(R) w5-3435X
  Fortran compiler      : /mnt/sw/nix/store/pa59vldasm7gxpr7dkijhk09q5qq63q1-openmpi-4.1.8/bin/mpifort (GNU) version 13.3.0
  Fortran compiler flags: -O2 -fallow-argument-mismatch -ffree-line-length-none
  C compiler            : /mnt/sw/nix/store/pa59vldasm7gxpr7dkijhk09q5qq63q1-openmpi-4.1.8/bin/mpicc (GNU) version 13.3.0
  C compiler flags      : -O2
  C++ compiler          : /mnt/sw/nix/store/pa59vldasm7gxpr7dkijhk09q5qq63q1-openmpi-4.1.8/bin/mpicxx (GNU) version 13.3.0
  C++ compiler flags    : -O2
  HIP compiler          :
  HIP compiler flags    :
  HIP GPU arch          :
  Using MPI
  Using ScaLAPACK
  Using LibXC
  Using i-PI
  Using RLSY
  Using GREENX
  Linking against: /mnt/sw/nix/store/dwd607jzx9m5bdd100br72s3b6g05zrf-intel-oneapi-mkl-2024.2.2/mkl/2024.2/lib/libmkl_intel_lp64.so
                   /mnt/sw/nix/store/dwd607jzx9m5bdd100br72s3b6g05zrf-intel-oneapi-mkl-2024.2.2/mkl/2024.2/lib/libmkl_sequential.so
                   /mnt/sw/nix/store/dwd607jzx9m5bdd100br72s3b6g05zrf-intel-oneapi-mkl-2024.2.2/mkl/2024.2/lib/libmkl_core.so
                   /mnt/sw/nix/store/dwd607jzx9m5bdd100br72s3b6g05zrf-intel-oneapi-mkl-2024.2.2/mkl/2024.2/lib/libmkl_blacs_openmpi_lp64.so
                   /mnt/sw/nix/store/dwd607jzx9m5bdd100br72s3b6g05zrf-intel-oneapi-mkl-2024.2.2/mkl/2024.2/lib/libmkl_scalapack_lp64.so

  Using       64 parallel tasks.
  Task        0 on host worker6061 reporting.
  Task        1 on host worker6061 reporting.
  Task        2 on host worker6061 reporting.
  Task        3 on host worker6061 reporting.
  Task        4 on host worker6061 reporting.
  Task        5 on host worker6061 reporting.
  Task        6 on host worker6061 reporting.
  Task        7 on host worker6061 reporting.
  Task        8 on host worker6061 reporting.
  Task        9 on host worker6061 reporting.
  Task       10 on host worker6061 reporting.
  Task       11 on host worker6061 reporting.
  Task       12 on host worker6061 reporting.
  Task       13 on host worker6061 reporting.
  Task       14 on host worker6061 reporting.
  Task       15 on host worker6061 reporting.
  Task       16 on host worker6061 reporting.
  Task       17 on host worker6061 reporting.
  Task       18 on host worker6061 reporting.
  Task       19 on host worker6061 reporting.
  Task       20 on host worker6061 reporting.
  Task       21 on host worker6061 reporting.
  Task       22 on host worker6061 reporting.
  Task       23 on host worker6061 reporting.
  Task       24 on host worker6061 reporting.
  Task       25 on host worker6061 reporting.
  Task       26 on host worker6061 reporting.
  Task       27 on host worker6061 reporting.
  Task       28 on host worker6061 reporting.
  Task       29 on host worker6061 reporting.
  Task       30 on host worker6061 reporting.
  Task       31 on host worker6061 reporting.
  Task       32 on host worker6062 reporting.
  Task       33 on host worker6062 reporting.
  Task       34 on host worker6062 reporting.
  Task       35 on host worker6062 reporting.
  Task       36 on host worker6062 reporting.
  Task       37 on host worker6062 reporting.
  Task       38 on host worker6062 reporting.
  Task       39 on host worker6062 reporting.
  Task       40 on host worker6062 reporting.
  Task       41 on host worker6062 reporting.
  Task       42 on host worker6062 reporting.
  Task       43 on host worker6062 reporting.
  Task       44 on host worker6062 reporting.
  Task       45 on host worker6062 reporting.
  Task       46 on host worker6062 reporting.
  Task       47 on host worker6062 reporting.
  Task       48 on host worker6062 reporting.
  Task       49 on host worker6062 reporting.
  Task       50 on host worker6062 reporting.
  Task       51 on host worker6062 reporting.
  Task       52 on host worker6062 reporting.
  Task       53 on host worker6062 reporting.
  Task       54 on host worker6062 reporting.
  Task       55 on host worker6062 reporting.
  Task       56 on host worker6062 reporting.
  Task       57 on host worker6062 reporting.
  Task       58 on host worker6062 reporting.
  Task       59 on host worker6062 reporting.
  Task       60 on host worker6062 reporting.
  Task       61 on host worker6062 reporting.
  Task       62 on host worker6062 reporting.
  Task       63 on host worker6062 reporting.

  Obtaining array dimensions for all initial allocations:
  
  -----------------------------------------------------------------------
  Parsing control.in (first pass over file, find array dimensions only).
  The contents of control.in will be repeated verbatim below
  unless switched off by setting 'verbatim_writeout .false.' .
  in the first line of control.in .
  -----------------------------------------------------------------------
  
  override_warning_libxc             True
  xc                                 libxc HYB_MGGA_XC_WB97M_V
  
  spin                               none
  charge                             0
  
  relativistic                       atomic_zora scalar
  atomic_solver_xc                   pbe
  ionic_solver_xc                    pbe
  
  occupation_type                    gaussian 0.01
  
  sc_accuracy_rho                    1e-06
  sc_accuracy_eev                    1e-03
  sc_accuracy_etot                   1e-06
  occupation_acc                     1e-09
  
  charge_mix_param                   0.1
  n_max_pulay                        8
  max_zeroin                         20000
  
  # Species defaults for C
  ################################################################################
  #
  #  FHI-aims code project
  #  Volker Blum, 2017
  #
  #  Suggested "intermediate" defaults for C atom (to be pasted into control.in file)
  #
  ################################################################################
    species        C
  #     global species definitions
      nucleus             6
      mass                12.0107
  #
      l_hartree           6
  #
      cut_pot             4.0  2.0  1.0
      basis_dep_cutoff    1e-4
  #
      radial_base         34 7.0
      radial_multiplier   2
      angular_grids specified
        division   0.2187   50
        division   0.4416  110
        division   0.6335  194
        division   0.7727  302
        division   0.8772  434
  #      division   0.9334  590
  #      division   0.9924  770
  #      division   1.0230  974
  #      division   1.5020 1202
  #     outer_grid  974
        outer_grid  434
  ################################################################################
  #
  #  Definition of "minimal" basis
  #
  ################################################################################
  #     valence basis states
      valence      2  s   2.
      valence      2  p   2.
  #     ion occupancy
      ion_occ      2  s   1.
      ion_occ      2  p   1.
  ################################################################################
  #
  #  Suggested additional basis functions. For production calculations,
  #  uncomment them one after another (the most important basis functions are
  #  listed first).
  #
  #  Constructed for dimers: 1.0 A, 1.25 A, 1.5 A, 2.0 A, 3.0 A
  #
  ################################################################################
  #  "First tier" - improvements: -1214.57 meV to -155.61 meV
       hydro 2 p 1.7
       hydro 3 d 6
       hydro 2 s 4.9
  #  "Second tier" - improvements: -67.75 meV to -5.23 meV
       hydro 4 f 9.8
  #     hydro 3 p 5.2
  #     hydro 3 s 4.3
    for_aux    hydro 5 g 14.4
  #     hydro 3 d 6.2
  #  "Third tier" - improvements: -2.43 meV to -0.60 meV
  #     hydro 2 p 5.6
  #     hydro 2 s 1.4
  #     hydro 3 d 4.9
  #     hydro 4 f 11.2
  #  "Fourth tier" - improvements: -0.39 meV to -0.18 meV
  #     hydro 2 p 2.1
  #     hydro 5 g 16.4
  #     hydro 4 d 13.2
  #     hydro 3 s 13.6
  #     hydro 4 f 17.6
  #  Further basis functions - improvements: -0.08 meV and below
  #     hydro 3 s 2
  #     hydro 3 p 6
  #     hydro 4 d 20
  
  # Species defaults for Si
  ################################################################################
  #
  #  FHI-aims code project
  #  Volker Blum, 2017
  #
  #  Suggested "intermediate" defaults for Si atom (to be pasted into control.in file)
  #
  ################################################################################
    species        Si
  #     global species definitions
      nucleus             14
      mass                28.0855
  #
      l_hartree           6
  #
      cut_pot             4.0          2.0  1.0
      basis_dep_cutoff    1e-4
  #
      radial_base         42 7.0
      radial_multiplier   2
      angular_grids       specified
        division   0.4121   50
        division   0.7665  110
        division   1.0603  194
        division   1.2846  302
        division   1.4125  434
  #      division   1.4810  590
  #      division   1.5529  770
  #      division   1.6284  974
  #      division   2.6016 1202
  #      outer_grid   974
        outer_grid  434
  ################################################################################
  #
  #  Definition of "minimal" basis
  #
  ################################################################################
  #     valence basis states
      valence      3  s   2.
      valence      3  p   2.
  #     ion occupancy
      ion_occ      3  s   1.
      ion_occ      3  p   1.
  ################################################################################
  #
  #  Suggested additional basis functions. For production calculations,
  #  uncomment them one after another (the most important basis functions are
  #  listed first).
  #
  #  Constructed for dimers: 1.75 A, 2.0 A, 2.25 A, 2.75 A, 3.75 A
  #
  ################################################################################
  #  "First tier" - improvements: -571.96 meV to -37.03 meV
       hydro 3 d 4.2
       hydro 2 p 1.4
       hydro 4 f 6.2
       ionic 3 s auto
  #  "Second tier" - improvements: -16.76 meV to -3.03 meV
  #     hydro 3 d 9
  for_aux     hydro 5 g 9.4
  #     hydro 4 p 4
  #     hydro 1 s 0.65
  #  "Third tier" - improvements: -3.89 meV to -0.60 meV
  #     ionic 3 d auto
  #     hydro 3 s 2.6
  #     hydro 4 f 8.4
  #     hydro 3 d 3.4
  #     hydro 3 p 7.8
  #  "Fourth tier" - improvements: -0.33 meV to -0.11 meV
  #     hydro 2 p 1.6
  #     hydro 5 g 10.8
  #     hydro 5 f 11.2
  #     hydro 3 d 1
  #     hydro 4 s 4.5
  #  Further basis functions that fell out of the optimization - noise
  #  level... < -0.08 meV
  #     hydro 4 d 6.6
  #     hydro 5 g 16.4
  #     hydro 4 d 9
  
  -----------------------------------------------------------------------
  Completed first pass over input file control.in .
  -----------------------------------------------------------------------
  
  
  -----------------------------------------------------------------------
  Parsing geometry.in (first pass over file, find array dimensions only).
  The contents of geometry.in will be repeated verbatim below
  unless switched off by setting 'verbatim_writeout .false.' .
  in the first line of geometry.in .
  -----------------------------------------------------------------------
  
  #===============================================================================
  # Created using the Atomic Simulation Environment (ASE)
  
  # Thu Jul 23 15:37:35 2026
  
  #=======================================================
  atom 0.0000000000000000 0.0000000000000000 -0.9250000000000000 Si
  atom 0.0000000000000000 0.0000000000000000 0.9250000000000000 C
  
  -----------------------------------------------------------------------
  Completed first pass over input file geometry.in .
  -----------------------------------------------------------------------
  

  Basic array size parameters:
  | Number of species                 :        2
  | Number of atoms                   :        2
  | Max. basis fn. angular momentum   :        4
  | Max. atomic/ionic basis occupied n:        3
  | Max. number of basis fn. types    :        3
  | Max. radial fns per species/type  :        5
  | Max. logarithmic grid size        :     1346
  | Max. radial integration grid size :       85
  | Max. angular integration grid size:      434
  | Max. angular grid division number :        8
  | Radial grid for Hartree potential :     1346
  | Number of spin channels           :        1

  Definition of standardized fundamental physical constants in this FHI-aims run:
  | Using the set of values used in FHI-aims up to 2024, which combines values from
  | different CODATA sets - see constants.f90.
  | Use the 'codata' keyword in control.in to change this selection.

  Memory overcommitment is allowed on your operating system.

------------------------------------------------------------
          Reading file control.in.
------------------------------------------------------------
  XC: Using LibXC. Please refer to LibXC output for further details.
  Using libxc - Initializing
  Libxc version: 6.1.0

  You have selected libxc functional HYB_MGGA_XC_WB97M_V (531)
    - Description: wB97M-V exchange-correlation functional
    - Type: Hybrid MGGA(Exchange-correlation)
    - Using the following  17 external libxc parameters:
             _cx00 = 0.850000000000D+00  (u^00 coefficient for exchange)
             _cx01 = 0.100700000000D+01  (u^01 coefficient for exchange)
             _cx10 = 0.259000000000D+00  (u^10 coefficient for exchange)
            _css00 = 0.443000000000D+00  (u^00 coefficient for same-spin correlation)
            _css04 =-0.143700000000D+01  (u^04 coefficient for same-spin correlation)
            _css10 =-0.453500000000D+01  (u^10 coefficient for same-spin correlation)
            _css20 =-0.339000000000D+01  (u^20 coefficient for same-spin correlation)
            _css43 = 0.427800000000D+01  (u^43 coefficient for same-spin correlation)
            _cos00 = 0.100000000000D+01  (u^00 coefficient for opposite-spin correlation)
            _cos10 = 0.135800000000D+01  (u^10 coefficient for opposite-spin correlation)
            _cos20 = 0.292400000000D+01  (u^20 coefficient for opposite-spin correlation)
            _cos21 =-0.881200000000D+01  (u^21 coefficient for opposite-spin correlation)
            _cos60 =-0.139000000000D+01  (u^60 coefficient for opposite-spin correlation)
            _cos61 = 0.914200000000D+01  (u^61 coefficient for opposite-spin correlation)
            _alpha = 0.100000000000D+01  (fraction of HF exchange)
             _beta =-0.850000000000D+00  (fraction of short-range exchange)
            _omega = 0.300000000000D+00  (range-separation constant)
    - Reference to Literature:
      [1] N. Mardirossian and M. Head-Gordon.,  J. Chem. Phys. 144, 214110 (2016)

  Obtaining Hybrid Functional Parameters from Libxc:
  Fraction of Hartree-Fock exchange ALPHA:      1.00000000
  Fraction of short-range exchange BETA  :     -0.85000000
  Range-separation parameter OMEGA       :      0.30000000
  Detecting a range-separated Hybrid functional
  This translates into the following internal FHI-aims parameters:
  hybrid_coeff           =      0.15000000
  hybrid_coeff_LR        =      1.00000000
  hse_omega              =      0.30000000
  hse_omega_hf           =      0.30000000
  use_hse                =               F
  use_lc_wpbeh           =               T
  use_yukawa             =               F
  Spin treatment: No spin polarisation.
  Charge =   0.000000E+00: Neutral system requested explicitly.
  Scalar relativistic treatment of kinetic energy: on-site free-atom approximation to ZORA.
  Atomic Solver XC: Using user-defined functional for generating the minimal NAO basis functions.
  Note that only the following functionals are available: kli, pz-lda, pw-lda, vwn, vwn-gauss, pw91_gga, pbe, rpbe, revpbe, pbeint, pbesol, blyp.
  Ionic Solver XC: Using user-defined functional for generating the minimal NAO basis functions.
  Note that only the following functionals are available: kli, pz-lda, pw-lda, vwn, vwn-gauss, pw91_gga, pbe, rpbe, revpbe, pbeint, pbesol, blyp.
  Occupation type: Gaussian broadening, width =   0.100000E-01 eV.
  Convergence accuracy of self-consistent charge density:  0.1000E-05
  Convergence accuracy of sum of eigenvalues:  0.1000E-02
  Convergence accuracy of total energy:  0.1000E-05
  Accuracy of occupation numbers  :  0.1000E-08
  Charge density mixing - mixing parameter:     0.1000
  Pulay mixing - number of memorized iterations:    8
  Maximum # of zeroin steps  : ****

  Reading configuration options for species C                   .
  | Found nuclear charge :   6.0000
  | Found atomic mass :    12.010700000000000      amu
  | Found l_max for Hartree potential  :   6
  | Found cutoff potl. onset [A], width [A], scale factor :    4.00000    2.00000    1.00000
  | Threshold for basis-dependent cutoff potential is   0.100000E-03
  | Found data for basic radial integration grid :    34 points, outermost radius =    7.000 A
  | Found multiplier for basic radial grid :   2
  | Found angular grid specification: user-specified.
  | Specified grid contains     6 separate shells.
  | Check grid settings after all constraints further below.
  | Found free-atom valence shell :  2 s   2.000
  | Found free-atom valence shell :  2 p   2.000
  | Found free-ion valence shell :  2 s   1.000
  | Found free-ion valence shell :  2 p   1.000
  | Found hydrogenic basis function :  2 p   1.700
  | Found hydrogenic basis function :  3 d   6.000
  | Found hydrogenic basis function :  2 s   4.900
  | Found hydrogenic basis function :  4 f   9.800
  | Found hydrogenic extended basis function :  5 g  14.400
 | Encountered keyword species, ending the description of species C                   .
  Species C                   : Missing cutoff potential type.
  Defaulting to exp(1/x)/(1-x)^2 type cutoff potential.
  Species C : No 'logarithmic' tag. Using default grid for free atom:
  | Default logarithmic grid data [bohr] : 0.1000E-03 0.1000E+03 0.1012E+01
  Species C : On-site basis accuracy parameter (for Gram-Schmidt orthonormalisation) not specified.
  Using default value basis_acc =  0.1000000E-03.
  Species C                   : Using default innermost maximum threshold i_radial=  2 for radial functions.
  Species C                   : Default cutoff onset for free atom density etc. : 0.40000000E+01 AA.
  Species C                   : Basic radial grid will be enhanced according to radial_multiplier =   2, to contain    69 grid points.

  Reading configuration options for species Si                  .
  | Found nuclear charge :  14.0000
  | Found atomic mass :    28.085500000000000      amu
  | Found l_max for Hartree potential  :   6
  | Found cutoff potl. onset [A], width [A], scale factor :    4.00000    2.00000    1.00000
  | Threshold for basis-dependent cutoff potential is   0.100000E-03
  | Found data for basic radial integration grid :    42 points, outermost radius =    7.000 A
  | Found multiplier for basic radial grid :   2
  | Found angular grid specification: user-specified.
  | Specified grid contains     6 separate shells.
  | Check grid settings after all constraints further below.
  | Found free-atom valence shell :  3 s   2.000
  | Found free-atom valence shell :  3 p   2.000
  | Found free-ion valence shell :  3 s   1.000
  | Found free-ion valence shell :  3 p   1.000
  | Found hydrogenic basis function :  3 d   4.200
  | Found hydrogenic basis function :  2 p   1.400
  | Found hydrogenic basis function :  4 f   6.200
  | Found ionic basis function :  3 s , default cutoff radius.
  | Found hydrogenic extended basis function :  5 g   9.400
  Species Si                  : Missing cutoff potential type.
  Defaulting to exp(1/x)/(1-x)^2 type cutoff potential.
  Species Si: No 'logarithmic' tag. Using default grid for free atom:
  | Default logarithmic grid data [bohr] : 0.1000E-03 0.1000E+03 0.1012E+01
  | Will include ionic basis functions of  2.0-fold positive Si                   ion.
  Species Si: On-site basis accuracy parameter (for Gram-Schmidt orthonormalisation) not specified.
  Using default value basis_acc =  0.1000000E-03.
  Species Si                  : Using default innermost maximum threshold i_radial=  2 for radial functions.
  Species Si                  : Default cutoff onset for free atom density etc. : 0.40000000E+01 AA.
  Species Si                  : Basic radial grid will be enhanced according to radial_multiplier =   2, to contain    85 grid points.

  Finished reading input file 'control.in'.

------------------------------------------------------------


------------------------------------------------------------
          Reading geometry description geometry.in.
------------------------------------------------------------
  | The smallest distance between any two atoms is         1.85000000 AA.
  | The first atom of this pair is atom number                      1 .
  | The second atom of this pair is atom number                     2 .
  Input structure read successfully.
  The structure contains        2 atoms,  and a total of         20.000 electrons.

  Input geometry:
  | No unit cell requested.
  | Atomic structure:
  |       Atom                x [A]            y [A]            z [A]
  |    1: Species Si            0.00000000        0.00000000       -0.92500000
  |    2: Species C             0.00000000        0.00000000        0.92500000

  Slab Identifier: This is not a periodic structure.

  Finished reading input file 'geometry.in'.



  Consistency checks for stacksize environment parameter are next.

  | Maximum stacksize for task 0: unlimited
  | Maximum stacksize for task 1: unlimited
  | Maximum stacksize for task 2: unlimited
  | Maximum stacksize for task 3: unlimited
  | Maximum stacksize for task 4: unlimited
  | Maximum stacksize for task 5: unlimited
  | Maximum stacksize for task 6: unlimited
  | Maximum stacksize for task 7: unlimited
  | Maximum stacksize for task 8: unlimited
  | Maximum stacksize for task 9: unlimited
  | Maximum stacksize for task 10: unlimited
  | Maximum stacksize for task 11: unlimited
  | Maximum stacksize for task 12: unlimited
  | Maximum stacksize for task 13: unlimited
  | Maximum stacksize for task 14: unlimited
  | Maximum stacksize for task 15: unlimited
  | Maximum stacksize for task 16: unlimited
  | Maximum stacksize for task 17: unlimited
  | Maximum stacksize for task 18: unlimited
  | Maximum stacksize for task 19: unlimited
  | Maximum stacksize for task 20: unlimited
  | Maximum stacksize for task 21: unlimited
  | Maximum stacksize for task 22: unlimited
  | Maximum stacksize for task 23: unlimited
  | Maximum stacksize for task 24: unlimited
  | Maximum stacksize for task 25: unlimited
  | Maximum stacksize for task 26: unlimited
  | Maximum stacksize for task 27: unlimited
  | Maximum stacksize for task 28: unlimited
  | Maximum stacksize for task 29: unlimited
  | Maximum stacksize for task 30: unlimited
  | Maximum stacksize for task 31: unlimited
  | Maximum stacksize for task 32: unlimited
  | Maximum stacksize for task 33: unlimited
  | Maximum stacksize for task 34: unlimited
  | Maximum stacksize for task 35: unlimited
  | Maximum stacksize for task 36: unlimited
  | Maximum stacksize for task 37: unlimited
  | Maximum stacksize for task 38: unlimited
  | Maximum stacksize for task 39: unlimited
  | Maximum stacksize for task 40: unlimited
  | Maximum stacksize for task 41: unlimited
  | Maximum stacksize for task 42: unlimited
  | Maximum stacksize for task 43: unlimited
  | Maximum stacksize for task 44: unlimited
  | Maximum stacksize for task 45: unlimited
  | Maximum stacksize for task 46: unlimited
  | Maximum stacksize for task 47: unlimited
  | Maximum stacksize for task 48: unlimited
  | Maximum stacksize for task 49: unlimited
  | Maximum stacksize for task 50: unlimited
  | Maximum stacksize for task 51: unlimited
  | Maximum stacksize for task 52: unlimited
  | Maximum stacksize for task 53: unlimited
  | Maximum stacksize for task 54: unlimited
  | Maximum stacksize for task 55: unlimited
  | Maximum stacksize for task 56: unlimited
  | Maximum stacksize for task 57: unlimited
  | Maximum stacksize for task 58: unlimited
  | Maximum stacksize for task 59: unlimited
  | Maximum stacksize for task 60: unlimited
  | Maximum stacksize for task 61: unlimited
  | Maximum stacksize for task 62: unlimited
  | Maximum stacksize for task 63: unlimited
  | Current stacksize for task 0: unlimited
  | Current stacksize for task 1: unlimited
  | Current stacksize for task 2: unlimited
  | Current stacksize for task 3: unlimited
  | Current stacksize for task 4: unlimited
  | Current stacksize for task 5: unlimited
  | Current stacksize for task 6: unlimited
  | Current stacksize for task 7: unlimited
  | Current stacksize for task 8: unlimited
  | Current stacksize for task 9: unlimited
  | Current stacksize for task 10: unlimited
  | Current stacksize for task 11: unlimited
  | Current stacksize for task 12: unlimited
  | Current stacksize for task 13: unlimited
  | Current stacksize for task 14: unlimited
  | Current stacksize for task 15: unlimited
  | Current stacksize for task 16: unlimited
  | Current stacksize for task 17: unlimited
  | Current stacksize for task 18: unlimited
  | Current stacksize for task 19: unlimited
  | Current stacksize for task 20: unlimited
  | Current stacksize for task 21: unlimited
  | Current stacksize for task 22: unlimited
  | Current stacksize for task 23: unlimited
  | Current stacksize for task 24: unlimited
  | Current stacksize for task 25: unlimited
  | Current stacksize for task 26: unlimited
  | Current stacksize for task 27: unlimited
  | Current stacksize for task 28: unlimited
  | Current stacksize for task 29: unlimited
  | Current stacksize for task 30: unlimited
  | Current stacksize for task 31: unlimited
  | Current stacksize for task 32: unlimited
  | Current stacksize for task 33: unlimited
  | Current stacksize for task 34: unlimited
  | Current stacksize for task 35: unlimited
  | Current stacksize for task 36: unlimited
  | Current stacksize for task 37: unlimited
  | Current stacksize for task 38: unlimited
  | Current stacksize for task 39: unlimited
  | Current stacksize for task 40: unlimited
  | Current stacksize for task 41: unlimited
  | Current stacksize for task 42: unlimited
  | Current stacksize for task 43: unlimited
  | Current stacksize for task 44: unlimited
  | Current stacksize for task 45: unlimited
  | Current stacksize for task 46: unlimited
  | Current stacksize for task 47: unlimited
  | Current stacksize for task 48: unlimited
  | Current stacksize for task 49: unlimited
  | Current stacksize for task 50: unlimited
  | Current stacksize for task 51: unlimited
  | Current stacksize for task 52: unlimited
  | Current stacksize for task 53: unlimited
  | Current stacksize for task 54: unlimited
  | Current stacksize for task 55: unlimited
  | Current stacksize for task 56: unlimited
  | Current stacksize for task 57: unlimited
  | Current stacksize for task 58: unlimited
  | Current stacksize for task 59: unlimited
  | Current stacksize for task 60: unlimited
  | Current stacksize for task 61: unlimited
  | Current stacksize for task 62: unlimited
  | Current stacksize for task 63: unlimited

  Consistency checks for the contents of control.in are next.

  Coulomb operator: Defaulting to logarithmic spherical Bessel transform integrals (use_logsbt .true.).
  LC-wPBEh screening parameters: omega  =      0.30000000 bohr^-1, and
                                 alpha =      0.15000000.
  MPI_IN_PLACE appears to work with this MPI implementation.
  | Keeping use_mpi_in_place .true. (see manual).
  Explicit treatment of the Coulomb operator is needed, but the RI method is not specified.
  Coulomb operator: Defaulting to 'LVL fast' resolution of identity - RI_type = LVL_fast
  Species C: Using default value for prodbas_acc =   1.000000E-04.
  Species C: Using default value max_l_prodbas =    20.
  Species Si: Using default value for prodbas_acc =   1.000000E-04.
  Species Si: Using default value max_l_prodbas =    20.
  Target number of points in a grid batch is not set. Defaulting to  100
  Method for grid partitioning is not set. Defaulting to parallel hash+maxmin partitioning.
  Batch size limit is not set. Defaulting to    200
  By default, will store active basis functions for each batch.
  If in need of memory, prune_basis_once .false. can be used to disable this option.
  communication_type for Hartree potential was not specified.
  Defaulting to calc_hartree .
  Defaulting to Pulay charge density mixer.
  Pulay mixer: Number of initial linear mixing iterations not set.
  Defaulting to    0 iterations.
  Work space size for distributed Hartree potential not set.
  Defaulting to   0.200000E+03 MB.
  Algorithm-dependent basis array size parameters:
  | n_max_pulay                         :        8
  Maximum number of self-consistency iterations not provided.
  Presetting  1000 iterations.
  Presetting      1001 iterations before the initial mixing cycle
  is restarted anyway using the sc_init_iter criterion / keyword.
  Presetting a factor      1.000 between actual scf density residual
  and density convergence criterion sc_accuracy_rho below which sc_init_iter
  takes no effect.
  Calculation of forces was not defined in control.in. No forces will be calculated.
  Geometry relaxation not requested: no relaxation will be performed.
  No accuracy limit for integral partition fn. given. Defaulting to  0.1000E-14.
  No threshold value for u(r) in integrations given. Defaulting to  0.1000E-05.
  No threshold value for occupation numbers given. Defaulting to  0.0000E+00.
  No accuracy for fermi level given. Defaulting to  0.1000E-19.
  Preferred method for the eigenvalue solver ('KS_method') not specified in 'control.in'.
  Calling BLACS routine to test compilation state
  Since ScaLAPACK support is enabled, defaulting to ELPA (via ELSI).
  Threshold for basis singularities not set.
  Default threshold for basis singularities:  0.1000E-04
  partition_type (choice of integration weights) for integrals was not specified.
  | Using a version of the partition function of Stratmann and coworkers ('stratmann_sparse').
  | At each grid point, the set of atoms used to build the partition table is smoothly restricted to
  | only those atoms whose free-atom density would be non-zero at that grid point.
  Partitioning for Hartree potential was not defined. Using partition_type for integrals.
  | Adjusted default value of keyword multip_moments_threshold to:       0.10000000E-11
  | This value may affect high angular momentum components of the Hartree potential in periodic systems.
  Threshold for auxiliary basis singularities not set.
  Default threshold for auxiliary basis singularities:  0.1000E-04
  Use default threshold for vanishing multipole moments of auxiliary basis:  0.1000E-07
  No q(lm)/r^(l+1) cutoff set for long-range Hartree potential.
  | Using default value of  0.100000E-09 .
  | Verify using the multipole_threshold keyword.
  Defaulting to new monopole extrapolation.
  Density update method: automatic selection selected.
  Coulomb operator: Defaulting to screening threshold for four-center integrals:   0.100000E-06
  Coulomb operator: Defaulting to screening threshold for Coulomb matrix:   0.100000E-09
  Fock matrix calculation: Setting the screening threshold for overlap matrix to coul_mat_threshold:   0.100000E-09
  Coulomb operator: Defaulting to 'LVL_fast' resolution of identity - RI_type = LVL_fast 
  No other resolution of identity version is supported for periodic boundary conditions at present.
  Coulomb operator: Defaulting to logarithmic spherical Bessel transform integrals (use_logsbt .true.).
  Charge integration errors on the 3D integration grid will be compensated
  by explicit normalization and distribution of residual charges.
  Use the "compensate_multipole_errors" flag to change this behaviour.
  LVL not implemented with density matrix yet
  -> switching to transformed overlap
  LVL probably works better with logsbt
  Default to 1D ("use_logsbt") integrations for auxiliary 2-center integrals.
  Default onset of logarithmic r-grid for SBT is -38.000000000000
  Default onset of logarithmic k-grid for SBT is -25.000000000000
  Default range of logarithmic r- and k-grid for SBT is  45.000000000000
  Default number of logarithmic r- and k-grid for SBT is   4096
  Default of use_2d_corr is to use the efficient 2D distribution where possible
  Set 'collect_eigenvectors' to be '.true.' for use_density_matrix .false.
  Found potential conflicts with setting 'use_local_index' for this calculation. Will not set it.
** WARNING:

  You have specified the use of LibXC.

  ** PLEASE ** be careful using LibXC. Whilst most of the LDA, GGA and MGGA
  functionals, and hybrid variations therein, should be stable (though we
  always recommend testing!), there are several fancy functionals with e.g.
  range-separation, like HSE03/HSE06/LC-PBEh, and also MGGA functionals
  that depend on the laplacian of the density, like BR89, that are not
  fully implemented due to the infrastructure for these functionals being
  incomplete or non-generic.
  If you want to use these functionals please contact the development team
  and we will work on them with you!

** END OF WARNING

  Consistency checks for the contents of geometry.in are next.

  Number of empty states per atom not set in control.in - providing a guess from actual geometry.
  | Total number of empty states used during s.c.f. cycle:        6
  If you use a very high smearing, use empty_states (per atom!) in control.in to increase this value.

  Structure-dependent array size parameters: 
  | Maximum number of distinct radial functions  :       18
  | Maximum number of basis functions            :       64
  | Number of Kohn-Sham states (occupied + empty):       16
------------------------------------------------------------
  After read_input_data [GB]:   1029.61

  Performing system and environment tests:
  | Environment variable OMP_NUM_THREADS correctly set to 1.
  | Checking for ScaLAPACK...
  | Testing pdtran()...
  *** WARNING: CPU mismatch detected for Node worker6062 : Intel(R) Xeon(R) Platinum 8362 CPU @ 2.80GHz                                                 
  | All pdtran() tests passed.
  | Testing CPU compatibility for run-time vs. build-time.
  | Reading /proc/cpuinfo for CPU information ...
  | Built for  : Intel(R) Xeon(R) w5-3435X
  *** WARNING: CPU mismatch detected for Node worker6061 : Intel(R) Xeon(R) Platinum 8362 CPU @ 2.80GHz                                                 
** WARNING:
  | WARNING: This FHI-aims executable was built on a different
  CPU type than the CPUs used in this run.

  | Running on different hardware than that on which a code was compiled
  | can produce incorrect results (wrong numbers) due to architecture-specific
  | optimizations made by the compiler. Those wrong numbers may occur only spuriously.
  | They are therefore very difficult to rule out even by tests ahead of time.

** END OF WARNING
  | Running on : Intel(R) Xeon(R) Platinum 8362 CPU @ 2.80GHz
  | Runtime CPU compatibility verified.
  
  After prepare_system [GB]:   1029.59

------------------------------------------------------------
          Preparing all fixed parts of the calculation.
------------------------------------------------------------
  Determining machine precision:
     2.2250738585072014E-308
  Setting up grids for atomic and cluster calculations.

  Creating wave function, potential, and density for free atoms.
  Runtime choices for atomic solver:
  | atomic solver xc        : PBE
  | compute density gradient: 1
  | compute kinetic density : T

  Species: C

  List of occupied orbitals and eigenvalues:
    n    l              occ      energy [Ha]    energy [eV]
    1    0           2.0000       -10.049212      -273.4530
    2    0           2.0000        -0.504761       -13.7352
    2    1           2.0000        -0.193631        -5.2690


  Species: Si

  List of occupied orbitals and eigenvalues:
    n    l              occ      energy [Ha]    energy [eV]
    1    0           2.0000       -65.775969     -1789.8552
    2    0           2.0000        -5.123557      -139.4191
    3    0           2.0000        -0.394463       -10.7339
    2    1           6.0000        -3.508175       -95.4623
    3    1           2.0000        -0.147003        -4.0002


  Adding cutoff potential to free-atom effective potential.
  Creating fixed part of basis set: Ionic, confined, hydrogenic.

  C                    hydrogenic:

  List of hydrogenic basis orbitals: 
    n    l      effective z      eigenvalue [eV]  inner max. [A]     outer max. [A]     outer radius [A]   
    2    1         1.700000        -9.8152           1.245706           1.245706           5.401630
    3    2         6.000000       -54.4226           0.792453           0.792453           4.178599
    2    0         4.900000       -81.6681           0.082559           0.562749           3.353238
    4    3         9.800000       -81.6681           0.863254           0.863254           4.028125

  List of extra hydrogenic orbitals for auxiliary basis: 
    n    l      effective z      eigenvalue [eV]  inner max. [A]     outer max. [A]     outer radius [A]   
    5    4        14.400000      -112.8510           0.917666           0.917666           3.883070


  Si                   ion:
  Runtime choices for ionic solver:
  | ionic solver xc        : PBE

  List of free ionic orbitals and eigenvalues:
    n    l      energy [Ha]    energy [eV]
    1    0       -66.641157     -1813.3982
    2    0        -5.964274      -162.2962
    3    0        -1.073878       -29.2217
    2    1        -4.350005      -118.3697
    3    1        -0.776571       -21.1316


  List of ionic basis orbitals and eigenvalues:
    n    l      energy [Ha]    energy [eV]    outer radius [A]
    3    0        -1.073870       -29.2215       4.534782


  Si                   hydrogenic:

  List of hydrogenic basis orbitals: 
    n    l      effective z      eigenvalue [eV]  inner max. [A]     outer max. [A]     outer radius [A]   
    3    2         4.200000       -26.6668           1.139231           1.139231           5.315897
    2    1         1.400000        -6.6027           1.490786           1.490786           5.447472
    4    3         6.200000       -32.6870           1.368518           1.368518           5.381283

  List of extra hydrogenic orbitals for auxiliary basis: 
    n    l      effective z      eigenvalue [eV]  inner max. [A]     outer max. [A]     outer radius [A]   
    5    4         9.400000       -48.0877           1.402391           1.402391           5.251306

  Creating atomic-like basis functions for current effective potential.

  Species C                   :

  List of atomic basis orbitals and eigenvalues:
    n    l      energy [Ha]    energy [eV]    outer radius [A]
    1    0       -10.049212      -273.4530       1.934409
    2    0        -0.504761       -13.7352       5.271162
    2    1        -0.193631        -5.2690       5.401630


  Species Si                  :

  List of atomic basis orbitals and eigenvalues:
    n    l      energy [Ha]    energy [eV]    outer radius [A]
    1    0       -65.775969     -1789.8552       0.789468
    2    0        -5.123557      -139.4191       2.815114
    3    0        -0.394463       -10.7339       5.315897
    2    1        -3.508175       -95.4623       3.259919
    3    1        -0.147003        -4.0002       5.447472

  Assembling full basis from fixed parts.
  | Species C :   atomic orbital   1 s accepted.
  | Species C :    hydro orbital   2 s accepted.
  | Species C :   atomic orbital   2 s accepted.
  | Species C :   atomic orbital   2 p accepted.
  | Species C :    hydro orbital   2 p accepted.
  | Species C :    hydro orbital   3 d accepted.
  | Species C :    hydro orbital   4 f accepted.
  | Species Si :   atomic orbital   1 s accepted.
  | Species Si :   atomic orbital   2 s accepted.
  | Species Si :    ionic orbital   3 s accepted.
  | Species Si :   atomic orbital   3 s accepted.
  | Species Si :   atomic orbital   2 p accepted.
  | Species Si :   atomic orbital   3 p accepted.
  | Species Si :    hydro orbital   2 p accepted.
  | Species Si :    hydro orbital   3 d accepted.
  | Species Si :    hydro orbital   4 f accepted.

  Basis size parameters after reduction:
  | Total number of radial functions:       16
  | Total number of basis functions :       46

  Assembling extended basis for auxiliary basis.
  | Species C :   atomic orbital   1 s accepted.
  | Species C :    hydro orbital   2 s accepted.
  | Species C :   atomic orbital   2 s accepted.
  | Species C :   atomic orbital   2 p accepted.
  | Species C :    hydro orbital   2 p accepted.
  | Species C :    hydro orbital   3 d accepted.
  | Species C :    hydro orbital   4 f accepted.
  | Species C :    hydro orbital   5 g accepted.
  | Species Si :   atomic orbital   1 s accepted.
  | Species Si :   atomic orbital   2 s accepted.
  | Species Si :    ionic orbital   3 s accepted.
  | Species Si :   atomic orbital   3 s accepted.
  | Species Si :   atomic orbital   2 p accepted.
  | Species Si :   atomic orbital   3 p accepted.
  | Species Si :    hydro orbital   2 p accepted.
  | Species Si :    hydro orbital   3 d accepted.
  | Species Si :    hydro orbital   4 f accepted.
  | Species Si :    hydro orbital   5 g accepted.
  Per-task memory consumption for arrays in subroutine allocate_ext:
  |           6.204952MB.

  Extended basis size parameters after reduction:
  | Total number of radial functions:       18
  | Total number of basis functions :       64

  Testing on-site integration grid accuracy.
  |  Species  Function  <phi|h_atom|phi> (log., in eV)  <phi|h_atom|phi> (rad., in eV)
           1        1               -273.4529725981               -273.4529710451
           1        2                -10.7721037329                -10.7721022102
           1        3                 17.6044132585                 17.6044162052
           1        4                 -5.2694407727                 -5.2694065285
           1        5                  8.0197685752                  8.0203902556
           1        6                 27.4550771356                 27.4550766984
           1        7                 59.3556032036                 59.3556031370
           2        8              -1789.8551969286              -1789.8551654044
           2        9               -139.4190834032               -139.4190829157
           2       10                -10.3851269365                -10.3851269662
           2       11                  5.2748560831                  5.2746879749
           2       12                -95.4622899789                -95.4622898460
           2       13                 -4.0035070090                 -4.0036255172
           2       14                  4.8352944695                  4.8334925957
           2       15                  6.2275610475                  6.2275566925
           2       16                 19.1745287805                 19.1745199964

  Preparing densities etc. for the partition functions (integrals / Hartree potential).

  Preparations completed.
  max(cpu_time)          :      0.177 s.
  Wall clock time (cpu1) :      0.559 s.
------------------------------------------------------------
  After prepare_scf [GB]:   1028.86

  Initializing index lists of integration centers etc. from given atomic structure:
  | Consuming          0 KiB for k_phase_exx.
  | Number of centers in hartree potential                       :         2
  | Number of centers in hartree multipole                       :         2
  | Number of centers in electron density summation              :         2
  | Number of centers in basis integrals                         :         2
  | Number of centers in integrals                               :         2
  | Number of centers in hamiltonian                             :         2
  | Number of centers in partition table from touching 0-cell    :         2
  | Number of centers in partition table total                   :         2
  After initialize_bc_dependent_lists [GB]:   1028.86

------------------------------------------------------------
          Begin self-consistency loop: Initialization.

          Date     :  20260724, Time     :  101711.732
------------------------------------------------------------
  Available memory per node after initialize_hartree_non_periodic_ewald [GB]:   1028.86
  Available memory per node after initialize_recip_hartree_potential [GB]:   1028.86
  * Using 64 tasks for Scalapack Eigenvalue solver.
  Detailed listing of tasks and assigned k-points:
  (for non-periodic systems, the "k-point" denotes an internal label only)
   Task     0 k-point     1 on worker6061
   Task     1 k-point     1 on worker6061
   Task     2 k-point     1 on worker6061
   Task     3 k-point     1 on worker6061
   Task     4 k-point     1 on worker6061
   Task     5 k-point     1 on worker6061
   Task     6 k-point     1 on worker6061
   Task     7 k-point     1 on worker6061
   Task     8 k-point     1 on worker6061
   Task     9 k-point     1 on worker6061
   Task    10 k-point     1 on worker6061
   Task    11 k-point     1 on worker6061
   Task    12 k-point     1 on worker6061
   Task    13 k-point     1 on worker6061
   Task    14 k-point     1 on worker6061
   Task    15 k-point     1 on worker6061
   Task    16 k-point     1 on worker6061
   Task    17 k-point     1 on worker6061
   Task    18 k-point     1 on worker6061
   Task    19 k-point     1 on worker6061
   Task    20 k-point     1 on worker6061
   Task    21 k-point     1 on worker6061
   Task    22 k-point     1 on worker6061
   Task    23 k-point     1 on worker6061
   Task    24 k-point     1 on worker6061
   Task    25 k-point     1 on worker6061
   Task    26 k-point     1 on worker6061
   Task    27 k-point     1 on worker6061
   Task    28 k-point     1 on worker6061
   Task    29 k-point     1 on worker6061
   Task    30 k-point     1 on worker6061
   Task    31 k-point     1 on worker6061
   Task    32 k-point     1 on worker6062
   Task    33 k-point     1 on worker6062
   Task    34 k-point     1 on worker6062
   Task    35 k-point     1 on worker6062
   Task    36 k-point     1 on worker6062
   Task    37 k-point     1 on worker6062
   Task    38 k-point     1 on worker6062
   Task    39 k-point     1 on worker6062
   Task    40 k-point     1 on worker6062
   Task    41 k-point     1 on worker6062
   Task    42 k-point     1 on worker6062
   Task    43 k-point     1 on worker6062
   Task    44 k-point     1 on worker6062
   Task    45 k-point     1 on worker6062
   Task    46 k-point     1 on worker6062
   Task    47 k-point     1 on worker6062
   Task    48 k-point     1 on worker6062
   Task    49 k-point     1 on worker6062
   Task    50 k-point     1 on worker6062
   Task    51 k-point     1 on worker6062
   Task    52 k-point     1 on worker6062
   Task    53 k-point     1 on worker6062
   Task    54 k-point     1 on worker6062
   Task    55 k-point     1 on worker6062
   Task    56 k-point     1 on worker6062
   Task    57 k-point     1 on worker6062
   Task    58 k-point     1 on worker6062
   Task    59 k-point     1 on worker6062
   Task    60 k-point     1 on worker6062
   Task    61 k-point     1 on worker6062
   Task    62 k-point     1 on worker6062
   Task    63 k-point     1 on worker6062
  Tasks:    64 split into      8 X      8 BLACS grid
  Calculating block size based on n_basis =           46  max_nprow =            8  max_npcol =            8
  ScaLAPACK block size set to:            4
  Allocating        0.000 MB for ovlp
  Allocating        0.000 MB for ham
  Allocating        0.000 MB for eigenvec
  Required Scalapack workspace - INTEGER:            1  REAL:             1
  Available memory per node after initialize_scalapack [GB]:   1028.86
  Available memory per node after aims_elsi_init_scf [GB]:   1028.86
  Available memory per node after initialize_fixed_grids [GB]:   1028.86
  Partitioning the integration grid into batches with parallel hashing+maxmin method.
  | Number of batches:      566
  | Maximal batch size:     153
  | Minimal batch size:       1
  | Average batch size:      63.597
  | Standard deviation of batch sizes:      18.649

  Integration load balanced across    64 MPI tasks.
  Work distribution over tasks is as follows:
  Task     0 has        635 integration points.
  Task     1 has        540 integration points.
  Task     2 has        529 integration points.
  Task     3 has        545 integration points.
  Task     4 has        543 integration points.
  Task     5 has        528 integration points.
  Task     6 has        558 integration points.
  Task     7 has        534 integration points.
  Task     8 has        542 integration points.
  Task     9 has        562 integration points.
  Task    10 has        530 integration points.
  Task    11 has        656 integration points.
  Task    12 has        576 integration points.
  Task    13 has        533 integration points.
  Task    14 has        530 integration points.
  Task    15 has        560 integration points.
  Task    16 has        534 integration points.
  Task    17 has        580 integration points.
  Task    18 has        553 integration points.
  Task    19 has        531 integration points.
  Task    20 has        569 integration points.
  Task    21 has        528 integration points.
  Task    22 has        566 integration points.
  Task    23 has        631 integration points.
  Task    24 has        566 integration points.
  Task    25 has        570 integration points.
  Task    26 has        539 integration points.
  Task    27 has        627 integration points.
  Task    28 has        566 integration points.
  Task    29 has        561 integration points.
  Task    30 has        539 integration points.
  Task    31 has        577 integration points.
  Task    32 has        554 integration points.
  Task    33 has        630 integration points.
  Task    34 has        539 integration points.
  Task    35 has        555 integration points.
  Task    36 has        569 integration points.
  Task    37 has        573 integration points.
  Task    38 has        576 integration points.
  Task    39 has        552 integration points.
  Task    40 has        541 integration points.
  Task    41 has        529 integration points.
  Task    42 has        568 integration points.
  Task    43 has        548 integration points.
  Task    44 has        578 integration points.
  Task    45 has        537 integration points.
  Task    46 has        564 integration points.
  Task    47 has        560 integration points.
  Task    48 has        532 integration points.
  Task    49 has        571 integration points.
  Task    50 has        562 integration points.
  Task    51 has        573 integration points.
  Task    52 has        654 integration points.
  Task    53 has        541 integration points.
  Task    54 has        536 integration points.
  Task    55 has        538 integration points.
  Task    56 has        529 integration points.
  Task    57 has        565 integration points.
  Task    58 has        536 integration points.
  Task    59 has        562 integration points.
  Task    60 has        626 integration points.
  Task    61 has        609 integration points.
  Task    62 has        574 integration points.
  Task    63 has        577 integration points.
  Available memory per node after partition_grid [GB]:   1028.52
  Initializing partition tables, free-atom densities, potentials, etc. across the integration grid (initialize_grid_storage).
  | initialize_grid_storage: Actual outermost partition radius vs. multipole_radius_free
  | (-- VB: in principle, multipole_radius_free should be larger, hence this output)
  | Species        1: Confinement radius =              6.000000000000000 AA, multipole_radius_free =              6.029870734432609 AA.
  | Species        1: outer_partition_radius set to              6.029870734432609 AA .
  | Species        2: Confinement radius =              6.000000000000000 AA, multipole_radius_free =              6.007157080273940 AA.
  | Species        2: outer_partition_radius set to              6.007157080273940 AA .
  | The sparse table of interatomic distances needs          0.04 kbyte instead of         0.03 kbyte of memory.
  | Using the partition_type stratmann_smoother will reduce your memory usage.
  | Net number of integration points:    35996
  | of which are non-zero points    :    34445
  Available memory per node after initialize_grid_storage_p1 [GB]:   1028.52
  Renormalizing the initial density to the exact electron count on the 3D integration grid.
  | Initial density: Formal number of electrons (from input files) :      20.0000000000
  | Integrated number of electrons on 3D grid     :      20.0000000315
  | Charge integration error                      :       0.0000000315
  | Normalization factor for density and gradient :       0.9999999984
  Renormalizing the free-atom superposition density to the exact electron count on the 3D integration grid.
  | Formal number of electrons (from input files) :      20.0000000000
  | Integrated number of electrons on 3D grid     :      20.0000000315
  | Charge integration error                      :       0.0000000315
  | Normalization factor for density and gradient :       0.9999999984
  Obtaining max. number of non-zero basis functions in each batch (get_n_compute_maxes).
  | Maximal number of non-zero basis functions:       46 in task     0
  | Maximal number of non-zero basis functions:       46 in task     1
  | Maximal number of non-zero basis functions:       46 in task     2
  | Maximal number of non-zero basis functions:       46 in task     3
  | Maximal number of non-zero basis functions:       46 in task     4
  | Maximal number of non-zero basis functions:       46 in task     5
  | Maximal number of non-zero basis functions:       46 in task     6
  | Maximal number of non-zero basis functions:       46 in task     7
  | Maximal number of non-zero basis functions:       46 in task     8
  | Maximal number of non-zero basis functions:       46 in task     9
  | Maximal number of non-zero basis functions:       45 in task    10
  | Maximal number of non-zero basis functions:       46 in task    11
  | Maximal number of non-zero basis functions:       46 in task    12
  | Maximal number of non-zero basis functions:       46 in task    13
  | Maximal number of non-zero basis functions:       46 in task    14
  | Maximal number of non-zero basis functions:       46 in task    15
  | Maximal number of non-zero basis functions:       46 in task    16
  | Maximal number of non-zero basis functions:       45 in task    17
  | Maximal number of non-zero basis functions:       45 in task    18
  | Maximal number of non-zero basis functions:       46 in task    19
  | Maximal number of non-zero basis functions:       45 in task    20
  | Maximal number of non-zero basis functions:       46 in task    21
  | Maximal number of non-zero basis functions:       46 in task    22
  | Maximal number of non-zero basis functions:       45 in task    23
  | Maximal number of non-zero basis functions:       46 in task    24
  | Maximal number of non-zero basis functions:       46 in task    25
  | Maximal number of non-zero basis functions:       46 in task    26
  | Maximal number of non-zero basis functions:       46 in task    27
  | Maximal number of non-zero basis functions:       46 in task    28
  | Maximal number of non-zero basis functions:       46 in task    29
  | Maximal number of non-zero basis functions:       46 in task    30
  | Maximal number of non-zero basis functions:       45 in task    31
  | Maximal number of non-zero basis functions:       45 in task    32
  | Maximal number of non-zero basis functions:       46 in task    33
  | Maximal number of non-zero basis functions:       45 in task    34
  | Maximal number of non-zero basis functions:       46 in task    35
  | Maximal number of non-zero basis functions:       46 in task    36
  | Maximal number of non-zero basis functions:       46 in task    37
  | Maximal number of non-zero basis functions:       46 in task    38
  | Maximal number of non-zero basis functions:       46 in task    39
  | Maximal number of non-zero basis functions:       46 in task    40
  | Maximal number of non-zero basis functions:       46 in task    41
  | Maximal number of non-zero basis functions:       46 in task    42
  | Maximal number of non-zero basis functions:       46 in task    43
  | Maximal number of non-zero basis functions:       46 in task    44
  | Maximal number of non-zero basis functions:       46 in task    45
  | Maximal number of non-zero basis functions:       45 in task    46
  | Maximal number of non-zero basis functions:       46 in task    47
  | Maximal number of non-zero basis functions:       46 in task    48
  | Maximal number of non-zero basis functions:       45 in task    49
  | Maximal number of non-zero basis functions:       46 in task    50
  | Maximal number of non-zero basis functions:       46 in task    51
  | Maximal number of non-zero basis functions:       45 in task    52
  | Maximal number of non-zero basis functions:       46 in task    53
  | Maximal number of non-zero basis functions:       45 in task    54
  | Maximal number of non-zero basis functions:       46 in task    55
  | Maximal number of non-zero basis functions:       46 in task    56
  | Maximal number of non-zero basis functions:       46 in task    57
  | Maximal number of non-zero basis functions:       46 in task    58
  | Maximal number of non-zero basis functions:       46 in task    59
  | Maximal number of non-zero basis functions:       46 in task    60
  | Maximal number of non-zero basis functions:       46 in task    61
  | Maximal number of non-zero basis functions:       46 in task    62
  | Maximal number of non-zero basis functions:       46 in task    63
  Selecting the method for density update.
  Loop over occupied states selected for charge density update.
  Available memory per node after get_n_compute_maxes_p1 [GB]:   1028.52
  Allocating        0.006 MB for KS_eigenvector
  Available memory per node after allocate_matrices [GB]:   1028.52
  Available memory per node after init_comm_sparse_local_matrix_scalapack [GB]:   1028.52
  Integrating Hamiltonian matrix: batch-based integration.
  Time summed over all CPUs for integration: real work        0.121 s, elapsed        0.364 s => Consider using load balancing!
  Available memory per node after integrate hamiltonian matrix [GB]:   1028.52
  Integrating overlap matrix.
  Time summed over all CPUs for integration: real work        0.033 s, elapsed        0.051 s
  Available memory per node after integrate ovlp matrix [GB]:   1028.52
  Deallocating overlap matrix.
  Available memory per node after save_overlap_scalapack [GB]:   1028.52

  Updating Kohn-Sham eigenvalues and eigenvectors using ELSI and the ELPA eigensolver.
  Overlap matrix is not singular
  | Lowest and highest eigenvalues :  0.2249E-01,  0.1978E+01
  Finished singularity check of overlap matrix
  | Time :     0.158 s
  Starting ELPA eigensolver
  Finished Cholesky decomposition
  | Time :     0.001 s
  Finished transformation to standard eigenproblem
  | Time :     0.001 s
  Finished solving standard eigenproblem
  | Time :     0.018 s
  Finished back-transformation of eigenvectors
  | Time :     0.000 s

  Obtaining occupation numbers and electronic chemical potential using ELSI.
  | Note that, for insulating systems, the printed 'chemical potential' value is not uniquely defined.
  | It can be anywhere in the energy gap, as long as it correctly separates occupied and unoccupied states.
  | In systems with a gap, the physically relevant chemical potential is the VBM or HOMO.

  | Chemical potential (Fermi level):    -1.76313652 eV
  Available memory per node after advance_KS_solution [GB]:   1028.52
  Writing Kohn-Sham eigenvalues.

  State    Occupation    Eigenvalue [Ha]    Eigenvalue [eV]
      1       2.00000         -65.531362        -1783.19910
      2       2.00000          -9.815767         -267.10062
      3       2.00000          -4.868263         -132.47217
      4       2.00000          -3.226564          -87.79928
      5       2.00000          -3.223624          -87.71928
      6       2.00000          -3.223624          -87.71928
      7       2.00000          -0.411428          -11.19552
      8       2.00000          -0.178037           -4.84464
      9       2.00000          -0.070752           -1.92525
     10       2.00000          -0.070752           -1.92525
     11       0.00000          -0.058837           -1.60103
     12       0.00000           0.060575            1.64834
     13       0.00000           0.060575            1.64834
     14       0.00000           0.142113            3.86709
     15       0.00000           0.292019            7.94625
     16       0.00000           0.292019            7.94625

  Highest occupied state (VBM) at     -1.92524731 eV
  | Occupation number:      2.00000000

  Lowest unoccupied state (CBM) at    -1.60102573 eV
  | Occupation number:      0.00000000

  Overall HOMO-LUMO gap:      0.32422158 eV.
  Calculating total energy contributions from superposition of free atom densities.

  Total energy components:
  | Sum of eigenvalues            :        -181.24034595 Ha       -4931.80074066 eV
  | XC energy correction          :         -19.67995930 Ha        -535.51893953 eV
  | XC potential correction       :          28.40608164 Ha         772.96880959 eV
  | Free-atom electrostatic energy:        -149.49732459 Ha       -4068.02918108 eV
  | Hartree energy correction     :          -0.00000000 Ha          -0.00000000 eV
  | Entropy correction            :          -0.00000000 Ha          -0.00000000 eV
  | ---------------------------
  | Total energy                  :        -322.01154821 Ha       -8762.38005168 eV
  | Total energy, T -> 0          :        -322.01154821 Ha       -8762.38005168 eV  <-- do not rely on this value for anything but (periodic) metals
  | Electronic free energy        :        -322.01154821 Ha       -8762.38005168 eV

  Derived energy quantities:
  | Kinetic energy                :         328.59391935 Ha        8941.49548386 eV
  | Electrostatic energy          :        -630.92550826 Ha      -17168.35659601 eV
  | Energy correction for multipole
  | error in Hartree potential    :           0.00000000 Ha           0.00000000 eV
  | Sum of eigenvalues per atom                           :       -2465.90037033 eV
  | Total energy (T->0) per atom                          :       -4381.19002584 eV  <-- do not rely on this value for anything but (periodic) metals
  | Electronic free energy per atom                       :       -4381.19002584 eV
  
  --------------------------------------------
  Constructing auxiliary basis (full product) ...
  
  Product basis:
  | charge radius: extent of product basis function
  | field radius: extent of its Coulomb potential
  | Species   l  charge radius    field radius  multipol momen
  |    C      0     2.594002 A      2.594002 A        3.412314E-17 a.u.
  |    C      0     3.272245 A      3.272245 A        3.656483E-17 a.u.
  |    C      0     3.232486 A      3.232486 A       -9.412152E-17 a.u.
  |    C      0     3.697756 A      3.697756 A       -3.630334E-17 a.u.
  |    C      0     5.271162 A      5.271162 A       -1.641192E-16 a.u.
  |    C      0     5.401630 A      5.468070 A        2.497931E-16 a.u.
  |    C      0     5.468070 A      5.468070 A        2.994659E-16 a.u.
  |    C      0     5.401630 A  4.386038E+12 A            0.659571 a.u.
  |    C      1     3.652826 A      3.652826 A        1.158471E-16 a.u.
  |    C      1     5.271162 A      5.271162 A        2.799098E-16 a.u.
  |    C      1     5.401630 A      5.401630 A       -4.414195E-16 a.u.
  |    C      1     5.401630 A      5.401630 A       -1.821201E-16 a.u.
  |    C      1     5.401630 A      5.468070 A       -6.786650E-16 a.u.
  |    C      1     5.401630 A      5.401630 A        4.138809E-16 a.u.
  |    C      1     5.401630 A  2.650811E+06 A            1.996850 a.u.
  |    C      2     5.335997 A      5.335997 A        3.060558E-16 a.u.
  |    C      2     5.401630 A      5.401630 A        2.702453E-16 a.u.
  |    C      2     5.401630 A      5.401630 A       -3.922212E-15 a.u.
  |    C      2     5.401630 A      5.401630 A        3.256679E-15 a.u.
  |    C      2     5.401630 A      5.468070 A        7.055632E-16 a.u.
  |    C      2     5.468070 A      5.468070 A        2.230341E-16 a.u.
  |    C      2     5.468070 A  2.784885E+04 A           11.598673 a.u.
  |    C      3     4.496620 A      4.496620 A       -6.472128E-17 a.u.
  |    C      3     4.496620 A      4.496620 A        3.147521E-15 a.u.
  |    C      3     4.496620 A      4.496620 A        9.637292E-16 a.u.
  |    C      3     4.551928 A      4.551928 A       -6.829637E-15 a.u.
  |    C      3     4.607917 A      4.607917 A       -4.675024E-15 a.u.
  |    C      3     4.607917 A  2.242308E+03 A           25.654702 a.u.
  |    C      4     4.334694 A      4.334694 A       -1.141904E-15 a.u.
  |    C      4     4.334694 A      4.334694 A        3.351220E-17 a.u.
  |    C      4     4.388011 A      4.388011 A        1.003468E-15 a.u.
  |    C      4     4.388011 A      4.388011 A        1.265022E-14 a.u.
  |    C      4     4.388011 A      4.388011 A       -3.631475E-15 a.u.
  |    C      4     4.441983 A  5.286742E+02 A           79.199941 a.u.
  |    C      5     4.127827 A      4.127827 A       -5.858022E-15 a.u.
  |    C      5     4.229996 A      4.229996 A        7.788076E-16 a.u.
  |    C      5     4.334694 A      4.334694 A        3.150259E-14 a.u.
  |    C      5     4.282025 A      4.282025 A        8.457301E-14 a.u.
  |    C      5     4.334694 A  1.982530E+02 A          220.040026 a.u.
  |    C      6     4.028125 A      4.028125 A       -1.178748E-15 a.u.
  |    C      6     3.979181 A  6.484837E+01 A           33.027497 a.u.
  |    C      7     3.979181 A      3.979181 A       -3.462470E-15 a.u.
  |    C      7     3.979181 A  4.100379E+01 A          103.412487 a.u.
  |    C      8     3.883070 A  2.842669E+01 A          296.426571 a.u.
  |    Si     0     1.125389 A      1.125389 A        1.759179E-16 a.u.
  |    Si     0     2.584230 A      2.584230 A       -3.362872E-17 a.u.
  |    Si     0     3.821440 A      3.821440 A        1.114867E-16 a.u.
  |    Si     0     4.479682 A      4.479682 A       -2.664363E-16 a.u.
  |    Si     0     4.647024 A      4.647024 A        3.027210E-16 a.u.
  |    Si     0     4.820617 A      4.879910 A        3.441593E-17 a.u.
  |    Si     0     5.447472 A      5.447472 A        2.221180E-16 a.u.
  |    Si     0     5.381283 A      5.447472 A       -9.315172E-17 a.u.
  |    Si     0     5.447472 A      5.514476 A        1.566351E-16 a.u.
  |    Si     0     5.447472 A  4.707680E+12 A            0.707939 a.u.
  |    Si     1     2.680766 A      2.680766 A        3.260485E-17 a.u.
  |    Si     1     4.062311 A      4.062311 A        4.786272E-17 a.u.
  |    Si     1     4.820617 A      4.820617 A        9.116311E-17 a.u.
  |    Si     1     4.762044 A      4.762044 A       -6.477650E-17 a.u.
  |    Si     1     4.879910 A      4.879910 A        1.116642E-16 a.u.
  |    Si     1     5.381283 A      5.447472 A        1.293739E-17 a.u.
  |    Si     1     5.447472 A      5.447472 A        2.037878E-16 a.u.
  |    Si     1     5.447472 A      5.514476 A        1.499696E-15 a.u.
  |    Si     1     5.447472 A      5.514476 A        7.948435E-16 a.u.
  |    Si     1     5.514476 A  3.146784E+06 A            2.813984 a.u.
  |    Si     2     4.590560 A      4.590560 A       -2.513561E-17 a.u.
  |    Si     2     5.315897 A      5.315897 A        3.789972E-17 a.u.
  |    Si     2     5.381283 A      5.381283 A        2.568772E-15 a.u.
  |    Si     2     5.447472 A      5.447472 A       -1.793517E-15 a.u.
  |    Si     2     5.447472 A      5.447472 A        5.658888E-16 a.u.
  |    Si     2     5.447472 A      5.447472 A       -5.027443E-15 a.u.
  |    Si     2     5.514476 A      5.514476 A        1.695251E-15 a.u.
  |    Si     2     5.447472 A      5.447472 A       -1.884969E-16 a.u.
  |    Si     2     5.514476 A  3.048749E+04 A           15.217796 a.u.
  |    Si     3     5.251306 A      5.251306 A        5.949149E-16 a.u.
  |    Si     3     5.381283 A      5.381283 A       -5.966365E-15 a.u.
  |    Si     3     5.381283 A      5.381283 A       -1.282148E-14 a.u.
  |    Si     3     5.381283 A      5.381283 A        7.508179E-16 a.u.
  |    Si     3     5.381283 A      5.381283 A       -4.248993E-15 a.u.
  |    Si     3     5.447472 A      5.447472 A       -8.951286E-15 a.u.
  |    Si     3     5.447472 A  2.681857E+03 A           52.496233 a.u.
  |    Si     4     5.251306 A      5.251306 A       -7.403598E-16 a.u.
  |    Si     4     5.381283 A      5.381283 A       -3.401184E-15 a.u.
  |    Si     4     5.381283 A      5.381283 A       -1.837985E-14 a.u.
  |    Si     4     5.381283 A      5.381283 A       -3.333218E-14 a.u.
  |    Si     4     5.315897 A      5.315897 A        3.046784E-15 a.u.
  |    Si     4     5.381283 A      5.381283 A       -2.630370E-15 a.u.
  |    Si     4     5.514476 A      5.514476 A        7.869608E-14 a.u.
  |    Si     4     5.514476 A  7.505439E+02 A          456.735713 a.u.
  |    Si     5     5.315897 A      5.315897 A       -5.773408E-14 a.u.
  |    Si     5     5.315897 A      5.315897 A        2.201827E-15 a.u.
  |    Si     5     5.381283 A      5.381283 A        1.817785E-13 a.u.
  |    Si     5     5.447472 A      5.447472 A        9.927899E-14 a.u.
  |    Si     5     5.447472 A  2.658472E+02 A         1279.309857 a.u.
  |    Si     6     5.381283 A      5.381283 A       -2.676930E-13 a.u.
  |    Si     6     5.381283 A      5.381283 A       -6.770407E-13 a.u.
  |    Si     6     5.447472 A  1.278676E+02 A         3827.412966 a.u.
  |    Si     7     5.315897 A      5.315897 A       -2.646624E-13 a.u.
  |    Si     7     5.381283 A  7.140093E+01 A         8742.027902 a.u.
  |    Si     8     5.251306 A  4.248055E+01 A        11017.704323 a.u.

  | Shrink_full_auxil_basis : there are       99  radial auxiliary wave functions
                            accepted and     104 rejected.
  | Shrink_full_auxil_basis : there are totally                 635 partial auxiliary wave functions.
  prodbas_tasks_distribution_pbc not up to date - distributing tasks.

  | Maximal number of product basis functions per thread :    18    18

  | Number of local auxiliary basis funcs on node     0 :     18
  | Number of local auxiliary basis funcs on node     1 :     18
  | Number of local auxiliary basis funcs on node     2 :     18
  | Number of local auxiliary basis funcs on node     3 :     18
  | Number of local auxiliary basis funcs on node     4 :     18
  | Number of local auxiliary basis funcs on node     5 :     18
  | Number of local auxiliary basis funcs on node     6 :     14
  | Number of local auxiliary basis funcs on node     7 :      9
  | Number of local auxiliary basis funcs on node     8 :      9
  | Number of local auxiliary basis funcs on node     9 :      9
  | Number of local auxiliary basis funcs on node    10 :      9
  | Number of local auxiliary basis funcs on node    11 :      9
  | Number of local auxiliary basis funcs on node    12 :      9
  | Number of local auxiliary basis funcs on node    13 :      9
  | Number of local auxiliary basis funcs on node    14 :      9
  | Number of local auxiliary basis funcs on node    15 :      9
  | Number of local auxiliary basis funcs on node    16 :      9
  | Number of local auxiliary basis funcs on node    17 :      9
  | Number of local auxiliary basis funcs on node    18 :      9
  | Number of local auxiliary basis funcs on node    19 :      9
  | Number of local auxiliary basis funcs on node    20 :      9
  | Number of local auxiliary basis funcs on node    21 :      9
  | Number of local auxiliary basis funcs on node    22 :      9
  | Number of local auxiliary basis funcs on node    23 :      9
  | Number of local auxiliary basis funcs on node    24 :      9
  | Number of local auxiliary basis funcs on node    25 :      9
  | Number of local auxiliary basis funcs on node    26 :      9
  | Number of local auxiliary basis funcs on node    27 :      9
  | Number of local auxiliary basis funcs on node    28 :      9
  | Number of local auxiliary basis funcs on node    29 :      9
  | Number of local auxiliary basis funcs on node    30 :      9
  | Number of local auxiliary basis funcs on node    31 :      9
  | Number of local auxiliary basis funcs on node    32 :      9
  | Number of local auxiliary basis funcs on node    33 :      9
  | Number of local auxiliary basis funcs on node    34 :      9
  | Number of local auxiliary basis funcs on node    35 :      9
  | Number of local auxiliary basis funcs on node    36 :      9
  | Number of local auxiliary basis funcs on node    37 :      9
  | Number of local auxiliary basis funcs on node    38 :      9
  | Number of local auxiliary basis funcs on node    39 :      9
  | Number of local auxiliary basis funcs on node    40 :      9
  | Number of local auxiliary basis funcs on node    41 :      9
  | Number of local auxiliary basis funcs on node    42 :      9
  | Number of local auxiliary basis funcs on node    43 :      9
  | Number of local auxiliary basis funcs on node    44 :      9
  | Number of local auxiliary basis funcs on node    45 :      9
  | Number of local auxiliary basis funcs on node    46 :      9
  | Number of local auxiliary basis funcs on node    47 :      9
  | Number of local auxiliary basis funcs on node    48 :      9
  | Number of local auxiliary basis funcs on node    49 :      9
  | Number of local auxiliary basis funcs on node    50 :      9
  | Number of local auxiliary basis funcs on node    51 :      9
  | Number of local auxiliary basis funcs on node    52 :      9
  | Number of local auxiliary basis funcs on node    53 :      9
  | Number of local auxiliary basis funcs on node    54 :      9
  | Number of local auxiliary basis funcs on node    55 :      9
  | Number of local auxiliary basis funcs on node    56 :      9
  | Number of local auxiliary basis funcs on node    57 :      9
  | Number of local auxiliary basis funcs on node    58 :      9
  | Number of local auxiliary basis funcs on node    59 :      9
  | Number of local auxiliary basis funcs on node    60 :      9
  | Number of local auxiliary basis funcs on node    61 :      9
  | Number of local auxiliary basis funcs on node    62 :      9
  | Number of local auxiliary basis funcs on node    63 :      9
  Parallel distribution of product basis not up to date - distributing tasks.

  | Maximal number of product basis functions per thread :    18    18

  | Minimal total memory requirement for three-center overlap :       0.020 Gbs
  | Number of local auxiliary basis functions on task:      0    18
  | Number of local auxiliary basis functions on task:      1    18
  | Number of local auxiliary basis functions on task:      2    18
  | Number of local auxiliary basis functions on task:      3    18
  | Number of local auxiliary basis functions on task:      4    18
  | Number of local auxiliary basis functions on task:      5    18
  | Number of local auxiliary basis functions on task:      6    14
  | Number of local auxiliary basis functions on task:      7     9
  | Number of local auxiliary basis functions on task:      8     9
  | Number of local auxiliary basis functions on task:      9     9
  | Number of local auxiliary basis functions on task:     10     9
  | Number of local auxiliary basis functions on task:     11     9
  | Number of local auxiliary basis functions on task:     12     9
  | Number of local auxiliary basis functions on task:     13     9
  | Number of local auxiliary basis functions on task:     14     9
  | Number of local auxiliary basis functions on task:     15     9
  | Number of local auxiliary basis functions on task:     16     9
  | Number of local auxiliary basis functions on task:     17     9
  | Number of local auxiliary basis functions on task:     18     9
  | Number of local auxiliary basis functions on task:     19     9
  | Number of local auxiliary basis functions on task:     20     9
  | Number of local auxiliary basis functions on task:     21     9
  | Number of local auxiliary basis functions on task:     22     9
  | Number of local auxiliary basis functions on task:     23     9
  | Number of local auxiliary basis functions on task:     24     9
  | Number of local auxiliary basis functions on task:     25     9
  | Number of local auxiliary basis functions on task:     26     9
  | Number of local auxiliary basis functions on task:     27     9
  | Number of local auxiliary basis functions on task:     28     9
  | Number of local auxiliary basis functions on task:     29     9
  | Number of local auxiliary basis functions on task:     30     9
  | Number of local auxiliary basis functions on task:     31     9
  | Number of local auxiliary basis functions on task:     32     9
  | Number of local auxiliary basis functions on task:     33     9
  | Number of local auxiliary basis functions on task:     34     9
  | Number of local auxiliary basis functions on task:     35     9
  | Number of local auxiliary basis functions on task:     36     9
  | Number of local auxiliary basis functions on task:     37     9
  | Number of local auxiliary basis functions on task:     38     9
  | Number of local auxiliary basis functions on task:     39     9
  | Number of local auxiliary basis functions on task:     40     9
  | Number of local auxiliary basis functions on task:     41     9
  | Number of local auxiliary basis functions on task:     42     9
  | Number of local auxiliary basis functions on task:     43     9
  | Number of local auxiliary basis functions on task:     44     9
  | Number of local auxiliary basis functions on task:     45     9
  | Number of local auxiliary basis functions on task:     46     9
  | Number of local auxiliary basis functions on task:     47     9
  | Number of local auxiliary basis functions on task:     48     9
  | Number of local auxiliary basis functions on task:     49     9
  | Number of local auxiliary basis functions on task:     50     9
  | Number of local auxiliary basis functions on task:     51     9
  | Number of local auxiliary basis functions on task:     52     9
  | Number of local auxiliary basis functions on task:     53     9
  | Number of local auxiliary basis functions on task:     54     9
  | Number of local auxiliary basis functions on task:     55     9
  | Number of local auxiliary basis functions on task:     56     9
  | Number of local auxiliary basis functions on task:     57     9
  | Number of local auxiliary basis functions on task:     58     9
  | Number of local auxiliary basis functions on task:     59     9
  | Number of local auxiliary basis functions on task:     60     9
  | Number of local auxiliary basis functions on task:     61     9
  | Number of local auxiliary basis functions on task:     62     9
  | Number of local auxiliary basis functions on task:     63     9
  | 2D aux task distribution:      8 X      8
  | 2D block size (nb_aux_2d):     64
  Minimal free memory per node on init_fm entry [GB]:   1028.28
  -----------------------------------------
  --- Initializing Fock matrix calculations
  -----------------------------------------
  screening_threshold (crit_val) =  0.000000100000
  coul_mat_threshold =  0.000000000100
  No atoms are split internally
  Number of super-cells in X Y Z:       0       0       0
  Number of atoms pairs total:            4
  Atom pair distribution:
  Cell:        0       0       0 atom pairs:        4
  sparsity of pfbvk:   1.00000000
  Number of atoms pairs in BvK cells:            4
  Max. memory consumption per node for Pulay mixing [GB]:      0.00
  Minimal total memory per node [GB]:   1056.49
  Minimal free memory per node [GB]:   1028.27
  --- Initializing LVL triples, type COULOMB
  | Storage requirements for basis-basbas products (processor-local):
  |   Species C: n_prodsfn:   532; storage:       16.62 MiB.
  |   Species Si: n_prodsfn:   816; storage:       25.50 MiB.

  --- Initializing Coulomb matrix calculations, type COULOMB
  Preparing TB like auxiliary 2-center Coulomb matrix
  SBT integration errors (all should be 'small'):
  large logFT aliasing -> increase N/lnrange
  large SBT aliasing -> decrease lnk0 & increase lnk0+lnrange
  large SBT ringing -> decrease lnr0 & increase lnr0+lnrange
  |            El't  L: logFT-al.   small-k   large-k   small-r   large-r
  | Need to store 12478 splines of   167 points taking      16480 KiB.
  | Spline reduction from  4096 to   167 points by (cutting and)     1 x coarsening gives error:  0.00E+00
  Finished with initialize_tb_auxmat/lvl_triples, time:        0.160
  --- Calculating Coulomb matrices
  Upper limit for memory consumption per node [GB] for Coulomb matrices if no compression occurs:       0.056
  Upper limit for temporary arrays in Coulomb matrix initalization [GB]:      9.60
  Allocating        0.919 MB for aux_mat
  Min./max. time for Coulomb matrix computation [s]:      0.00      0.00
  Max. memory consumption per node for global Coulomb matrix [GB]:      0.00
  Time to calculate Coulomb Matrices   :        0.005
  After init_coulomb_tuned [GB]:   1027.63
  Atomic logSBT for LVL-triples                :  max(cpu_time)    wall_clock(cpu1)
  | Multiplication with kernel                  :        0.000 s           0.000 s
  | Main matrix multiplication                  :        0.000 s           0.000 s
  | Analytic angular integration                :        0.000 s           0.000 s
  | Kernel construction                         :        0.000 s           0.000 s
  | Overall 2-center overlap time               :        0.000 s           0.000 s
  | LVL initialization                          :        0.061 s           0.061 s
  | Whole LVL-triples                           :        0.061 s           0.061 s

  --- Initializing LVL triples, type COULOMB
  | Storage requirements for basis-basbas products (processor-local):
  |   Species C: n_prodsfn:   532; storage:       16.62 MiB.
  |   Species Si: n_prodsfn:   816; storage:       25.50 MiB.

  Atomic logSBT for 2-center Coulomb matrix    :  max(cpu_time)    wall_clock(cpu1)
  | TB initialization                           :        0.098 s           0.098 s
  | TB usage                                    :        0.003 s           0.004 s

  --- Initializing Coulomb matrix calculations, type COULOMB
  Preparing TB like auxiliary 2-center Coulomb matrix
  SBT integration errors (all should be 'small'):
  large logFT aliasing -> increase N/lnrange
  large SBT aliasing -> decrease lnk0 & increase lnk0+lnrange
  large SBT ringing -> decrease lnr0 & increase lnr0+lnrange
  |            El't  L: logFT-al.   small-k   large-k   small-r   large-r
  | Need to store 12478 splines of   167 points taking      16480 KiB.
  | Spline reduction from  4096 to   167 points by (cutting and)     1 x coarsening gives error:  0.00E+00
  Finished with initialize_tb_auxmat/lvl_triples, time:        0.123
  Max. memory consumption per node for uncompressed ovlp3fn matrix [GB]:       0.003
  --- Calculating OVLP3FN
  --- Done calculating OVLP3FN, time:        0.492
  After init_ovlp3fn_tuned2 [GB]:   1027.46
  Max. memory consumption per node for compressed global ovlp3fn matrix [GB]:      -0.025
  Atomic logSBT for 2-center Coulomb matrix    :  max(cpu_time)    wall_clock(cpu1)
  | TB initialization                           :        0.089 s           0.089 s
  | TB usage                                    :        0.002 s           0.002 s

  Atomic logSBT for LVL-triples                :  max(cpu_time)    wall_clock(cpu1)
  | Multiplication with kernel                  :        0.001 s           0.001 s
  | Main matrix multiplication                  :        0.086 s           0.085 s
  | Analytic angular integration                :        0.001 s           0.001 s
  | Kernel construction                         :        0.001 s           0.002 s
  | Overall 2-center overlap time               :        0.094 s           0.093 s
  | 3-center preparation multiplications        :        0.008 s           0.008 s
  | 3-center preparation SBTs                   :        0.233 s           0.183 s
  | 3-center combinations                       :        0.100 s           0.098 s
  | Overal 3-center time                        :        0.295 s           0.289 s
  | LVL initialization                          :        0.028 s           0.028 s
  | Whole LVL-triples                           :        0.028 s           0.028 s

  Assumed free memory per node for Fock matrix prefactors [GB]    922.63
  Memory per instance for Coulomb / ovlp matrix [GB]      0.00     -0.05
  Number of nodes, tasks per node     2    32
  Number of instances:   16
  -----------------------------------------------------
  Dividing atoms among tasks for exact exchange energy:
  Atom:     1 Weight:  0.39905E+06
  Atom:     2 Weight:  0.27821E+06

  Average weight per task:  0.16931E+06

  Number of "big" (above average) atoms  :     2
  Number of "small" (below average) atoms:     0
  All atoms have above average work per task
  Atoms will be divided among tasks to get best load distribution

  Atom division among tasks:
  Atom     1: (initial) task:     0, # of tasks:     2
  Atom     2: (initial) task:     2, # of tasks:     2

  -----------------------------------------------------
  Task      0: my_n_atoms2:      1 my_atom_list:      1
  Task      1: my_n_atoms2:      1 my_atom_list:      1
  Task      2: my_n_atoms2:      1 my_atom_list:      2
  Task      3: my_n_atoms2:      1 my_atom_list:      2
  Task      0: my_n_atoms2:      1 my_atom_list:      1
  Task      1: my_n_atoms2:      1 my_atom_list:      1
  Task      2: my_n_atoms2:      1 my_atom_list:      2
  Task      3: my_n_atoms2:      1 my_atom_list:      2
  Task      0: my_n_atoms2:      1 my_atom_list:      1
  Task      1: my_n_atoms2:      1 my_atom_list:      1
  Task      2: my_n_atoms2:      1 my_atom_list:      2
  Task      3: my_n_atoms2:      1 my_atom_list:      2
  Task      0: my_n_atoms2:      1 my_atom_list:      1
  Task      1: my_n_atoms2:      1 my_atom_list:      1
  Task      2: my_n_atoms2:      1 my_atom_list:      2
  Task      3: my_n_atoms2:      1 my_atom_list:      2
  Task      0: my_n_atoms2:      1 my_atom_list:      1
  Task      1: my_n_atoms2:      1 my_atom_list:      1
  Task      2: my_n_atoms2:      1 my_atom_list:      2
  Task      3: my_n_atoms2:      1 my_atom_list:      2
  Task      0: my_n_atoms2:      1 my_atom_list:      1
  Task      1: my_n_atoms2:      1 my_atom_list:      1
  Task      2: my_n_atoms2:      1 my_atom_list:      2
  Task      3: my_n_atoms2:      1 my_atom_list:      2
  Task      0: my_n_atoms2:      1 my_atom_list:      1
  Task      1: my_n_atoms2:      1 my_atom_list:      1
  Task      2: my_n_atoms2:      1 my_atom_list:      2
  Task      3: my_n_atoms2:      1 my_atom_list:      2
  Task      0: my_n_atoms2:      1 my_atom_list:      1
  Task      1: my_n_atoms2:      1 my_atom_list:      1
  Task      2: my_n_atoms2:      1 my_atom_list:      2
  Task      3: my_n_atoms2:      1 my_atom_list:      2
  Task      0: my_n_atoms2:      1 my_atom_list:      1
  Task      1: my_n_atoms2:      1 my_atom_list:      1
  Task      2: my_n_atoms2:      1 my_atom_list:      2
  Task      3: my_n_atoms2:      1 my_atom_list:      2
  Task      0: my_n_atoms2:      1 my_atom_list:      1
  Task      1: my_n_atoms2:      1 my_atom_list:      1
  Task      2: my_n_atoms2:      1 my_atom_list:      2
  Task      3: my_n_atoms2:      1 my_atom_list:      2
  Task      0: my_n_atoms2:      1 my_atom_list:      1
  Task      1: my_n_atoms2:      1 my_atom_list:      1
  Task      2: my_n_atoms2:      1 my_atom_list:      2
  Task      3: my_n_atoms2:      1 my_atom_list:      2
  Task      0: my_n_atoms2:      1 my_atom_list:      1
  Task      1: my_n_atoms2:      1 my_atom_list:      1
  Task      2: my_n_atoms2:      1 my_atom_list:      2
  Task      3: my_n_atoms2:      1 my_atom_list:      2
  Task      0: my_n_atoms2:      1 my_atom_list:      1
  Task      1: my_n_atoms2:      1 my_atom_list:      1
  Task      2: my_n_atoms2:      1 my_atom_list:      2
  Task      3: my_n_atoms2:      1 my_atom_list:      2
  Task      0: my_n_atoms2:      1 my_atom_list:      1
  Task      1: my_n_atoms2:      1 my_atom_list:      1
  Task      2: my_n_atoms2:      1 my_atom_list:      2
  Task      3: my_n_atoms2:      1 my_atom_list:      2
  Task      0: my_n_atoms2:      1 my_atom_list:      1
  Task      1: my_n_atoms2:      1 my_atom_list:      1
  Task      2: my_n_atoms2:      1 my_atom_list:      2
  Task      3: my_n_atoms2:      1 my_atom_list:      2
  Task      0: my_n_atoms2:      1 my_atom_list:      1
  Task      1: my_n_atoms2:      1 my_atom_list:      1
  Task      2: my_n_atoms2:      1 my_atom_list:      2
  Task      3: my_n_atoms2:      1 my_atom_list:      2
  Task      0: my_n_atom_pairs:      1
  Task      1: my_n_atom_pairs:      1
  Task      2: my_n_atom_pairs:      1
  Task      3: my_n_atom_pairs:      1
  Task      0: my_n_atom_pairs:      1
  Task      1: my_n_atom_pairs:      1
  Task      2: my_n_atom_pairs:      1
  Task      3: my_n_atom_pairs:      1
  Task      0: my_n_atom_pairs:      1
  Task      1: my_n_atom_pairs:      1
  Task      2: my_n_atom_pairs:      1
  Task      3: my_n_atom_pairs:      1
  Task      0: my_n_atom_pairs:      1
  Task      1: my_n_atom_pairs:      1
  Task      2: my_n_atom_pairs:      1
  Task      3: my_n_atom_pairs:      1
  Task      0: my_n_atom_pairs:      1
  Task      1: my_n_atom_pairs:      1
  Task      2: my_n_atom_pairs:      1
  Task      3: my_n_atom_pairs:      1
  Task      0: my_n_atom_pairs:      1
  Task      1: my_n_atom_pairs:      1
  Task      2: my_n_atom_pairs:      1
  Task      3: my_n_atom_pairs:      1
  Task      0: my_n_atom_pairs:      1
  Task      1: my_n_atom_pairs:      1
  Task      2: my_n_atom_pairs:      1
  Task      3: my_n_atom_pairs:      1
  Task      0: my_n_atom_pairs:      1
  Task      1: my_n_atom_pairs:      1
  Task      2: my_n_atom_pairs:      1
  Task      3: my_n_atom_pairs:      1
  Task      0: my_n_atom_pairs:      1
  Task      1: my_n_atom_pairs:      1
  Task      2: my_n_atom_pairs:      1
  Task      3: my_n_atom_pairs:      1
  Task      0: my_n_atom_pairs:      1
  Task      1: my_n_atom_pairs:      1
  Task      2: my_n_atom_pairs:      1
  Task      3: my_n_atom_pairs:      1
  Task      0: my_n_atom_pairs:      1
  Task      1: my_n_atom_pairs:      1
  Task      2: my_n_atom_pairs:      1
  Task      3: my_n_atom_pairs:      1
  Task      0: my_n_atom_pairs:      1
  Task      1: my_n_atom_pairs:      1
  Task      2: my_n_atom_pairs:      1
  Task      3: my_n_atom_pairs:      1
  Task      0: my_n_atom_pairs:      1
  Task      1: my_n_atom_pairs:      1
  Task      2: my_n_atom_pairs:      1
  Task      3: my_n_atom_pairs:      1
  Task      0: my_n_atom_pairs:      1
  Task      1: my_n_atom_pairs:      1
  Task      2: my_n_atom_pairs:      1
  Task      3: my_n_atom_pairs:      1
  Task      0: my_n_atom_pairs:      1
  Task      1: my_n_atom_pairs:      1
  Task      2: my_n_atom_pairs:      1
  Task      3: my_n_atom_pairs:      1
  Task      0: my_n_atom_pairs:      1
  Task      1: my_n_atom_pairs:      1
  Task      2: my_n_atom_pairs:      1
  Task      3: my_n_atom_pairs:      1
  Transferring Coulomb matrix to final data layout
  Coulomb matrix communicaton time [s]    0.84
  Max. memory per node for ovlp3fn matrices:        0.040 GB
  Total memory for ovlp3fn matrices:        0.005 GB
  --- Done getting norm of OVLP3FN, time:        0.000
  Total memory for ovlp3fn matrices:        0.005 GB
  --- time for get_ovlp3fn:        0.016
  Max. memory consumption per node for Hartree Fock matrix [GB]      0.00
  Blocksize for Fock matrix computation:     1
  Minimal free memory per node after Fock matrix initialization [GB]:   1025.67
  Initialize hartree_potential_storage
  Max. number of atoms included in rho_multipole:            2

  End scf initialization - timings             :  max(cpu_time)    wall_clock(cpu1)
  | Time for scf. initialization                :        1.165 s           1.918 s
  | Boundary condition initialization           :        0.002 s           0.002 s
  | Integration                                 :        0.010 s           0.010 s
  | Solution of K.-S. eqns.                     :        0.160 s           0.183 s
  | Grid partitioning                           :        0.014 s           0.014 s
  | Preloading free-atom quantities on grid     :        0.004 s           0.004 s
  | Free-atom superposition energy              :        0.001 s           0.001 s
  | Total energy evaluation                     :        0.000 s           0.000 s
  | Product basis setup: Total time             :        0.992 s           1.705 s

  Partial memory accounting:
  | Current value for overall tracked memory usage:
  |   Minimum:        0.830 MB (on task 38)
  |   Maximum:        1.452 MB (on task  0)
  |   Average:        1.201 MB
  | Peak value for overall tracked memory usage:
  |   Minimum:        1.579 MB (on task 37 after allocating d_aux_mat)
  |   Maximum:        3.972 MB (on task  1 after allocating ovlp3fn_nosplit%tmploc)
  |   Average:        1.683 MB
  | Largest tracked array allocation so far:
  |   Minimum:        0.919 MB (aux_mat on task  2)
  |   Maximum:        1.655 MB (ovlp3fn_nosplit%dat on task  1)
  |   Average:        1.212 MB
  Note:  These values currently only include a subset of arrays which are explicitly tracked.
  The "true" memory usage will be greater.
------------------------------------------------------------
  Available memory after initialize_scf [GB]:   1025.67
  Available memory after allocating mixing [GB]:   1025.67
  Evaluating new KS density.
  Integration grid: deviation in total charge (<rho> - N_e) =   7.105427E-15

  Time for density update prior                :  max(cpu_time)    wall_clock(cpu1)
  | self-consistency iterative process          :        0.001 s           0.002 s
  Available memory before start of SCF loop [GB]:   1025.66

------------------------------------------------------------
          Begin self-consistency iteration #    1

  Date     :  20260724, Time     :  101713.652
------------------------------------------------------------
  Pulay mixing of updated and previous charge densities.
  Available memory per node after mixing [GB]:   1025.66
  Renormalizing the density to the exact electron count on the 3D integration grid.
  | Formal number of electrons (from input files) :      20.0000000000
  | Integrated number of electrons on 3D grid     :      20.0000000000
  | Charge integration error                      :       0.0000000000
  | Normalization factor for density and gradient :       1.0000000000

  Evaluating partitioned Hartree potential by multipole expansion.
  | Original multipole sum: apparent total charge =  -0.885519E-15
  | Sum of charges compensated after spline to logarithmic grids =  -0.118107E-06
  | Analytical far-field extrapolation by fixed multipoles:
  | Hartree multipole sum: apparent total charge =  -0.860921E-15
  Summing up the Hartree potential.
  Time summed over all CPUs for potential: real work        0.002 s, elapsed        0.002 s
  | RMS charge density error from multipole expansion :   0.203160E-03

  Integrating Hamiltonian matrix: batch-based integration.
  Time summed over all CPUs for integration: real work        0.087 s, elapsed        0.118 s => Consider using load balancing!
  Max. memory consumption per node for dm_cols [GB]:      0.00
  Max. memory consumption per node for fock_matrix [GB]:      0.00
  Calculating non-local Hartree-Fock exchange by two-center RI (RI-LVL).
  screening_threshold (crit_val) =  0.000000100000
  Max. allocated memory per node for ovlp3fn_rcv [GB]:      0.00
  Max. allocated memory per node for fock_matrix_row [GB]:      0.00
  Max. memory consumption per node for m_ovlp_fact11 [GB]:      0.00
  Max. memory consumption per node for d_aux_mem [GB]:      0.00
  Max. memory consumption per node for dm_x_o3fn_aux [GB]:      0.00
  Max. allocated memory per node for tmp1/tmp2 [GB]:      0.00
   final impselect vector           6           2           4           1
   Time for autotuning:    4.8337089999999083E-003
  Exact exchange progress report - outermost block loop i_block: 1 ..       3
  |        1         2         3  
 Total ovlp3fn data transfer [GB]   1.7183598829433322E-003
  Average sparsity of tmp1/2 0.50000000
  Average sparsity of fock_matrix_row 0.02173913
  Full exact exchange energy: weighted long- and short-range EXX    174.117899952973 eV.
  Detailed communication and barrier times:
  | Comm    0:        0.000       0.000       0.000       0.000       0.000       0.000       0.000       0.000       0.000       0.000
  | Comm    1:        0.000       0.000       0.000       0.000       0.000       0.000       0.000       0.000       0.000       0.000
  | Comm    2:        0.000       0.000       0.000       0.000       0.000       0.000       0.000       0.000       0.000       0.000
  | Comm    3:        0.000       0.000       0.000       0.000       0.000       0.000       0.000       0.000       0.000       0.000
  | Comm    4:        0.000       0.000       0.000       0.000       0.000       0.000       0.000       0.000       0.000       0.000
  | Comm    5:        0.000       0.000       0.000       0.000       0.000       0.000       0.000       0.000       0.000       0.000
  | Comm    6:        0.000       0.000       0.000       0.000       0.000       0.000       0.000       0.000       0.000       0.000
  | Comm    7:        0.000       0.000       0.000       0.000       0.000       0.000       0.000       0.000       0.000       0.000
  | Comm    8:        0.000       0.000       0.000       0.000       0.000       0.000       0.000       0.000       0.000       0.000
  | Comm    9:        0.000       0.000       0.000       0.000       0.000       0.000       0.000       0.000       0.000       0.000
  | Comm   10:        0.000       0.000       0.000       0.000       0.000       0.000       0.000       0.000       0.000       0.000
  | Comm   11:        0.000       0.000       0.000       0.000       0.000       0.000       0.000       0.000       0.000       0.000
  | Comm   12:        0.000       0.000       0.000       0.000       0.000       0.000       0.000       0.000       0.000       0.000
  | Comm   13:        0.000       0.000       0.000       0.000       0.000       0.000       0.000       0.000       0.000       0.000
  | Comm   14:        0.000       0.000       0.000       0.000       0.000       0.000       0.000       0.000       0.000       0.000
  | Comm   15:        0.000       0.000       0.000       0.000       0.000       0.000       0.000       0.000       0.000       0.000
  | Comm   16:        0.000       0.000       0.000       0.000       0.000       0.000       0.000       0.000       0.000       0.000
  | Comm   17:        0.000       0.000       0.000       0.000       0.000       0.000       0.000       0.000       0.000       0.000
  | Comm   18:        0.000       0.000       0.000       0.000       0.000       0.000       0.000       0.000       0.000       0.000
  | Comm   19:        0.000       0.000       0.000       0.000       0.000       0.000       0.000       0.000       0.000       0.000
  | Comm   20:        0.000       0.000       0.000       0.000       0.000       0.000       0.000       0.000       0.000       0.000
  | Comm   21:        0.000       0.000       0.000       0.000       0.000       0.000       0.000       0.000       0.000       0.000
  | Comm   22:        0.000       0.000       0.000       0.000       0.000       0.000       0.000       0.000       0.000       0.000
  | Comm   23:        0.000       0.000       0.000       0.000       0.000       0.000       0.000       0.000       0.000       0.000
  | Comm   24:        0.000       0.000       0.000       0.000       0.000       0.000       0.000       0.000       0.000       0.000
  | Comm   25:        0.000       0.000       0.000       0.000       0.000       0.000       0.000       0.000       0.000       0.000
  | Comm   26:        0.000       0.000       0.000       0.000       0.000       0.000       0.000       0.000       0.000       0.000
  | Comm   27:        0.000       0.000       0.000       0.000       0.000       0.000       0.000       0.000       0.000       0.000
  | Comm   28:        0.000       0.000       0.000       0.000       0.000       0.000       0.000       0.000       0.000       0.000
  | Comm   29:        0.000       0.000       0.000       0.000       0.000       0.000       0.000       0.000       0.000       0.000
  | Comm   30:        0.000       0.000       0.000       0.000       0.000       0.000       0.000       0.000       0.000       0.000
  | Comm   31:        0.000       0.000       0.000       0.000       0.000       0.000       0.000       0.000       0.000       0.000
  | Comm   32:        0.000       0.000       0.000       0.000       0.000       0.000       0.000       0.000       0.000       0.000
  | Comm   33:        0.000       0.000       0.000       0.000       0.000       0.000       0.000       0.000       0.000       0.000
  | Comm   34:        0.000       0.000       0.000       0.000       0.000       0.000       0.000       0.000       0.000       0.000
  | Comm   35:        0.000       0.000       0.000       0.000       0.000       0.000       0.000       0.000       0.000       0.000
  | Comm   36:        0.000       0.000       0.000       0.000       0.000       0.000       0.000       0.000       0.000       0.000
  | Comm   37:        0.000       0.000       0.000       0.000       0.000       0.000       0.000       0.000       0.000       0.000
  | Comm   38:        0.000       0.000       0.000       0.000       0.000       0.000       0.000       0.000       0.000       0.000
  | Comm   39:        0.000       0.000       0.000       0.000       0.000       0.000       0.000       0.000       0.000       0.000
  | Comm   40:        0.000       0.000       0.000       0.000       0.000       0.000       0.000       0.000       0.000       0.000
  | Comm   41:        0.000       0.000       0.000       0.000       0.000       0.000       0.000       0.000       0.000       0.000
  | Comm   42:        0.000       0.000       0.000       0.000       0.000       0.000       0.000       0.000       0.000       0.000
  | Comm   43:        0.000       0.000       0.000       0.000       0.000       0.000       0.000       0.000       0.000       0.000
  | Comm   44:        0.000       0.000       0.000       0.000       0.000       0.000       0.000       0.000       0.000       0.000
  | Comm   45:        0.000       0.000       0.000       0.000       0.000       0.000       0.000       0.000       0.000       0.000
  | Comm   46:        0.000       0.000       0.000       0.000       0.000       0.000       0.000       0.000       0.000       0.000
  | Comm   47:        0.000       0.000       0.000       0.000       0.000       0.000       0.000       0.000       0.000       0.000
  | Comm   48:        0.000       0.000       0.000       0.000       0.000       0.000       0.000       0.000       0.000       0.000
  | Comm   49:        0.000       0.000       0.000       0.000       0.000       0.000       0.000       0.000       0.000       0.000
  | Comm   50:        0.000       0.000       0.000       0.000       0.000       0.000       0.000       0.000       0.000       0.000
  | Comm   51:        0.000       0.000       0.000       0.000       0.000       0.000       0.000       0.000       0.000       0.000
  | Comm   52:        0.000       0.000       0.000       0.000       0.000       0.000       0.000       0.000       0.000       0.000
  | Comm   53:        0.000       0.000       0.000       0.000       0.000       0.000       0.000       0.000       0.000       0.000
  | Comm   54:        0.000       0.000       0.000       0.000       0.000       0.000       0.000       0.000       0.000       0.000
  | Comm   55:        0.000       0.000       0.000       0.000       0.000       0.000       0.000       0.000       0.000       0.000
  | Comm   56:        0.000       0.000       0.000       0.000       0.000       0.000       0.000       0.000       0.000       0.000
  | Comm   57:        0.000       0.000       0.000       0.000       0.000       0.000       0.000       0.000       0.000       0.000
  | Comm   58:        0.000       0.000       0.000       0.000       0.000       0.000       0.000       0.000       0.000       0.000
  | Comm   59:        0.000       0.000       0.000       0.000       0.000       0.000       0.000       0.000       0.000       0.000
  | Comm   60:        0.000       0.000       0.000       0.000       0.000       0.000       0.000       0.000       0.000       0.000
  | Comm   61:        0.000       0.000       0.000       0.000       0.000       0.000       0.000       0.000       0.000       0.000
  | Comm   62:        0.000       0.000       0.000       0.000       0.000       0.000       0.000       0.000       0.000       0.000
  | Comm   63:        0.000       0.000       0.000       0.000       0.000       0.000       0.000       0.000       0.000       0.000
  | Imbalance    0:        0.000       0.000       0.000       0.000       0.000       0.000       0.000       0.000       0.000       0.000
  | Imbalance    1:        0.000       0.000       0.000       0.000       0.000       0.000       0.000       0.000       0.000       0.001
  | Imbalance    2:        0.000       0.000       0.000       0.000       0.000       0.000       0.000       0.000       0.000       0.000
  | Imbalance    3:        0.000       0.000       0.000       0.000       0.000       0.000       0.000       0.000       0.000       0.001
  | Imbalance    4:        0.000       0.000       0.000       0.000       0.000       0.000       0.000       0.000       0.000       0.000
  | Imbalance    5:        0.000       0.000       0.000       0.000       0.000       0.000       0.000       0.000       0.000       0.001
  | Imbalance    6:        0.000       0.000       0.000       0.000       0.000       0.000       0.000       0.000       0.000       0.000
  | Imbalance    7:        0.000       0.000       0.000       0.000       0.000       0.000       0.000       0.000       0.000       0.001
  | Imbalance    8:        0.000       0.000       0.000       0.000       0.000       0.000       0.000       0.000       0.000       0.000
  | Imbalance    9:        0.000       0.000       0.000       0.000       0.000       0.000       0.000       0.000       0.000       0.001
  | Imbalance   10:        0.000       0.000       0.000       0.000       0.000       0.000       0.000       0.000       0.000       0.000
  | Imbalance   11:        0.000       0.000       0.000       0.000       0.000       0.000       0.000       0.000       0.000       0.001
  | Imbalance   12:        0.000       0.000       0.000       0.000       0.000       0.000       0.000       0.000       0.000       0.000
  | Imbalance   13:        0.000       0.000       0.000       0.000       0.000       0.000       0.000       0.000       0.000       0.001
  | Imbalance   14:        0.000       0.000       0.000       0.000       0.000       0.000       0.000       0.000       0.000       0.000
  | Imbalance   15:        0.000       0.000       0.000       0.000       0.000       0.000       0.000       0.000       0.000       0.001
  | Imbalance   16:        0.000       0.000       0.000       0.000       0.000       0.000       0.000       0.000       0.000       0.000
  | Imbalance   17:        0.000       0.000       0.000       0.000       0.000       0.000       0.000       0.000       0.000       0.001
  | Imbalance   18:        0.000       0.000       0.000       0.000       0.000       0.000       0.000       0.000       0.000       0.000
  | Imbalance   19:        0.000       0.000       0.000       0.000       0.000       0.000       0.000       0.000       0.000       0.001
  | Imbalance   20:        0.000       0.000       0.000       0.000       0.000       0.000       0.000       0.000       0.000       0.000
  | Imbalance   21:        0.000       0.000       0.000       0.000       0.000       0.000       0.000       0.000       0.000       0.001
  | Imbalance   22:        0.000       0.000       0.000       0.000       0.000       0.000       0.000       0.000       0.000       0.000
  | Imbalance   23:        0.000       0.000       0.000       0.000       0.000       0.000       0.000       0.000       0.000       0.001
  | Imbalance   24:        0.000       0.000       0.000       0.000       0.000       0.000       0.000       0.000       0.000       0.000
  | Imbalance   25:        0.000       0.000       0.000       0.000       0.000       0.000       0.000       0.000       0.000       0.001
  | Imbalance   26:        0.000       0.000       0.000       0.000       0.000       0.000       0.000       0.000       0.000       0.000
  | Imbalance   27:        0.000       0.000       0.000       0.000       0.000       0.000       0.000       0.000       0.000       0.001
  | Imbalance   28:        0.000       0.000       0.000       0.000       0.001       0.000       0.000       0.000       0.000       0.000
  | Imbalance   29:        0.000       0.000       0.000       0.000       0.001       0.000       0.000       0.000       0.000       0.001
  | Imbalance   30:        0.000       0.000       0.000       0.000       0.000       0.000       0.000       0.000       0.000       0.000
  | Imbalance   31:        0.000       0.000       0.000       0.000       0.000       0.000       0.000       0.000       0.000       0.001
  | Imbalance   32:        0.000       0.000       0.000       0.000       0.000       0.000       0.000       0.000       0.000       0.000
  | Imbalance   33:        0.000       0.000       0.000       0.000       0.000       0.000       0.000       0.000       0.000       0.001
  | Imbalance   34:        0.000       0.000       0.000       0.000       0.001       0.000       0.000       0.000       0.000       0.000
  | Imbalance   35:        0.000       0.000       0.000       0.000       0.001       0.000       0.000       0.000       0.000       0.001
  | Imbalance   36:        0.000       0.000       0.000       0.000       0.000       0.000       0.000       0.000       0.000       0.000
  | Imbalance   37:        0.000       0.000       0.000       0.000       0.000       0.000       0.000       0.000       0.000       0.000
  | Imbalance   38:        0.000       0.000       0.000       0.000       0.000       0.000       0.000       0.000       0.000       0.000
  | Imbalance   39:        0.000       0.000       0.000       0.000       0.000       0.000       0.000       0.000       0.000       0.000
  | Imbalance   40:        0.000       0.000       0.000       0.000       0.000       0.000       0.000       0.000       0.000       0.000
  | Imbalance   41:        0.000       0.000       0.000       0.000       0.000       0.000       0.000       0.000       0.000       0.000
  | Imbalance   42:        0.000       0.000       0.000       0.000       0.000       0.000       0.000       0.000       0.000       0.000
  | Imbalance   43:        0.000       0.000       0.000       0.000       0.000       0.000       0.000       0.000       0.000       0.000
  | Imbalance   44:        0.000       0.000       0.000       0.000       0.000       0.000       0.000       0.000       0.000       0.000
  | Imbalance   45:        0.000       0.000       0.000       0.000       0.000       0.000       0.000       0.000       0.000       0.000
  | Imbalance   46:        0.000       0.000       0.000       0.000       0.000       0.000       0.000       0.000       0.000       0.000
  | Imbalance   47:        0.000       0.000       0.000       0.000       0.000       0.000       0.000       0.000       0.000       0.000
  | Imbalance   48:        0.000       0.000       0.000       0.000       0.000       0.000       0.000       0.000       0.000       0.000
  | Imbalance   49:        0.000       0.000       0.000       0.000       0.000       0.000       0.000       0.000       0.000       0.000
  | Imbalance   50:        0.000       0.000       0.000       0.000       0.000       0.000       0.000       0.000       0.000       0.000
  | Imbalance   51:        0.000       0.000       0.000       0.000       0.000       0.000       0.000       0.000       0.000       0.000
  | Imbalance   52:        0.000       0.000       0.000       0.000       0.000       0.000       0.000       0.000       0.000       0.000
  | Imbalance   53:        0.000       0.000       0.000       0.000       0.000       0.000       0.000       0.000       0.000       0.000
  | Imbalance   54:        0.000       0.000       0.000       0.000       0.000       0.000       0.000       0.000       0.000       0.000
  | Imbalance   55:        0.000       0.000       0.000       0.000       0.000       0.000       0.000       0.000       0.000       0.000
  | Imbalance   56:        0.000       0.000       0.000       0.000       0.000       0.000       0.000       0.000       0.000       0.000
  | Imbalance   57:        0.000       0.000       0.000       0.000       0.000       0.000       0.000       0.000       0.000       0.000
  | Imbalance   58:        0.000       0.000       0.000       0.000       0.000       0.000       0.000       0.000       0.000       0.000
  | Imbalance   59:        0.000       0.000       0.000       0.000       0.000       0.000       0.000       0.000       0.000       0.000
  | Imbalance   60:        0.000       0.000       0.000       0.000       0.000       0.000       0.000       0.000       0.000       0.000
  | Imbalance   61:        0.000       0.000       0.000       0.000       0.000       0.000       0.000       0.000       0.000       0.000
  | Imbalance   62:        0.000       0.000       0.000       0.000       0.000       0.000       0.000       0.000       0.000       0.000
  | Imbalance   63:        0.000       0.000       0.000       0.000       0.000       0.000       0.000       0.000       0.000       0.000
  Times            DM_x_o3fn   CM_prod_1   CM_prod_2   tmp2_prod        Sync   Imbalance       Other  Total calc
  | Times    0:        0.000       0.001       0.001       0.000       0.000       0.000       0.023       0.025
  | Times    1:        0.000       0.000       0.000       0.000       0.000       0.001       0.023       0.025
  | Times    2:        0.000       0.001       0.001       0.000       0.000       0.000       0.023       0.025
  | Times    3:        0.000       0.000       0.000       0.000       0.000       0.001       0.023       0.025
  | Times    4:        0.000       0.001       0.001       0.000       0.000       0.000       0.023       0.025
  | Times    5:        0.000       0.001       0.000       0.000       0.000       0.001       0.023       0.025
  | Times    6:        0.000       0.001       0.001       0.000       0.000       0.000       0.023       0.025
  | Times    7:        0.000       0.000       0.000       0.000       0.000       0.001       0.023       0.025
  | Times    8:        0.000       0.001       0.001       0.000       0.001       0.000       0.023       0.025
  | Times    9:        0.000       0.001       0.000       0.000       0.001       0.001       0.023       0.025
  | Times   10:        0.000       0.001       0.001       0.000       0.000       0.000       0.023       0.025
  | Times   11:        0.000       0.000       0.000       0.000       0.000       0.001       0.023       0.025
  | Times   12:        0.000       0.001       0.001       0.000       0.001       0.000       0.023       0.025
  | Times   13:        0.000       0.001       0.000       0.000       0.001       0.001       0.023       0.025
  | Times   14:        0.000       0.001       0.001       0.000       0.000       0.000       0.023       0.025
  | Times   15:        0.000       0.000       0.000       0.000       0.000       0.001       0.023       0.025
  | Times   16:        0.000       0.001       0.001       0.000       0.000       0.000       0.023       0.025
  | Times   17:        0.000       0.001       0.000       0.000       0.000       0.001       0.023       0.025
  | Times   18:        0.000       0.001       0.001       0.000       0.000       0.000       0.023       0.025
  | Times   19:        0.000       0.001       0.000       0.000       0.000       0.001       0.023       0.025
  | Times   20:        0.000       0.001       0.001       0.000       0.000       0.000       0.023       0.025
  | Times   21:        0.000       0.001       0.000       0.000       0.000       0.001       0.023       0.025
  | Times   22:        0.000       0.001       0.001       0.000       0.000       0.000       0.023       0.025
  | Times   23:        0.000       0.000       0.000       0.000       0.000       0.001       0.023       0.025
  | Times   24:        0.000       0.001       0.001       0.000       0.000       0.000       0.023       0.025
  | Times   25:        0.000       0.001       0.000       0.000       0.000       0.001       0.023       0.025
  | Times   26:        0.000       0.001       0.001       0.000       0.000       0.000       0.023       0.025
  | Times   27:        0.000       0.000       0.000       0.000       0.000       0.002       0.023       0.025
  | Times   28:        0.000       0.000       0.000       0.000       0.000       0.001       0.023       0.025
  | Times   29:        0.000       0.000       0.000       0.000       0.000       0.001       0.023       0.025
  | Times   30:        0.000       0.001       0.001       0.000       0.000       0.000       0.023       0.025
  | Times   31:        0.000       0.001       0.000       0.000       0.000       0.001       0.023       0.025
  | Times   32:        0.000       0.001       0.000       0.000       0.000       0.001       0.023       0.025
  | Times   33:        0.000       0.000       0.001       0.000       0.000       0.001       0.023       0.025
  | Times   34:        0.000       0.001       0.000       0.000       0.000       0.001       0.023       0.025
  | Times   35:        0.000       0.000       0.000       0.000       0.000       0.002       0.023       0.025
  | Times   36:        0.000       0.001       0.000       0.000       0.000       0.000       0.024       0.025
  | Times   37:        0.000       0.000       0.000       0.000       0.000       0.000       0.024       0.025
  | Times   38:        0.000       0.001       0.000       0.000       0.000       0.000       0.024       0.025
  | Times   39:        0.000       0.000       0.000       0.000       0.000       0.001       0.024       0.025
  | Times   40:        0.000       0.001       0.000       0.000       0.000       0.000       0.023       0.025
  | Times   41:        0.000       0.000       0.000       0.000       0.000       0.000       0.024       0.025
  | Times   42:        0.000       0.001       0.000       0.000       0.000       0.000       0.024       0.025
  | Times   43:        0.000       0.000       0.000       0.000       0.000       0.001       0.024       0.025
  | Times   44:        0.000       0.001       0.000       0.000       0.000       0.000       0.024       0.025
  | Times   45:        0.000       0.000       0.000       0.000       0.000       0.000       0.024       0.025
  | Times   46:        0.000       0.001       0.000       0.000       0.000       0.000       0.024       0.025
  | Times   47:        0.000       0.000       0.000       0.000       0.000       0.001       0.024       0.025
  | Times   48:        0.000       0.001       0.000       0.000       0.000       0.000       0.024       0.025
  | Times   49:        0.000       0.000       0.000       0.000       0.000       0.000       0.024       0.025
  | Times   50:        0.000       0.001       0.000       0.000       0.000       0.000       0.024       0.025
  | Times   51:        0.000       0.000       0.000       0.000       0.000       0.001       0.024       0.025
  | Times   52:        0.000       0.001       0.000       0.000       0.000       0.000       0.024       0.025
  | Times   53:        0.000       0.000       0.000       0.000       0.000       0.000       0.024       0.025
  | Times   54:        0.000       0.001       0.000       0.000       0.000       0.000       0.024       0.025
  | Times   55:        0.000       0.000       0.000       0.000       0.000       0.001       0.024       0.025
  | Times   56:        0.000       0.001       0.000       0.000       0.000       0.000       0.024       0.025
  | Times   57:        0.000       0.000       0.000       0.000       0.000       0.000       0.024       0.025
  | Times   58:        0.000       0.001       0.000       0.000       0.000       0.000       0.024       0.025
  | Times   59:        0.000       0.000       0.000       0.000       0.000       0.001       0.024       0.025
  | Times   60:        0.000       0.001       0.000       0.000       0.000       0.000       0.024       0.025
  | Times   61:        0.000       0.000       0.000       0.000       0.000       0.000       0.024       0.025
  | Times   62:        0.000       0.001       0.000       0.000       0.000       0.000       0.024       0.025
  | Times   63:        0.000       0.000       0.000       0.000       0.000       0.001       0.024       0.025
  | Times  sum:        0.007       0.038       0.016       0.008       0.024       0.039       1.487       1.620

  Decomposition of Other based on code block (only on MPI task 0):
  Times             Block #1    Block #2    Block #3    Block #4    Block #5    Block #6    Block #7    Block #8
  | Times    0:        0.015       0.000       0.000       0.000       0.000       0.000       0.000       0.000

  Times             Block #9   Block #10   Block #11   Block #12   Block #13   Block #14   Block #15   Block #16
  | Times    0:        0.000       0.000       0.000       0.001       0.000       0.006       0.000       0.000

  Times            Block Sum    Expected
  | Times    0:        0.022       0.023
  Time for Fock matrix mixing     0.015

  Updating Kohn-Sham eigenvalues and eigenvectors using ELSI and the ELPA eigensolver.
  Starting ELPA eigensolver
  Finished transformation to standard eigenproblem
  | Time :     0.000 s
  Finished solving standard eigenproblem
  | Time :     0.001 s
  Finished back-transformation of eigenvectors
  | Time :     0.000 s

  Obtaining occupation numbers and electronic chemical potential using ELSI.
  | Note that, for insulating systems, the printed 'chemical potential' value is not uniquely defined.
  | It can be anywhere in the energy gap, as long as it correctly separates occupied and unoccupied states.
  | In systems with a gap, the physically relevant chemical potential is the VBM or HOMO.

  | Chemical potential (Fermi level):    -6.94508596 eV
  Writing Kohn-Sham eigenvalues.

  State    Occupation    Eigenvalue [Ha]    Eigenvalue [eV]
      1       2.00000         -66.812655        -1818.06484
      2       2.00000         -10.517417         -286.19348
      3       2.00000          -5.540813         -150.77319
      4       2.00000          -3.829719         -104.21197
      5       2.00000          -3.827657         -104.15585
      6       2.00000          -3.827657         -104.15585
      7       2.00000          -0.790394          -21.50771
      8       2.00000          -0.476624          -12.96961
      9       2.00000          -0.370998          -10.09537
     10       2.00000          -0.370998          -10.09537
     11       0.00000          -0.139456           -3.79480
     12       0.00000          -0.007151           -0.19458
     13       0.00000          -0.007151           -0.19458
     14       0.00000           0.106091            2.88689
     15       0.00000           0.252488            6.87054
     16       0.00000           0.252488            6.87054

  Highest occupied state (VBM) at    -10.09537233 eV
  | Occupation number:      2.00000000

  Lowest unoccupied state (CBM) at    -3.79479958 eV
  | Occupation number:      0.00000000

  Overall HOMO-LUMO gap:      6.30057275 eV.

  Total energy components:
  | Sum of eigenvalues            :        -192.72986547 Ha       -5244.44647402 eV
  | XC energy correction          :         -13.25250643 Ha        -360.61904804 eV
  | XC potential correction       :          26.90565852 Ha         732.14021920 eV
  | Free-atom electrostatic energy:        -149.49732459 Ha       -4068.02918108 eV
  | Hartree energy correction     :           0.18438078 Ha           5.01725629 eV
  | Entropy correction            :          -0.00000000 Ha          -0.00000000 eV
  | ---------------------------
  | Total energy                  :        -328.38965719 Ha       -8935.93722765 eV
  | Total energy, T -> 0          :        -328.38965719 Ha       -8935.93722765 eV  <-- do not rely on this value for anything but (periodic) metals
  | Electronic free energy        :        -328.38965719 Ha       -8935.93722765 eV

  Derived energy quantities:
  | Kinetic energy                :         328.48914121 Ha        8938.64432567 eV
  | Electrostatic energy          :        -630.78969063 Ha      -17164.66081029 eV
  | Energy correction for multipole
  | error in Hartree potential    :           0.00008602 Ha           0.00234072 eV
  | Sum of eigenvalues per atom                           :       -2622.22323701 eV
  | Total energy (T->0) per atom                          :       -4467.96861382 eV  <-- do not rely on this value for anything but (periodic) metals
  | Electronic free energy per atom                       :       -4467.96861382 eV
  Evaluating new KS density.
  Integration grid: deviation in total charge (<rho> - N_e) =   3.552714E-15

  Self-consistency convergence accuracy:
  | Change of charge density      :  0.1581E+00
  | Change of unmixed KS density  :  0.2371E+02
  | Change of sum of eigenvalues  : -0.3126E+03 eV
  | Change of total energy        : -0.1736E+03 eV


------------------------------------------------------------
  End self-consistency iteration #     1       :  max(cpu_time)    wall_clock(cpu1)
  | Time for this iteration                     :        0.063 s           0.063 s
  | Charge density update                       :        0.001 s           0.001 s
  | Density mixing                              :        0.000 s           0.000 s
  | Hartree multipole update                    :        0.001 s           0.001 s
  | Hartree multipole summation                 :        0.002 s           0.003 s
  | Integration                                 :        0.002 s           0.002 s
  | Fock matrix evaluation                      :        0.053 s           0.047 s
  | Solution of K.-S. eqns.                     :        0.002 s           0.001 s
  | Total energy evaluation                     :        0.000 s           0.000 s

  Partial memory accounting:
  | Current value for overall tracked memory usage:
  |   Minimum:        1.198 MB (on task 14)
  |   Maximum:        1.905 MB (on task 52)
  |   Average:        1.591 MB
  | Peak value for overall tracked memory usage:
  |   Minimum:        1.688 MB (on task 10 after allocating wave)
  |   Maximum:        3.972 MB (on task  1 after allocating ovlp3fn_nosplit%tmploc)
  |   Average:        2.151 MB
  | Largest tracked array allocation so far:
  |   Minimum:        0.919 MB (aux_mat on task  2)
  |   Maximum:        1.655 MB (ovlp3fn_nosplit%dat on task  1)
  |   Average:        1.212 MB
  Note:  These values currently only include a subset of arrays which are explicitly tracked.
  The "true" memory usage will be greater.
------------------------------------------------------------

------------------------------------------------------------
          Begin self-consistency iteration #    2

  Date     :  20260724, Time     :  101713.901
------------------------------------------------------------
  Pulay mixing of updated and previous charge densities.
  Available memory per node after mixing [GB]:   1025.58
  Renormalizing the density to the exact electron count on the 3D integration grid.
  | Formal number of electrons (from input files) :      20.0000000000
  | Integrated number of electrons on 3D grid     :      20.0000000000
  | Charge integration error                      :      -0.0000000000
  | Normalization factor for density and gradient :       1.0000000000

  Evaluating partitioned Hartree potential by multipole expansion.
  | Original multipole sum: apparent total charge =  -0.985139E-14
  | Sum of charges compensated after spline to logarithmic grids =  -0.109328E-06
  | Analytical far-field extrapolation by fixed multipoles:
  | Hartree multipole sum: apparent total charge =  -0.971611E-14
  Summing up the Hartree potential.
  Time summed over all CPUs for potential: real work        0.001 s, elapsed        0.002 s
  | RMS charge density error from multipole expansion :   0.235359E-03

  Integrating Hamiltonian matrix: batch-based integration.
  Time summed over all CPUs for integration: real work        0.082 s, elapsed        0.099 s
  Calculating non-local Hartree-Fock exchange by two-center RI (RI-LVL).
  screening_threshold (crit_val) =  0.000000100000
  Exact exchange progress report - outermost block loop i_block: 1 ..       3
  |        1         2         3  
 Total ovlp3fn data transfer [GB]   7.3643994983285666E-004
  Average sparsity of tmp1/2 0.50000000
  Average sparsity of fock_matrix_row 0.02173913
  Full exact exchange energy: weighted long- and short-range EXX    175.431388752783 eV.
  Times            DM_x_o3fn   CM_prod_1   CM_prod_2   tmp2_prod        Sync   Imbalance       Other  Total calc
  | Times    0:        0.000       0.001       0.000       0.000       0.000       0.000       0.010       0.012
  | Times    1:        0.000       0.000       0.000       0.000       0.000       0.001       0.010       0.012
  | Times    2:        0.000       0.001       0.001       0.000       0.000       0.000       0.010       0.012
  | Times    3:        0.000       0.000       0.000       0.000       0.000       0.001       0.010       0.012
  | Times    4:        0.000       0.000       0.000       0.000       0.000       0.000       0.010       0.012
  | Times    5:        0.000       0.000       0.000       0.000       0.000       0.001       0.010       0.012
  | Times    6:        0.000       0.000       0.000       0.000       0.000       0.000       0.010       0.012
  | Times    7:        0.000       0.000       0.000       0.000       0.000       0.001       0.010       0.012
  | Times    8:        0.000       0.001       0.000       0.000       0.000       0.000       0.010       0.012
  | Times    9:        0.000       0.000       0.000       0.000       0.000       0.001       0.010       0.012
  | Times   10:        0.000       0.001       0.001       0.000       0.000       0.000       0.010       0.012
  | Times   11:        0.000       0.000       0.000       0.000       0.000       0.001       0.010       0.012
  | Times   12:        0.000       0.000       0.000       0.000       0.000       0.000       0.010       0.012
  | Times   13:        0.000       0.000       0.000       0.000       0.000       0.001       0.010       0.012
  | Times   14:        0.000       0.000       0.000       0.000       0.000       0.000       0.010       0.012
  | Times   15:        0.000       0.000       0.000       0.000       0.000       0.001       0.010       0.012
  | Times   16:        0.000       0.001       0.000       0.000       0.000       0.000       0.010       0.012
  | Times   17:        0.000       0.000       0.000       0.000       0.000       0.001       0.010       0.012
  | Times   18:        0.000       0.001       0.001       0.000       0.000       0.000       0.010       0.012
  | Times   19:        0.000       0.000       0.000       0.000       0.000       0.001       0.010       0.012
  | Times   20:        0.000       0.000       0.000       0.000       0.000       0.000       0.011       0.012
  | Times   21:        0.000       0.000       0.000       0.000       0.000       0.001       0.010       0.012
  | Times   22:        0.000       0.000       0.000       0.000       0.000       0.000       0.010       0.012
  | Times   23:        0.000       0.000       0.000       0.000       0.000       0.001       0.010       0.012
  | Times   24:        0.000       0.001       0.000       0.000       0.000       0.000       0.010       0.012
  | Times   25:        0.000       0.000       0.000       0.000       0.000       0.001       0.010       0.012
  | Times   26:        0.000       0.001       0.001       0.000       0.000       0.000       0.010       0.012
  | Times   27:        0.000       0.000       0.000       0.000       0.000       0.001       0.010       0.012
  | Times   28:        0.000       0.000       0.000       0.000       0.000       0.000       0.010       0.012
  | Times   29:        0.000       0.000       0.000       0.000       0.000       0.001       0.010       0.012
  | Times   30:        0.000       0.000       0.000       0.000       0.000       0.000       0.010       0.012
  | Times   31:        0.000       0.000       0.000       0.000       0.000       0.001       0.010       0.012
  | Times   32:        0.000       0.001       0.000       0.000       0.000       0.000       0.010       0.012
  | Times   33:        0.000       0.000       0.000       0.000       0.000       0.001       0.010       0.012
  | Times   34:        0.000       0.001       0.000       0.000       0.000       0.000       0.010       0.012
  | Times   35:        0.000       0.000       0.000       0.000       0.000       0.001       0.010       0.012
  | Times   36:        0.000       0.000       0.000       0.000       0.000       0.000       0.011       0.012
  | Times   37:        0.000       0.000       0.000       0.000       0.000       0.001       0.010       0.012
  | Times   38:        0.000       0.000       0.000       0.000       0.000       0.000       0.010       0.012
  | Times   39:        0.000       0.000       0.000       0.000       0.000       0.001       0.010       0.012
  | Times   40:        0.000       0.001       0.000       0.000       0.000       0.000       0.010       0.012
  | Times   41:        0.000       0.000       0.000       0.000       0.000       0.000       0.010       0.012
  | Times   42:        0.000       0.001       0.000       0.000       0.000       0.000       0.010       0.012
  | Times   43:        0.000       0.000       0.000       0.000       0.000       0.000       0.010       0.012
  | Times   44:        0.000       0.001       0.000       0.000       0.000       0.000       0.010       0.012
  | Times   45:        0.000       0.001       0.000       0.000       0.000       0.000       0.010       0.012
  | Times   46:        0.000       0.001       0.000       0.000       0.000       0.001       0.010       0.012
  | Times   47:        0.000       0.000       0.000       0.000       0.000       0.000       0.010       0.012
  | Times   48:        0.000       0.001       0.000       0.000       0.000       0.000       0.010       0.012
  | Times   49:        0.000       0.000       0.000       0.000       0.000       0.000       0.010       0.012
  | Times   50:        0.000       0.001       0.000       0.000       0.000       0.000       0.010       0.012
  | Times   51:        0.000       0.000       0.000       0.000       0.000       0.000       0.010       0.012
  | Times   52:        0.000       0.001       0.000       0.000       0.001       0.000       0.010       0.012
  | Times   53:        0.000       0.001       0.000       0.000       0.001       0.000       0.010       0.012
  | Times   54:        0.000       0.001       0.000       0.000       0.000       0.001       0.010       0.012
  | Times   55:        0.000       0.000       0.000       0.000       0.000       0.001       0.010       0.012
  | Times   56:        0.000       0.001       0.000       0.000       0.000       0.000       0.010       0.012
  | Times   57:        0.000       0.001       0.000       0.000       0.000       0.000       0.010       0.012
  | Times   58:        0.000       0.001       0.000       0.000       0.000       0.001       0.010       0.012
  | Times   59:        0.000       0.000       0.000       0.000       0.000       0.001       0.010       0.012
  | Times   60:        0.000       0.001       0.000       0.000       0.000       0.000       0.010       0.012
  | Times   61:        0.000       0.000       0.000       0.000       0.000       0.000       0.010       0.012
  | Times   62:        0.000       0.001       0.000       0.000       0.000       0.000       0.010       0.012
  | Times   63:        0.000       0.000       0.000       0.000       0.000       0.000       0.010       0.012
  | Times  sum:        0.010       0.030       0.012       0.011       0.020       0.029       0.641       0.753

  Decomposition of Other based on code block (only on MPI task 0):
  Times             Block #1    Block #2    Block #3    Block #4    Block #5    Block #6    Block #7    Block #8
  | Times    0:        0.000       0.000       0.000       0.000       0.000       0.000       0.000       0.000

  Times             Block #9   Block #10   Block #11   Block #12   Block #13   Block #14   Block #15   Block #16
  | Times    0:        0.000       0.000       0.000       0.001       0.000       0.008       0.000       0.000

  Times            Block Sum    Expected
  | Times    0:        0.009       0.010
  Time for Fock matrix mixing     0.042

  Updating Kohn-Sham eigenvalues and eigenvectors using ELSI and the ELPA eigensolver.
  Starting ELPA eigensolver
  Finished transformation to standard eigenproblem
  | Time :     0.001 s
  Finished solving standard eigenproblem
  | Time :     0.000 s
  Finished back-transformation of eigenvectors
  | Time :     0.001 s

  Obtaining occupation numbers and electronic chemical potential using ELSI.
  | Note that, for insulating systems, the printed 'chemical potential' value is not uniquely defined.
  | It can be anywhere in the energy gap, as long as it correctly separates occupied and unoccupied states.
  | In systems with a gap, the physically relevant chemical potential is the VBM or HOMO.

  | Chemical potential (Fermi level):    -6.88402266 eV
  Highest occupied state (VBM) at    -10.00987674 eV
  | Occupation number:      2.00000000

  Lowest unoccupied state (CBM) at    -3.75816858 eV
  | Occupation number:      0.00000000

  Overall HOMO-LUMO gap:      6.25170816 eV.

  Checking to see if s.c.f. parameters should be adjusted.

  Total energy components:
  | Sum of eigenvalues            :        -192.72210265 Ha       -5244.23523692 eV
  | XC energy correction          :         -13.25373999 Ha        -360.65261491 eV
  | XC potential correction       :          26.90731092 Ha         732.18518337 eV
  | Free-atom electrostatic energy:        -149.49732459 Ha       -4068.02918108 eV
  | Hartree energy correction     :           0.18120139 Ha           4.93074060 eV
  | Entropy correction            :          -0.00000000 Ha          -0.00000000 eV
  | ---------------------------
  | Total energy                  :        -328.38465492 Ha       -8935.80110894 eV
  | Total energy, T -> 0          :        -328.38465492 Ha       -8935.80110894 eV  <-- do not rely on this value for anything but (periodic) metals
  | Electronic free energy        :        -328.38465492 Ha       -8935.80110894 eV

  Derived energy quantities:
  | Kinetic energy                :         328.49291798 Ha        8938.74709663 eV
  | Electrostatic energy          :        -630.78735147 Ha      -17164.59715857 eV
  | Energy correction for multipole
  | error in Hartree potential    :           0.00008694 Ha           0.00236574 eV
  | Sum of eigenvalues per atom                           :       -2622.11761846 eV
  | Total energy (T->0) per atom                          :       -4467.90055447 eV  <-- do not rely on this value for anything but (periodic) metals
  | Electronic free energy per atom                       :       -4467.90055447 eV
  Evaluating new KS density.
  Integration grid: deviation in total charge (<rho> - N_e) =   3.552714E-15

  Self-consistency convergence accuracy:
  | Change of charge density      :  0.1681E+00
  | Change of unmixed KS density  :  0.7424E-01
  | Change of sum of eigenvalues  :  0.2112E+00 eV
  | Change of total energy        :  0.1361E+00 eV


------------------------------------------------------------
  End self-consistency iteration #     2       :  max(cpu_time)    wall_clock(cpu1)
  | Time for this iteration                     :        0.342 s           0.171 s
  | Charge density update                       :        0.001 s           0.001 s
  | Density mixing                              :        0.284 s           0.110 s
  | Hartree multipole update                    :        0.001 s           0.001 s
  | Hartree multipole summation                 :        0.002 s           0.002 s
  | Integration                                 :        0.002 s           0.002 s
  | Fock matrix evaluation                      :        0.054 s           0.053 s
  | Solution of K.-S. eqns.                     :        0.001 s           0.002 s
  | Total energy evaluation                     :        0.000 s           0.000 s

  Partial memory accounting:
  | Current value for overall tracked memory usage:
  |   Minimum:        1.199 MB (on task 14)
  |   Maximum:        1.906 MB (on task 52)
  |   Average:        1.592 MB
  | Peak value for overall tracked memory usage:
  |   Minimum:        1.689 MB (on task 10 after allocating wave)
  |   Maximum:        3.972 MB (on task  1 after allocating ovlp3fn_nosplit%tmploc)
  |   Average:        2.152 MB
  | Largest tracked array allocation so far:
  |   Minimum:        0.919 MB (aux_mat on task  2)
  |   Maximum:        1.655 MB (ovlp3fn_nosplit%dat on task  1)
  |   Average:        1.212 MB
  Note:  These values currently only include a subset of arrays which are explicitly tracked.
  The "true" memory usage will be greater.
------------------------------------------------------------

------------------------------------------------------------
          Begin self-consistency iteration #    3

  Date     :  20260724, Time     :  101714.350
------------------------------------------------------------
  Pulay mixing of updated and previous charge densities.
  Available memory per node after mixing [GB]:   1025.55
  Renormalizing the density to the exact electron count on the 3D integration grid.
  | Formal number of electrons (from input files) :      20.0000000000
  | Integrated number of electrons on 3D grid     :      20.0000000000
  | Charge integration error                      :       0.0000000000
  | Normalization factor for density and gradient :       1.0000000000

  Evaluating partitioned Hartree potential by multipole expansion.
  | Original multipole sum: apparent total charge =  -0.196782E-14
  | Sum of charges compensated after spline to logarithmic grids =  -0.104453E-06
  | Analytical far-field extrapolation by fixed multipoles:
  | Hartree multipole sum: apparent total charge =  -0.983910E-15
  Summing up the Hartree potential.
  Time summed over all CPUs for potential: real work        0.001 s, elapsed        0.002 s
  | RMS charge density error from multipole expansion :   0.806747E-03

  Integrating Hamiltonian matrix: batch-based integration.
  Time summed over all CPUs for integration: real work        0.080 s, elapsed        0.096 s
  Calculating non-local Hartree-Fock exchange by two-center RI (RI-LVL).
  screening_threshold (crit_val) =  0.000000100000
  Exact exchange progress report - outermost block loop i_block: 1 ..       3
  |        1         2         3  
 Total ovlp3fn data transfer [GB]   7.3643994983285666E-004
  Average sparsity of tmp1/2 0.50000000
  Average sparsity of fock_matrix_row 0.02173913
  Full exact exchange energy: weighted long- and short-range EXX    175.381224703133 eV.
  Times            DM_x_o3fn   CM_prod_1   CM_prod_2   tmp2_prod        Sync   Imbalance       Other  Total calc
  | Times    0:        0.000       0.001       0.001       0.000       0.000       0.000       0.010       0.013
  | Times    1:        0.000       0.001       0.000       0.000       0.000       0.001       0.010       0.013
  | Times    2:        0.000       0.001       0.001       0.000       0.000       0.001       0.010       0.013
  | Times    3:        0.000       0.000       0.000       0.000       0.000       0.002       0.010       0.013
  | Times    4:        0.000       0.001       0.000       0.000       0.000       0.001       0.010       0.013
  | Times    5:        0.000       0.001       0.000       0.000       0.000       0.001       0.010       0.013
  | Times    6:        0.000       0.001       0.001       0.000       0.000       0.000       0.010       0.013
  | Times    7:        0.000       0.001       0.000       0.000       0.000       0.001       0.010       0.013
  | Times    8:        0.000       0.000       0.000       0.000       0.000       0.001       0.011       0.013
  | Times    9:        0.000       0.000       0.000       0.000       0.000       0.001       0.011       0.013
  | Times   10:        0.000       0.001       0.001       0.000       0.000       0.000       0.010       0.013
  | Times   11:        0.000       0.000       0.000       0.000       0.000       0.001       0.011       0.013
  | Times   12:        0.000       0.001       0.001       0.000       0.000       0.000       0.010       0.013
  | Times   13:        0.000       0.000       0.000       0.000       0.000       0.001       0.010       0.013
  | Times   14:        0.000       0.001       0.001       0.000       0.000       0.001       0.010       0.013
  | Times   15:        0.000       0.000       0.000       0.000       0.000       0.001       0.010       0.013
  | Times   16:        0.000       0.001       0.000       0.000       0.000       0.001       0.010       0.013
  | Times   17:        0.000       0.001       0.000       0.000       0.000       0.001       0.010       0.013
  | Times   18:        0.000       0.001       0.001       0.000       0.000       0.000       0.010       0.013
  | Times   19:        0.000       0.001       0.000       0.000       0.000       0.001       0.010       0.013
  | Times   20:        0.000       0.001       0.000       0.000       0.000       0.001       0.010       0.013
  | Times   21:        0.000       0.001       0.000       0.000       0.000       0.001       0.010       0.013
  | Times   22:        0.000       0.001       0.001       0.000       0.000       0.000       0.010       0.013
  | Times   23:        0.000       0.000       0.000       0.000       0.000       0.001       0.010       0.013
  | Times   24:        0.000       0.001       0.001       0.000       0.000       0.000       0.010       0.013
  | Times   25:        0.000       0.000       0.000       0.000       0.000       0.001       0.010       0.013
  | Times   26:        0.000       0.001       0.001       0.000       0.000       0.000       0.010       0.013
  | Times   27:        0.000       0.000       0.000       0.000       0.000       0.001       0.010       0.013
  | Times   28:        0.000       0.001       0.001       0.000       0.000       0.000       0.010       0.013
  | Times   29:        0.000       0.001       0.000       0.000       0.000       0.001       0.010       0.013
  | Times   30:        0.000       0.001       0.001       0.000       0.000       0.001       0.010       0.013
  | Times   31:        0.000       0.000       0.000       0.000       0.000       0.002       0.010       0.013
  | Times   32:        0.000       0.001       0.000       0.000       0.000       0.000       0.011       0.013
  | Times   33:        0.000       0.000       0.000       0.000       0.000       0.001       0.011       0.013
  | Times   34:        0.000       0.001       0.000       0.000       0.000       0.000       0.011       0.013
  | Times   35:        0.000       0.000       0.000       0.000       0.000       0.001       0.011       0.013
  | Times   36:        0.000       0.000       0.000       0.000       0.000       0.000       0.011       0.013
  | Times   37:        0.000       0.000       0.000       0.000       0.000       0.000       0.011       0.013
  | Times   38:        0.000       0.000       0.000       0.000       0.000       0.000       0.011       0.013
  | Times   39:        0.000       0.000       0.000       0.000       0.000       0.001       0.011       0.013
  | Times   40:        0.000       0.001       0.000       0.000       0.000       0.000       0.011       0.013
  | Times   41:        0.000       0.000       0.000       0.000       0.000       0.000       0.011       0.013
  | Times   42:        0.000       0.001       0.000       0.000       0.000       0.000       0.011       0.013
  | Times   43:        0.000       0.000       0.000       0.000       0.000       0.000       0.011       0.013
  | Times   44:        0.000       0.001       0.000       0.000       0.000       0.000       0.010       0.013
  | Times   45:        0.000       0.000       0.000       0.000       0.000       0.000       0.010       0.013
  | Times   46:        0.000       0.001       0.000       0.000       0.000       0.001       0.011       0.013
  | Times   47:        0.000       0.000       0.000       0.000       0.000       0.000       0.010       0.013
  | Times   48:        0.000       0.001       0.000       0.000       0.000       0.000       0.011       0.013
  | Times   49:        0.000       0.000       0.000       0.000       0.000       0.000       0.011       0.013
  | Times   50:        0.000       0.001       0.000       0.000       0.000       0.001       0.011       0.013
  | Times   51:        0.000       0.000       0.000       0.000       0.000       0.000       0.011       0.013
  | Times   52:        0.000       0.001       0.000       0.000       0.000       0.000       0.011       0.013
  | Times   53:        0.000       0.000       0.000       0.000       0.000       0.000       0.011       0.013
  | Times   54:        0.000       0.001       0.000       0.000       0.000       0.001       0.011       0.013
  | Times   55:        0.000       0.000       0.000       0.000       0.000       0.000       0.011       0.013
  | Times   56:        0.000       0.001       0.000       0.000       0.000       0.000       0.011       0.013
  | Times   57:        0.000       0.001       0.000       0.000       0.000       0.000       0.011       0.013
  | Times   58:        0.000       0.001       0.000       0.000       0.000       0.001       0.011       0.013
  | Times   59:        0.000       0.000       0.000       0.000       0.000       0.000       0.011       0.013
  | Times   60:        0.000       0.001       0.000       0.000       0.000       0.000       0.011       0.013
  | Times   61:        0.000       0.000       0.000       0.000       0.000       0.000       0.011       0.013
  | Times   62:        0.000       0.001       0.000       0.000       0.000       0.000       0.011       0.013
  | Times   63:        0.000       0.000       0.000       0.000       0.000       0.000       0.011       0.013
  | Times  sum:        0.011       0.036       0.016       0.010       0.019       0.040       0.670       0.802

  Decomposition of Other based on code block (only on MPI task 0):
  Times             Block #1    Block #2    Block #3    Block #4    Block #5    Block #6    Block #7    Block #8
  | Times    0:        0.000       0.000       0.000       0.000       0.000       0.000       0.000       0.000

  Times             Block #9   Block #10   Block #11   Block #12   Block #13   Block #14   Block #15   Block #16
  | Times    0:        0.000       0.000       0.000       0.001       0.000       0.008       0.000       0.000

  Times            Block Sum    Expected
  | Times    0:        0.009       0.010
  Time for Fock matrix mixing     0.043

  Updating Kohn-Sham eigenvalues and eigenvectors using ELSI and the ELPA eigensolver.
  Starting ELPA eigensolver
  Finished transformation to standard eigenproblem
  | Time :     0.000 s
  Finished solving standard eigenproblem
  | Time :     0.001 s
  Finished back-transformation of eigenvectors
  | Time :     0.000 s

  Obtaining occupation numbers and electronic chemical potential using ELSI.
  | Note that, for insulating systems, the printed 'chemical potential' value is not uniquely defined.
  | It can be anywhere in the energy gap, as long as it correctly separates occupied and unoccupied states.
  | In systems with a gap, the physically relevant chemical potential is the VBM or HOMO.

  | Chemical potential (Fermi level):    -6.02796977 eV
  Highest occupied state (VBM) at     -8.84279037 eV
  | Occupation number:      2.00000000

  Lowest unoccupied state (CBM) at    -3.21314917 eV
  | Occupation number:      0.00000000

  Overall HOMO-LUMO gap:      5.62964119 eV.

  Total energy components:
  | Sum of eigenvalues            :        -192.62295205 Ha       -5241.53721163 eV
  | XC energy correction          :         -13.28110030 Ha        -361.39712696 eV
  | XC potential correction       :          26.93165225 Ha         732.84754453 eV
  | Free-atom electrostatic energy:        -149.49732459 Ha       -4068.02918108 eV
  | Hartree energy correction     :           0.10430720 Ha           2.83834325 eV
  | Entropy correction            :          -0.00000000 Ha          -0.00000000 eV
  | ---------------------------
  | Total energy                  :        -328.36541749 Ha       -8935.27763190 eV
  | Total energy, T -> 0          :        -328.36541749 Ha       -8935.27763190 eV  <-- do not rely on this value for anything but (periodic) metals
  | Electronic free energy        :        -328.36541749 Ha       -8935.27763190 eV

  Derived energy quantities:
  | Kinetic energy                :         328.45284352 Ha        8937.65661523 eV
  | Electrostatic energy          :        -630.72105974 Ha      -17162.79326887 eV
  | Energy correction for multipole
  | error in Hartree potential    :           0.00007524 Ha           0.00204735 eV
  | Sum of eigenvalues per atom                           :       -2620.76860582 eV
  | Total energy (T->0) per atom                          :       -4467.63881595 eV  <-- do not rely on this value for anything but (periodic) metals
  | Electronic free energy per atom                       :       -4467.63881595 eV
  Evaluating new KS density.
  Integration grid: deviation in total charge (<rho> - N_e) =   0.000000E+00

  Self-consistency convergence accuracy:
  | Change of charge density      :  0.1600E+00
  | Change of unmixed KS density  :  0.7220E-02
  | Change of sum of eigenvalues  :  0.2698E+01 eV
  | Change of total energy        :  0.5235E+00 eV


------------------------------------------------------------
  End self-consistency iteration #     3       :  max(cpu_time)    wall_clock(cpu1)
  | Time for this iteration                     :        0.321 s           0.071 s
  | Charge density update                       :        0.001 s           0.001 s
  | Density mixing                              :        0.260 s           0.004 s
  | Hartree multipole update                    :        0.001 s           0.001 s
  | Hartree multipole summation                 :        0.002 s           0.002 s
  | Integration                                 :        0.002 s           0.002 s
  | Fock matrix evaluation                      :        0.060 s           0.056 s
  | Solution of K.-S. eqns.                     :        0.001 s           0.001 s
  | Total energy evaluation                     :        0.000 s           0.000 s

  Partial memory accounting:
  | Current value for overall tracked memory usage:
  |   Minimum:        1.199 MB (on task 14)
  |   Maximum:        1.906 MB (on task 52)
  |   Average:        1.592 MB
  | Peak value for overall tracked memory usage:
  |   Minimum:        1.689 MB (on task 10 after allocating wave)
  |   Maximum:        3.972 MB (on task  1 after allocating ovlp3fn_nosplit%tmploc)
  |   Average:        2.152 MB
  | Largest tracked array allocation so far:
  |   Minimum:        0.919 MB (aux_mat on task  2)
  |   Maximum:        1.655 MB (ovlp3fn_nosplit%dat on task  1)
  |   Average:        1.212 MB
  Note:  These values currently only include a subset of arrays which are explicitly tracked.
  The "true" memory usage will be greater.
------------------------------------------------------------

------------------------------------------------------------
          Begin self-consistency iteration #    4

  Date     :  20260724, Time     :  101714.489
------------------------------------------------------------
  Pulay mixing of updated and previous charge densities.
  Available memory per node after mixing [GB]:   1025.54
  Renormalizing the density to the exact electron count on the 3D integration grid.
  | Formal number of electrons (from input files) :      20.0000000000
  | Integrated number of electrons on 3D grid     :      20.0000000000
  | Charge integration error                      :       0.0000000000
  | Normalization factor for density and gradient :       1.0000000000

  Evaluating partitioned Hartree potential by multipole expansion.
  | Original multipole sum: apparent total charge =  -0.255816E-14
  | Sum of charges compensated after spline to logarithmic grids =  -0.652543E-07
  | Analytical far-field extrapolation by fixed multipoles:
  | Hartree multipole sum: apparent total charge =  -0.108230E-14
  Summing up the Hartree potential.
  Time summed over all CPUs for potential: real work        0.001 s, elapsed        0.001 s
  | RMS charge density error from multipole expansion :   0.111296E-02

  Integrating Hamiltonian matrix: batch-based integration.
  Time summed over all CPUs for integration: real work        0.081 s, elapsed        0.096 s
  Calculating non-local Hartree-Fock exchange by two-center RI (RI-LVL).
  screening_threshold (crit_val) =  0.000000100000
  Exact exchange progress report - outermost block loop i_block: 1 ..       2
  |        1         2  
 Total ovlp3fn data transfer [GB]   4.9095996655523777E-004
  Average sparsity of tmp1/2 0.50000000
  Average sparsity of fock_matrix_row 0.02173913
  Full exact exchange energy: weighted long- and short-range EXX    174.728115472254 eV.
  Times            DM_x_o3fn   CM_prod_1   CM_prod_2   tmp2_prod        Sync   Imbalance       Other  Total calc
  | Times    0:        0.000       0.000       0.000       0.000       0.000       0.000       0.010       0.011
  | Times    1:        0.000       0.000       0.000       0.000       0.000       0.001       0.010       0.011
  | Times    2:        0.000       0.000       0.000       0.000       0.000       0.000       0.010       0.011
  | Times    3:        0.000       0.000       0.000       0.000       0.000       0.001       0.010       0.011
  | Times    4:        0.000       0.001       0.000       0.000       0.000       0.000       0.009       0.011
  | Times    5:        0.000       0.000       0.000       0.000       0.000       0.001       0.009       0.011
  | Times    6:        0.000       0.001       0.001       0.000       0.000       0.000       0.009       0.011
  | Times    7:        0.000       0.000       0.000       0.000       0.000       0.001       0.009       0.011
  | Times    8:        0.000       0.000       0.000       0.000       0.000       0.000       0.010       0.011
  | Times    9:        0.000       0.000       0.000       0.000       0.000       0.001       0.010       0.011
  | Times   10:        0.000       0.000       0.000       0.000       0.000       0.000       0.010       0.011
  | Times   11:        0.000       0.000       0.000       0.000       0.000       0.001       0.010       0.011
  | Times   12:        0.000       0.000       0.000       0.000       0.000       0.000       0.010       0.011
  | Times   13:        0.000       0.000       0.000       0.000       0.000       0.001       0.010       0.011
  | Times   14:        0.000       0.000       0.000       0.000       0.000       0.000       0.010       0.011
  | Times   15:        0.000       0.000       0.000       0.000       0.000       0.001       0.010       0.011
  | Times   16:        0.000       0.000       0.000       0.000       0.000       0.000       0.010       0.011
  | Times   17:        0.000       0.000       0.000       0.000       0.000       0.001       0.010       0.011
  | Times   18:        0.000       0.000       0.000       0.000       0.000       0.000       0.010       0.011
  | Times   19:        0.000       0.000       0.000       0.000       0.000       0.001       0.010       0.011
  | Times   20:        0.000       0.001       0.000       0.000       0.000       0.000       0.009       0.011
  | Times   21:        0.000       0.000       0.000       0.000       0.000       0.001       0.009       0.011
  | Times   22:        0.000       0.001       0.001       0.000       0.000       0.000       0.009       0.011
  | Times   23:        0.000       0.000       0.000       0.000       0.000       0.001       0.009       0.011
  | Times   24:        0.000       0.001       0.000       0.000       0.000       0.000       0.009       0.011
  | Times   25:        0.000       0.000       0.000       0.000       0.000       0.001       0.009       0.011
  | Times   26:        0.000       0.001       0.001       0.000       0.000       0.000       0.009       0.011
  | Times   27:        0.000       0.000       0.000       0.000       0.000       0.001       0.009       0.011
  | Times   28:        0.000       0.000       0.000       0.000       0.000       0.000       0.011       0.011
  | Times   29:        0.000       0.000       0.000       0.000       0.000       0.000       0.011       0.011
  | Times   30:        0.000       0.000       0.000       0.000       0.000       0.000       0.010       0.011
  | Times   31:        0.000       0.000       0.000       0.000       0.000       0.000       0.011       0.011
  | Times   32:        0.000       0.000       0.000       0.000       0.000       0.000       0.010       0.011
  | Times   33:        0.000       0.000       0.000       0.000       0.000       0.001       0.010       0.011
  | Times   34:        0.000       0.000       0.000       0.000       0.000       0.000       0.010       0.011
  | Times   35:        0.000       0.000       0.000       0.000       0.000       0.001       0.010       0.011
  | Times   36:        0.000       0.001       0.000       0.000       0.000       0.000       0.009       0.011
  | Times   37:        0.000       0.000       0.000       0.000       0.000       0.001       0.009       0.011
  | Times   38:        0.000       0.001       0.000       0.000       0.000       0.000       0.009       0.011
  | Times   39:        0.000       0.000       0.000       0.000       0.000       0.001       0.009       0.011
  | Times   40:        0.000       0.001       0.000       0.000       0.000       0.000       0.009       0.011
  | Times   41:        0.000       0.001       0.000       0.000       0.000       0.001       0.009       0.011
  | Times   42:        0.000       0.001       0.000       0.000       0.000       0.001       0.009       0.011
  | Times   43:        0.000       0.000       0.000       0.000       0.000       0.001       0.009       0.011
  | Times   44:        0.000       0.001       0.000       0.000       0.000       0.000       0.009       0.011
  | Times   45:        0.000       0.000       0.000       0.000       0.000       0.000       0.010       0.011
  | Times   46:        0.000       0.001       0.000       0.000       0.000       0.000       0.010       0.011
  | Times   47:        0.000       0.000       0.000       0.000       0.000       0.000       0.010       0.011
  | Times   48:        0.000       0.001       0.000       0.000       0.000       0.000       0.009       0.011
  | Times   49:        0.000       0.001       0.000       0.000       0.000       0.000       0.009       0.011
  | Times   50:        0.000       0.001       0.000       0.000       0.000       0.001       0.009       0.011
  | Times   51:        0.000       0.000       0.000       0.000       0.000       0.000       0.009       0.011
  | Times   52:        0.000       0.001       0.000       0.000       0.000       0.001       0.009       0.011
  | Times   53:        0.000       0.001       0.000       0.000       0.000       0.000       0.009       0.011
  | Times   54:        0.000       0.001       0.000       0.000       0.000       0.001       0.009       0.011
  | Times   55:        0.000       0.000       0.000       0.000       0.000       0.001       0.009       0.011
  | Times   56:        0.000       0.001       0.000       0.000       0.000       0.001       0.009       0.011
  | Times   57:        0.000       0.001       0.000       0.000       0.000       0.000       0.009       0.011
  | Times   58:        0.000       0.001       0.000       0.000       0.000       0.001       0.009       0.011
  | Times   59:        0.000       0.000       0.000       0.000       0.000       0.000       0.009       0.011
  | Times   60:        0.000       0.001       0.000       0.000       0.000       0.000       0.009       0.011
  | Times   61:        0.000       0.001       0.000       0.000       0.000       0.000       0.009       0.011
  | Times   62:        0.000       0.001       0.000       0.000       0.000       0.001       0.009       0.011
  | Times   63:        0.000       0.000       0.000       0.000       0.000       0.001       0.009       0.011
  | Times  sum:        0.010       0.030       0.012       0.011       0.018       0.028       0.609       0.718

  Decomposition of Other based on code block (only on MPI task 0):
  Times             Block #1    Block #2    Block #3    Block #4    Block #5    Block #6    Block #7    Block #8
  | Times    0:        0.000       0.000       0.000       0.000       0.000       0.000       0.000       0.000

  Times             Block #9   Block #10   Block #11   Block #12   Block #13   Block #14   Block #15   Block #16
  | Times    0:        0.000       0.000       0.000       0.001       0.000       0.007       0.000       0.000

  Times            Block Sum    Expected
  | Times    0:        0.009       0.010
  Time for Fock matrix mixing     0.000

  Updating Kohn-Sham eigenvalues and eigenvectors using ELSI and the ELPA eigensolver.
  Starting ELPA eigensolver
  Finished transformation to standard eigenproblem
  | Time :     0.000 s
  Finished solving standard eigenproblem
  | Time :     0.001 s
  Finished back-transformation of eigenvectors
  | Time :     0.000 s

  Obtaining occupation numbers and electronic chemical potential using ELSI.
  | Note that, for insulating systems, the printed 'chemical potential' value is not uniquely defined.
  | It can be anywhere in the energy gap, as long as it correctly separates occupied and unoccupied states.
  | In systems with a gap, the physically relevant chemical potential is the VBM or HOMO.

  | Chemical potential (Fermi level):    -6.31183197 eV
  Highest occupied state (VBM) at     -9.07243843 eV
  | Occupation number:      2.00000000

  Lowest unoccupied state (CBM) at    -3.55122550 eV
  | Occupation number:      0.00000000

  Overall HOMO-LUMO gap:      5.52121293 eV.

  Total energy components:
  | Sum of eigenvalues            :        -192.53826174 Ha       -5239.23267120 eV
  | XC energy correction          :         -13.26009549 Ha        -360.82555682 eV
  | XC potential correction       :          26.91358810 Ha         732.35599406 eV
  | Free-atom electrostatic energy:        -149.49732459 Ha       -4068.02918108 eV
  | Hartree energy correction     :           0.02136058 Ha           0.58125094 eV
  | Entropy correction            :          -0.00000000 Ha          -0.00000000 eV
  | ---------------------------
  | Total energy                  :        -328.36073314 Ha       -8935.15016409 eV
  | Total energy, T -> 0          :        -328.36073314 Ha       -8935.15016409 eV  <-- do not rely on this value for anything but (periodic) metals
  | Electronic free energy        :        -328.36073314 Ha       -8935.15016409 eV

  Derived energy quantities:
  | Kinetic energy                :         328.41845521 Ha        8936.72086156 eV
  | Electrostatic energy          :        -630.68654186 Ha      -17161.85398963 eV
  | Energy correction for multipole
  | error in Hartree potential    :          -0.00004431 Ha          -0.00120582 eV
  | Sum of eigenvalues per atom                           :       -2619.61633560 eV
  | Total energy (T->0) per atom                          :       -4467.57508205 eV  <-- do not rely on this value for anything but (periodic) metals
  | Electronic free energy per atom                       :       -4467.57508205 eV
  Evaluating new KS density.
  Integration grid: deviation in total charge (<rho> - N_e) =   3.552714E-15

  Self-consistency convergence accuracy:
  | Change of charge density      :  0.7779E-01
  | Change of unmixed KS density  :  0.1087E+00
  | Change of sum of eigenvalues  :  0.2305E+01 eV
  | Change of total energy        :  0.1275E+00 eV


------------------------------------------------------------
  End self-consistency iteration #     4       :  max(cpu_time)    wall_clock(cpu1)
  | Time for this iteration                     :        0.258 s           0.207 s
  | Charge density update                       :        0.001 s           0.002 s
  | Density mixing                              :        0.244 s           0.188 s
  | Hartree multipole update                    :        0.001 s           0.001 s
  | Hartree multipole summation                 :        0.002 s           0.002 s
  | Integration                                 :        0.002 s           0.001 s
  | Fock matrix evaluation                      :        0.012 s           0.012 s
  | Solution of K.-S. eqns.                     :        0.001 s           0.001 s
  | Total energy evaluation                     :        0.000 s           0.000 s

  Partial memory accounting:
  | Current value for overall tracked memory usage:
  |   Minimum:        1.199 MB (on task 14)
  |   Maximum:        1.906 MB (on task 52)
  |   Average:        1.592 MB
  | Peak value for overall tracked memory usage:
  |   Minimum:        1.689 MB (on task 10 after allocating wave)
  |   Maximum:        3.972 MB (on task  1 after allocating ovlp3fn_nosplit%tmploc)
  |   Average:        2.152 MB
  | Largest tracked array allocation so far:
  |   Minimum:        0.919 MB (aux_mat on task  2)
  |   Maximum:        1.655 MB (ovlp3fn_nosplit%dat on task  1)
  |   Average:        1.212 MB
  Note:  These values currently only include a subset of arrays which are explicitly tracked.
  The "true" memory usage will be greater.
------------------------------------------------------------

------------------------------------------------------------
          Begin self-consistency iteration #    5

  Date     :  20260724, Time     :  101714.813
------------------------------------------------------------
  Pulay mixing of updated and previous charge densities.
  Available memory per node after mixing [GB]:   1025.54
  Renormalizing the density to the exact electron count on the 3D integration grid.
  | Formal number of electrons (from input files) :      20.0000000000
  | Integrated number of electrons on 3D grid     :      20.0000000000
  | Charge integration error                      :      -0.0000000000
  | Normalization factor for density and gradient :       1.0000000000

  Evaluating partitioned Hartree potential by multipole expansion.
  | Original multipole sum: apparent total charge =  -0.118069E-13
  | Sum of charges compensated after spline to logarithmic grids =  -0.471685E-07
  | Analytical far-field extrapolation by fixed multipoles:
  | Hartree multipole sum: apparent total charge =  -0.120037E-13
  Summing up the Hartree potential.
  Time summed over all CPUs for potential: real work        0.001 s, elapsed        0.001 s
  | RMS charge density error from multipole expansion :   0.128568E-02

  Integrating Hamiltonian matrix: batch-based integration.
  Time summed over all CPUs for integration: real work        0.080 s, elapsed        0.095 s
  Calculating non-local Hartree-Fock exchange by two-center RI (RI-LVL).
  screening_threshold (crit_val) =  0.000000100000
  Exact exchange progress report - outermost block loop i_block: 1 ..       3
  |        1         2         3  
 Total ovlp3fn data transfer [GB]   7.3643994983285666E-004
  Average sparsity of tmp1/2 0.50000000
  Average sparsity of fock_matrix_row 0.02173913
  Full exact exchange energy: weighted long- and short-range EXX    174.937936682990 eV.
  Times            DM_x_o3fn   CM_prod_1   CM_prod_2   tmp2_prod        Sync   Imbalance       Other  Total calc
  | Times    0:        0.000       0.001       0.000       0.000       0.000       0.000       0.010       0.011
  | Times    1:        0.000       0.000       0.000       0.000       0.000       0.001       0.009       0.011
  | Times    2:        0.000       0.001       0.001       0.000       0.000       0.000       0.009       0.011
  | Times    3:        0.000       0.000       0.000       0.000       0.000       0.001       0.009       0.011
  | Times    4:        0.000       0.000       0.000       0.000       0.000       0.000       0.010       0.011
  | Times    5:        0.000       0.000       0.000       0.000       0.000       0.001       0.010       0.011
  | Times    6:        0.000       0.000       0.000       0.000       0.000       0.000       0.010       0.011
  | Times    7:        0.000       0.000       0.000       0.000       0.000       0.001       0.010       0.011
  | Times    8:        0.000       0.001       0.000       0.000       0.000       0.000       0.010       0.011
  | Times    9:        0.000       0.000       0.000       0.000       0.000       0.001       0.009       0.011
  | Times   10:        0.000       0.001       0.001       0.000       0.000       0.000       0.009       0.011
  | Times   11:        0.000       0.000       0.000       0.000       0.000       0.001       0.009       0.011
  | Times   12:        0.000       0.000       0.000       0.000       0.000       0.000       0.010       0.011
  | Times   13:        0.000       0.000       0.000       0.000       0.000       0.001       0.010       0.011
  | Times   14:        0.000       0.000       0.000       0.000       0.000       0.000       0.010       0.011
  | Times   15:        0.000       0.000       0.000       0.000       0.000       0.001       0.010       0.011
  | Times   16:        0.000       0.000       0.000       0.000       0.000       0.000       0.010       0.011
  | Times   17:        0.000       0.000       0.000       0.000       0.000       0.001       0.010       0.011
  | Times   18:        0.000       0.000       0.000       0.000       0.000       0.000       0.010       0.011
  | Times   19:        0.000       0.000       0.000       0.000       0.000       0.001       0.010       0.011
  | Times   20:        0.000       0.001       0.000       0.000       0.000       0.000       0.010       0.011
  | Times   21:        0.000       0.000       0.000       0.000       0.000       0.001       0.010       0.011
  | Times   22:        0.000       0.001       0.000       0.000       0.000       0.000       0.009       0.011
  | Times   23:        0.000       0.000       0.000       0.000       0.000       0.001       0.010       0.011
  | Times   24:        0.000       0.001       0.000       0.000       0.000       0.000       0.010       0.011
  | Times   25:        0.000       0.000       0.000       0.000       0.000       0.001       0.009       0.011
  | Times   26:        0.000       0.001       0.001       0.000       0.000       0.000       0.009       0.011
  | Times   27:        0.000       0.000       0.000       0.000       0.000       0.001       0.009       0.011
  | Times   28:        0.000       0.000       0.000       0.000       0.000       0.000       0.010       0.011
  | Times   29:        0.000       0.000       0.000       0.000       0.000       0.001       0.010       0.011
  | Times   30:        0.000       0.000       0.000       0.000       0.000       0.000       0.010       0.011
  | Times   31:        0.000       0.000       0.000       0.000       0.000       0.001       0.010       0.011
  | Times   32:        0.000       0.001       0.000       0.000       0.000       0.000       0.010       0.011
  | Times   33:        0.000       0.000       0.000       0.000       0.000       0.001       0.009       0.011
  | Times   34:        0.000       0.001       0.000       0.000       0.000       0.000       0.009       0.011
  | Times   35:        0.000       0.000       0.000       0.000       0.000       0.001       0.009       0.011
  | Times   36:        0.000       0.001       0.000       0.000       0.000       0.000       0.010       0.011
  | Times   37:        0.000       0.000       0.000       0.000       0.000       0.001       0.010       0.011
  | Times   38:        0.000       0.001       0.000       0.000       0.000       0.000       0.010       0.011
  | Times   39:        0.000       0.000       0.000       0.000       0.000       0.001       0.010       0.011
  | Times   40:        0.000       0.001       0.000       0.000       0.000       0.000       0.010       0.011
  | Times   41:        0.000       0.000       0.000       0.000       0.000       0.000       0.010       0.011
  | Times   42:        0.000       0.001       0.000       0.000       0.000       0.000       0.010       0.011
  | Times   43:        0.000       0.000       0.000       0.000       0.000       0.000       0.010       0.011
  | Times   44:        0.000       0.001       0.000       0.000       0.000       0.000       0.010       0.011
  | Times   45:        0.000       0.000       0.000       0.000       0.000       0.000       0.010       0.011
  | Times   46:        0.000       0.001       0.000       0.000       0.000       0.000       0.010       0.011
  | Times   47:        0.000       0.000       0.000       0.000       0.000       0.000       0.010       0.011
  | Times   48:        0.000       0.001       0.000       0.000       0.000       0.000       0.009       0.011
  | Times   49:        0.000       0.000       0.000       0.000       0.000       0.000       0.009       0.011
  | Times   50:        0.000       0.001       0.000       0.000       0.000       0.001       0.010       0.011
  | Times   51:        0.000       0.000       0.000       0.000       0.000       0.000       0.009       0.011
  | Times   52:        0.000       0.001       0.000       0.000       0.000       0.000       0.010       0.011
  | Times   53:        0.000       0.000       0.000       0.000       0.000       0.000       0.010       0.011
  | Times   54:        0.000       0.001       0.000       0.000       0.000       0.000       0.010       0.011
  | Times   55:        0.000       0.000       0.000       0.000       0.000       0.000       0.010       0.011
  | Times   56:        0.000       0.001       0.000       0.000       0.000       0.000       0.009       0.011
  | Times   57:        0.000       0.001       0.000       0.000       0.000       0.000       0.010       0.011
  | Times   58:        0.000       0.001       0.000       0.000       0.000       0.001       0.010       0.011
  | Times   59:        0.000       0.000       0.000       0.000       0.000       0.000       0.010       0.011
  | Times   60:        0.000       0.001       0.000       0.000       0.000       0.000       0.010       0.011
  | Times   61:        0.000       0.000       0.000       0.000       0.000       0.000       0.010       0.011
  | Times   62:        0.000       0.001       0.000       0.000       0.000       0.000       0.010       0.011
  | Times   63:        0.000       0.000       0.000       0.000       0.000       0.000       0.010       0.011
  | Times  sum:        0.010       0.030       0.012       0.011       0.018       0.028       0.620       0.729

  Decomposition of Other based on code block (only on MPI task 0):
  Times             Block #1    Block #2    Block #3    Block #4    Block #5    Block #6    Block #7    Block #8
  | Times    0:        0.000       0.000       0.000       0.000       0.000       0.000       0.000       0.000

  Times             Block #9   Block #10   Block #11   Block #12   Block #13   Block #14   Block #15   Block #16
  | Times    0:        0.000       0.000       0.000       0.001       0.000       0.008       0.000       0.000

  Times            Block Sum    Expected
  | Times    0:        0.009       0.010
  Time for Fock matrix mixing     0.000

  Updating Kohn-Sham eigenvalues and eigenvectors using ELSI and the ELPA eigensolver.
  Starting ELPA eigensolver
  Finished transformation to standard eigenproblem
  | Time :     0.000 s
  Finished solving standard eigenproblem
  | Time :     0.025 s
  Finished back-transformation of eigenvectors
  | Time :     0.000 s

  Obtaining occupation numbers and electronic chemical potential using ELSI.
  | Note that, for insulating systems, the printed 'chemical potential' value is not uniquely defined.
  | It can be anywhere in the energy gap, as long as it correctly separates occupied and unoccupied states.
  | In systems with a gap, the physically relevant chemical potential is the VBM or HOMO.

  | Chemical potential (Fermi level):    -6.27661421 eV
  Highest occupied state (VBM) at     -9.00030705 eV
  | Occupation number:      2.00000000

  Lowest unoccupied state (CBM) at    -3.55292138 eV
  | Occupation number:      0.00000000

  Overall HOMO-LUMO gap:      5.44738566 eV.

  Total energy components:
  | Sum of eigenvalues            :        -192.49885032 Ha       -5238.16023195 eV
  | XC energy correction          :         -13.25832740 Ha        -360.77744478 eV
  | XC potential correction       :          26.91355163 Ha         732.35500155 eV
  | Free-atom electrostatic energy:        -149.49732459 Ha       -4068.02918108 eV
  | Hartree energy correction     :          -0.02288509 Ha          -0.62273495 eV
  | Entropy correction            :          -0.00000000 Ha          -0.00000000 eV
  | ---------------------------
  | Total energy                  :        -328.36383578 Ha       -8935.23459122 eV
  | Total energy, T -> 0          :        -328.36383578 Ha       -8935.23459122 eV  <-- do not rely on this value for anything but (periodic) metals
  | Electronic free energy        :        -328.36383578 Ha       -8935.23459122 eV

  Derived energy quantities:
  | Kinetic energy                :         328.40215225 Ha        8936.27723540 eV
  | Electrostatic energy          :        -630.67173234 Ha      -17161.45100187 eV
  | Energy correction for multipole
  | error in Hartree potential    :          -0.00007899 Ha          -0.00214932 eV
  | Sum of eigenvalues per atom                           :       -2619.08011598 eV
  | Total energy (T->0) per atom                          :       -4467.61729561 eV  <-- do not rely on this value for anything but (periodic) metals
  | Electronic free energy per atom                       :       -4467.61729561 eV
  Evaluating new KS density.
  Integration grid: deviation in total charge (<rho> - N_e) =   7.105427E-15

  Self-consistency convergence accuracy:
  | Change of charge density      :  0.4959E-01
  | Change of unmixed KS density  :  0.3522E-01
  | Change of sum of eigenvalues  :  0.1072E+01 eV
  | Change of total energy        : -0.8443E-01 eV


------------------------------------------------------------
  End self-consistency iteration #     5       :  max(cpu_time)    wall_clock(cpu1)
  | Time for this iteration                     :        0.354 s           0.256 s
  | Charge density update                       :        0.001 s           0.000 s
  | Density mixing                              :        0.318 s           0.214 s
  | Hartree multipole update                    :        0.001 s           0.001 s
  | Hartree multipole summation                 :        0.002 s           0.002 s
  | Integration                                 :        0.002 s           0.001 s
  | Fock matrix evaluation                      :        0.012 s           0.012 s
  | Solution of K.-S. eqns.                     :        0.025 s           0.025 s
  | Total energy evaluation                     :        0.000 s           0.000 s

  Partial memory accounting:
  | Current value for overall tracked memory usage:
  |   Minimum:        1.199 MB (on task 14)
  |   Maximum:        1.906 MB (on task 52)
  |   Average:        1.592 MB
  | Peak value for overall tracked memory usage:
  |   Minimum:        1.689 MB (on task 10 after allocating wave)
  |   Maximum:        3.972 MB (on task  1 after allocating ovlp3fn_nosplit%tmploc)
  |   Average:        2.152 MB
  | Largest tracked array allocation so far:
  |   Minimum:        0.919 MB (aux_mat on task  2)
  |   Maximum:        1.655 MB (ovlp3fn_nosplit%dat on task  1)
  |   Average:        1.212 MB
  Note:  These values currently only include a subset of arrays which are explicitly tracked.
  The "true" memory usage will be greater.
------------------------------------------------------------

------------------------------------------------------------
          Begin self-consistency iteration #    6

  Date     :  20260724, Time     :  101715.205
------------------------------------------------------------
  Pulay mixing of updated and previous charge densities.
  Available memory per node after mixing [GB]:   1025.54
  Renormalizing the density to the exact electron count on the 3D integration grid.
  | Formal number of electrons (from input files) :      20.0000000000
  | Integrated number of electrons on 3D grid     :      20.0000000000
  | Charge integration error                      :      -0.0000000000
  | Normalization factor for density and gradient :       1.0000000000

  Evaluating partitioned Hartree potential by multipole expansion.
  | Original multipole sum: apparent total charge =  -0.688737E-15
  | Sum of charges compensated after spline to logarithmic grids =   0.142907E-06
  | Analytical far-field extrapolation by fixed multipoles:
  | Hartree multipole sum: apparent total charge =  -0.157426E-14
  Summing up the Hartree potential.
  Time summed over all CPUs for potential: real work        0.001 s, elapsed        0.001 s
  | RMS charge density error from multipole expansion :   0.155043E-02

  Integrating Hamiltonian matrix: batch-based integration.
  Time summed over all CPUs for integration: real work        0.081 s, elapsed        0.096 s
  Calculating non-local Hartree-Fock exchange by two-center RI (RI-LVL).
  screening_threshold (crit_val) =  0.000000100000
  Exact exchange progress report - outermost block loop i_block: 1 ..       3
  |        1         2         3  
 Total ovlp3fn data transfer [GB]   7.3643994983285666E-004
  Average sparsity of tmp1/2 0.50000000
  Average sparsity of fock_matrix_row 0.02173913
  Full exact exchange energy: weighted long- and short-range EXX    174.925791148488 eV.
  Times            DM_x_o3fn   CM_prod_1   CM_prod_2   tmp2_prod        Sync   Imbalance       Other  Total calc
  | Times    0:        0.000       0.001       0.000       0.000       0.000       0.000       0.009       0.011
  | Times    1:        0.000       0.000       0.000       0.000       0.000       0.001       0.009       0.011
  | Times    2:        0.000       0.001       0.000       0.000       0.000       0.000       0.009       0.011
  | Times    3:        0.000       0.000       0.000       0.000       0.000       0.001       0.009       0.011
  | Times    4:        0.000       0.000       0.000       0.000       0.000       0.000       0.010       0.011
  | Times    5:        0.000       0.000       0.000       0.000       0.000       0.001       0.010       0.011
  | Times    6:        0.000       0.000       0.000       0.000       0.000       0.000       0.010       0.011
  | Times    7:        0.000       0.000       0.000       0.000       0.000       0.001       0.010       0.011
  | Times    8:        0.000       0.001       0.000       0.000       0.000       0.000       0.009       0.011
  | Times    9:        0.000       0.000       0.000       0.000       0.000       0.001       0.009       0.011
  | Times   10:        0.000       0.001       0.000       0.000       0.000       0.000       0.009       0.011
  | Times   11:        0.000       0.000       0.000       0.000       0.000       0.001       0.009       0.011
  | Times   12:        0.000       0.000       0.000       0.000       0.000       0.000       0.010       0.011
  | Times   13:        0.000       0.000       0.000       0.000       0.000       0.001       0.010       0.011
  | Times   14:        0.000       0.000       0.000       0.000       0.000       0.000       0.010       0.011
  | Times   15:        0.000       0.000       0.000       0.000       0.000       0.001       0.010       0.011
  | Times   16:        0.000       0.001       0.000       0.000       0.000       0.000       0.009       0.011
  | Times   17:        0.000       0.000       0.000       0.000       0.000       0.001       0.009       0.011
  | Times   18:        0.000       0.001       0.000       0.000       0.000       0.000       0.009       0.011
  | Times   19:        0.000       0.000       0.000       0.000       0.000       0.001       0.009       0.011
  | Times   20:        0.000       0.000       0.000       0.000       0.000       0.000       0.010       0.011
  | Times   21:        0.000       0.000       0.000       0.000       0.000       0.001       0.010       0.011
  | Times   22:        0.000       0.000       0.000       0.000       0.000       0.000       0.010       0.011
  | Times   23:        0.000       0.000       0.000       0.000       0.000       0.001       0.010       0.011
  | Times   24:        0.000       0.001       0.000       0.000       0.000       0.000       0.009       0.011
  | Times   25:        0.000       0.000       0.000       0.000       0.000       0.001       0.009       0.011
  | Times   26:        0.000       0.001       0.000       0.000       0.000       0.000       0.009       0.011
  | Times   27:        0.000       0.000       0.000       0.000       0.000       0.001       0.009       0.011
  | Times   28:        0.000       0.001       0.000       0.000       0.000       0.000       0.009       0.011
  | Times   29:        0.000       0.000       0.000       0.000       0.000       0.001       0.009       0.011
  | Times   30:        0.000       0.001       0.000       0.000       0.000       0.000       0.009       0.011
  | Times   31:        0.000       0.000       0.000       0.000       0.000       0.001       0.009       0.011
  | Times   32:        0.000       0.000       0.000       0.000       0.000       0.000       0.010       0.011
  | Times   33:        0.000       0.000       0.000       0.000       0.000       0.001       0.010       0.011
  | Times   34:        0.000       0.000       0.000       0.000       0.000       0.000       0.010       0.011
  | Times   35:        0.000       0.000       0.000       0.000       0.000       0.001       0.010       0.011
  | Times   36:        0.000       0.001       0.000       0.000       0.000       0.000       0.009       0.011
  | Times   37:        0.000       0.000       0.000       0.000       0.000       0.001       0.009       0.011
  | Times   38:        0.000       0.001       0.000       0.000       0.000       0.000       0.009       0.011
  | Times   39:        0.000       0.000       0.000       0.000       0.000       0.001       0.009       0.011
  | Times   40:        0.000       0.001       0.000       0.000       0.000       0.000       0.009       0.011
  | Times   41:        0.000       0.000       0.000       0.000       0.000       0.000       0.009       0.011
  | Times   42:        0.000       0.001       0.000       0.000       0.000       0.001       0.009       0.011
  | Times   43:        0.000       0.000       0.000       0.000       0.000       0.000       0.009       0.011
  | Times   44:        0.000       0.001       0.000       0.000       0.000       0.000       0.009       0.011
  | Times   45:        0.000       0.000       0.000       0.000       0.000       0.000       0.009       0.011
  | Times   46:        0.000       0.001       0.000       0.000       0.000       0.000       0.010       0.011
  | Times   47:        0.000       0.000       0.000       0.000       0.000       0.000       0.009       0.011
  | Times   48:        0.000       0.001       0.000       0.000       0.000       0.000       0.009       0.011
  | Times   49:        0.000       0.000       0.000       0.000       0.000       0.000       0.010       0.011
  | Times   50:        0.000       0.001       0.000       0.000       0.000       0.000       0.010       0.011
  | Times   51:        0.000       0.000       0.000       0.000       0.000       0.000       0.010       0.011
  | Times   52:        0.000       0.001       0.000       0.000       0.000       0.000       0.009       0.011
  | Times   53:        0.000       0.000       0.000       0.000       0.000       0.000       0.010       0.011
  | Times   54:        0.000       0.001       0.000       0.000       0.000       0.000       0.010       0.011
  | Times   55:        0.000       0.000       0.000       0.000       0.000       0.000       0.010       0.011
  | Times   56:        0.000       0.001       0.000       0.000       0.000       0.000       0.009       0.011
  | Times   57:        0.000       0.001       0.000       0.000       0.000       0.000       0.009       0.011
  | Times   58:        0.000       0.001       0.000       0.000       0.000       0.001       0.009       0.011
  | Times   59:        0.000       0.000       0.000       0.000       0.000       0.001       0.009       0.011
  | Times   60:        0.000       0.001       0.000       0.000       0.000       0.000       0.010       0.011
  | Times   61:        0.000       0.000       0.000       0.000       0.000       0.000       0.010       0.011
  | Times   62:        0.000       0.001       0.000       0.000       0.000       0.000       0.010       0.011
  | Times   63:        0.000       0.000       0.000       0.000       0.000       0.000       0.010       0.011
  | Times  sum:        0.010       0.030       0.012       0.011       0.017       0.028       0.599       0.709

  Decomposition of Other based on code block (only on MPI task 0):
  Times             Block #1    Block #2    Block #3    Block #4    Block #5    Block #6    Block #7    Block #8
  | Times    0:        0.000       0.000       0.000       0.000       0.000       0.000       0.000       0.000

  Times             Block #9   Block #10   Block #11   Block #12   Block #13   Block #14   Block #15   Block #16
  | Times    0:        0.000       0.000       0.000       0.001       0.000       0.007       0.000       0.000

  Times            Block Sum    Expected
  | Times    0:        0.009       0.009
  Time for Fock matrix mixing     0.000

  Updating Kohn-Sham eigenvalues and eigenvectors using ELSI and the ELPA eigensolver.
  Starting ELPA eigensolver
  Finished transformation to standard eigenproblem
  | Time :     0.000 s
  Finished solving standard eigenproblem
  | Time :     0.001 s
  Finished back-transformation of eigenvectors
  | Time :     0.000 s

  Obtaining occupation numbers and electronic chemical potential using ELSI.
  | Note that, for insulating systems, the printed 'chemical potential' value is not uniquely defined.
  | It can be anywhere in the energy gap, as long as it correctly separates occupied and unoccupied states.
  | In systems with a gap, the physically relevant chemical potential is the VBM or HOMO.

  | Chemical potential (Fermi level):    -6.14901638 eV
  Highest occupied state (VBM) at     -8.96280102 eV
  | Occupation number:      2.00000000

  Lowest unoccupied state (CBM) at    -3.33523174 eV
  | Occupation number:      0.00000000

  Overall HOMO-LUMO gap:      5.62756929 eV.

  Total energy components:
  | Sum of eigenvalues            :        -192.33440728 Ha       -5233.68550918 eV
  | XC energy correction          :         -13.26339081 Ha        -360.91522703 eV
  | XC potential correction       :          26.93802418 Ha         733.02093361 eV
  | Free-atom electrostatic energy:        -149.49732459 Ha       -4068.02918108 eV
  | Hartree energy correction     :          -0.21913253 Ha          -5.96289964 eV
  | Entropy correction            :          -0.00000000 Ha          -0.00000000 eV
  | ---------------------------
  | Total energy                  :        -328.37623103 Ha       -8935.57188332 eV
  | Total energy, T -> 0          :        -328.37623103 Ha       -8935.57188332 eV  <-- do not rely on this value for anything but (periodic) metals
  | Electronic free energy        :        -328.37623103 Ha       -8935.57188332 eV

  Derived energy quantities:
  | Kinetic energy                :         328.56224666 Ha        8940.63362612 eV
  | Electrostatic energy          :        -630.81480255 Ha      -17165.34414046 eV
  | Energy correction for multipole
  | error in Hartree potential    :          -0.00005603 Ha          -0.00152478 eV
  | Sum of eigenvalues per atom                           :       -2616.84275459 eV
  | Total energy (T->0) per atom                          :       -4467.78594166 eV  <-- do not rely on this value for anything but (periodic) metals
  | Electronic free energy per atom                       :       -4467.78594166 eV
  Evaluating new KS density.
  Integration grid: deviation in total charge (<rho> - N_e) =   0.000000E+00

  Self-consistency convergence accuracy:
  | Change of charge density      :  0.3860E-01
  | Change of unmixed KS density  :  0.9240E-02
  | Change of sum of eigenvalues  :  0.4475E+01 eV
  | Change of total energy        : -0.3373E+00 eV


------------------------------------------------------------
  End self-consistency iteration #     6       :  max(cpu_time)    wall_clock(cpu1)
  | Time for this iteration                     :        0.277 s           0.150 s
  | Charge density update                       :        0.001 s           0.001 s
  | Density mixing                              :        0.258 s           0.132 s
  | Hartree multipole update                    :        0.001 s           0.001 s
  | Hartree multipole summation                 :        0.002 s           0.001 s
  | Integration                                 :        0.002 s           0.002 s
  | Fock matrix evaluation                      :        0.012 s           0.012 s
  | Solution of K.-S. eqns.                     :        0.001 s           0.001 s
  | Total energy evaluation                     :        0.000 s           0.000 s

  Partial memory accounting:
  | Current value for overall tracked memory usage:
  |   Minimum:        1.199 MB (on task 14)
  |   Maximum:        1.906 MB (on task 52)
  |   Average:        1.592 MB
  | Peak value for overall tracked memory usage:
  |   Minimum:        1.689 MB (on task 10 after allocating wave)
  |   Maximum:        3.972 MB (on task  1 after allocating ovlp3fn_nosplit%tmploc)
  |   Average:        2.152 MB
  | Largest tracked array allocation so far:
  |   Minimum:        0.919 MB (aux_mat on task  2)
  |   Maximum:        1.655 MB (ovlp3fn_nosplit%dat on task  1)
  |   Average:        1.212 MB
  Note:  These values currently only include a subset of arrays which are explicitly tracked.
  The "true" memory usage will be greater.
------------------------------------------------------------

------------------------------------------------------------
          Begin self-consistency iteration #    7

  Date     :  20260724, Time     :  101715.640
------------------------------------------------------------
  Pulay mixing of updated and previous charge densities.
  Available memory per node after mixing [GB]:   1025.54
  Renormalizing the density to the exact electron count on the 3D integration grid.
  | Formal number of electrons (from input files) :      20.0000000000
  | Integrated number of electrons on 3D grid     :      20.0000000000
  | Charge integration error                      :       0.0000000000
  | Normalization factor for density and gradient :       1.0000000000

  Evaluating partitioned Hartree potential by multipole expansion.
  | Original multipole sum: apparent total charge =  -0.113150E-14
  | Sum of charges compensated after spline to logarithmic grids =   0.148367E-06
  | Analytical far-field extrapolation by fixed multipoles:
  | Hartree multipole sum: apparent total charge =  -0.191862E-14
  Summing up the Hartree potential.
  Time summed over all CPUs for potential: real work        0.001 s, elapsed        0.002 s
  | RMS charge density error from multipole expansion :   0.157645E-02

  Integrating Hamiltonian matrix: batch-based integration.
  Time summed over all CPUs for integration: real work        0.084 s, elapsed        0.102 s
  Calculating non-local Hartree-Fock exchange by two-center RI (RI-LVL).
  screening_threshold (crit_val) =  0.000000100000
  Exact exchange progress report - outermost block loop i_block: 1 ..       3
  |        1         2         3  
 Total ovlp3fn data transfer [GB]   7.3643994983285666E-004
  Average sparsity of tmp1/2 0.50000000
  Average sparsity of fock_matrix_row 0.02173913
  Full exact exchange energy: weighted long- and short-range EXX    174.966897673306 eV.
  Times            DM_x_o3fn   CM_prod_1   CM_prod_2   tmp2_prod        Sync   Imbalance       Other  Total calc
  | Times    0:        0.000       0.001       0.000       0.000       0.000       0.000       0.009       0.011
  | Times    1:        0.000       0.000       0.000       0.000       0.000       0.001       0.009       0.011
  | Times    2:        0.000       0.001       0.001       0.000       0.000       0.000       0.008       0.011
  | Times    3:        0.000       0.000       0.000       0.000       0.000       0.001       0.009       0.011
  | Times    4:        0.000       0.001       0.000       0.000       0.000       0.000       0.009       0.011
  | Times    5:        0.000       0.000       0.000       0.000       0.000       0.001       0.009       0.011
  | Times    6:        0.000       0.001       0.001       0.000       0.000       0.000       0.009       0.011
  | Times    7:        0.000       0.000       0.000       0.000       0.000       0.001       0.009       0.011
  | Times    8:        0.000       0.000       0.000       0.000       0.000       0.000       0.009       0.011
  | Times    9:        0.000       0.000       0.000       0.000       0.000       0.001       0.009       0.011
  | Times   10:        0.000       0.000       0.000       0.000       0.000       0.000       0.009       0.011
  | Times   11:        0.000       0.000       0.000       0.000       0.000       0.001       0.009       0.011
  | Times   12:        0.000       0.001       0.000       0.000       0.000       0.000       0.009       0.011
  | Times   13:        0.000       0.000       0.000       0.000       0.000       0.001       0.009       0.011
  | Times   14:        0.000       0.001       0.001       0.000       0.000       0.000       0.009       0.011
  | Times   15:        0.000       0.000       0.000       0.000       0.000       0.001       0.009       0.011
  | Times   16:        0.000       0.000       0.000       0.000       0.000       0.000       0.009       0.011
  | Times   17:        0.000       0.000       0.000       0.000       0.000       0.001       0.009       0.011
  | Times   18:        0.000       0.000       0.000       0.000       0.000       0.000       0.009       0.011
  | Times   19:        0.000       0.000       0.000       0.000       0.000       0.001       0.009       0.011
  | Times   20:        0.000       0.001       0.000       0.000       0.000       0.000       0.009       0.011
  | Times   21:        0.000       0.000       0.000       0.000       0.000       0.001       0.009       0.011
  | Times   22:        0.000       0.001       0.001       0.000       0.000       0.000       0.009       0.011
  | Times   23:        0.000       0.000       0.000       0.000       0.000       0.001       0.009       0.011
  | Times   24:        0.000       0.001       0.000       0.000       0.000       0.000       0.009       0.011
  | Times   25:        0.000       0.000       0.000       0.000       0.000       0.001       0.009       0.011
  | Times   26:        0.000       0.001       0.001       0.000       0.000       0.000       0.009       0.011
  | Times   27:        0.000       0.000       0.000       0.000       0.000       0.001       0.009       0.011
  | Times   28:        0.000       0.000       0.000       0.000       0.000       0.000       0.009       0.011
  | Times   29:        0.000       0.000       0.000       0.000       0.000       0.000       0.009       0.011
  | Times   30:        0.000       0.000       0.000       0.000       0.000       0.000       0.009       0.011
  | Times   31:        0.000       0.000       0.000       0.000       0.000       0.001       0.009       0.011
  | Times   32:        0.000       0.001       0.000       0.000       0.000       0.000       0.009       0.011
  | Times   33:        0.000       0.000       0.000       0.000       0.000       0.001       0.009       0.011
  | Times   34:        0.000       0.001       0.000       0.000       0.000       0.000       0.009       0.011
  | Times   35:        0.000       0.000       0.000       0.000       0.000       0.001       0.009       0.011
  | Times   36:        0.000       0.001       0.000       0.000       0.000       0.000       0.009       0.011
  | Times   37:        0.000       0.000       0.000       0.000       0.000       0.000       0.009       0.011
  | Times   38:        0.000       0.001       0.000       0.000       0.000       0.001       0.009       0.011
  | Times   39:        0.000       0.000       0.000       0.000       0.000       0.001       0.009       0.011
  | Times   40:        0.000       0.001       0.000       0.000       0.000       0.000       0.009       0.011
  | Times   41:        0.000       0.000       0.000       0.000       0.000       0.000       0.009       0.011
  | Times   42:        0.000       0.001       0.000       0.000       0.000       0.000       0.009       0.011
  | Times   43:        0.000       0.000       0.000       0.000       0.000       0.000       0.009       0.011
  | Times   44:        0.000       0.001       0.000       0.000       0.000       0.000       0.009       0.011
  | Times   45:        0.000       0.000       0.000       0.000       0.000       0.000       0.009       0.011
  | Times   46:        0.000       0.001       0.000       0.000       0.000       0.000       0.009       0.011
  | Times   47:        0.000       0.000       0.000       0.000       0.000       0.000       0.009       0.011
  | Times   48:        0.000       0.001       0.000       0.000       0.000       0.000       0.009       0.011
  | Times   49:        0.000       0.000       0.000       0.000       0.000       0.000       0.009       0.011
  | Times   50:        0.000       0.001       0.000       0.000       0.000       0.000       0.009       0.011
  | Times   51:        0.000       0.000       0.000       0.000       0.000       0.000       0.009       0.011
  | Times   52:        0.000       0.001       0.000       0.000       0.000       0.001       0.009       0.011
  | Times   53:        0.000       0.001       0.000       0.000       0.000       0.000       0.009       0.011
  | Times   54:        0.000       0.001       0.000       0.000       0.000       0.001       0.009       0.011
  | Times   55:        0.000       0.000       0.000       0.000       0.000       0.001       0.009       0.011
  | Times   56:        0.000       0.001       0.000       0.000       0.000       0.000       0.009       0.011
  | Times   57:        0.000       0.000       0.000       0.000       0.000       0.000       0.009       0.011
  | Times   58:        0.000       0.001       0.000       0.000       0.000       0.000       0.009       0.011
  | Times   59:        0.000       0.000       0.000       0.000       0.000       0.000       0.009       0.011
  | Times   60:        0.000       0.001       0.000       0.000       0.000       0.000       0.009       0.011
  | Times   61:        0.000       0.000       0.000       0.000       0.000       0.000       0.009       0.011
  | Times   62:        0.000       0.001       0.000       0.000       0.000       0.000       0.009       0.011
  | Times   63:        0.000       0.000       0.000       0.000       0.000       0.000       0.009       0.011
  | Times  sum:        0.011       0.031       0.012       0.011       0.017       0.028       0.568       0.677

  Decomposition of Other based on code block (only on MPI task 0):
  Times             Block #1    Block #2    Block #3    Block #4    Block #5    Block #6    Block #7    Block #8
  | Times    0:        0.000       0.000       0.000       0.000       0.000       0.000       0.000       0.000

  Times             Block #9   Block #10   Block #11   Block #12   Block #13   Block #14   Block #15   Block #16
  | Times    0:        0.000       0.000       0.000       0.001       0.000       0.006       0.000       0.000

  Times            Block Sum    Expected
  | Times    0:        0.008       0.009
  Time for Fock matrix mixing     0.033

  Updating Kohn-Sham eigenvalues and eigenvectors using ELSI and the ELPA eigensolver.
  Starting ELPA eigensolver
  Finished transformation to standard eigenproblem
  | Time :     0.000 s
  Finished solving standard eigenproblem
  | Time :     0.001 s
  Finished back-transformation of eigenvectors
  | Time :     0.000 s

  Obtaining occupation numbers and electronic chemical potential using ELSI.
  | Note that, for insulating systems, the printed 'chemical potential' value is not uniquely defined.
  | It can be anywhere in the energy gap, as long as it correctly separates occupied and unoccupied states.
  | In systems with a gap, the physically relevant chemical potential is the VBM or HOMO.

  | Chemical potential (Fermi level):    -6.13010258 eV
  Highest occupied state (VBM) at     -8.93784478 eV
  | Occupation number:      2.00000000

  Lowest unoccupied state (CBM) at    -3.32236039 eV
  | Occupation number:      0.00000000

  Overall HOMO-LUMO gap:      5.61548439 eV.

  Total energy components:
  | Sum of eigenvalues            :        -192.32178773 Ha       -5233.34211374 eV
  | XC energy correction          :         -13.26349610 Ha        -360.91809230 eV
  | XC potential correction       :          26.93864394 Ha         733.03779811 eV
  | Free-atom electrostatic energy:        -149.49732459 Ha       -4068.02918108 eV
  | Hartree energy correction     :          -0.23275307 Ha          -6.33353319 eV
  | Entropy correction            :          -0.00000000 Ha          -0.00000000 eV
  | ---------------------------
  | Total energy                  :        -328.37671755 Ha       -8935.58512221 eV
  | Total energy, T -> 0          :        -328.37671755 Ha       -8935.58512221 eV  <-- do not rely on this value for anything but (periodic) metals
  | Electronic free energy        :        -328.37671755 Ha       -8935.58512221 eV

  Derived energy quantities:
  | Kinetic energy                :         328.55973236 Ha        8940.56520851 eV
  | Electrostatic energy          :        -630.81204025 Ha      -17165.26897440 eV
  | Energy correction for multipole
  | error in Hartree potential    :          -0.00006740 Ha          -0.00183402 eV
  | Sum of eigenvalues per atom                           :       -2616.67105687 eV
  | Total energy (T->0) per atom                          :       -4467.79256111 eV  <-- do not rely on this value for anything but (periodic) metals
  | Electronic free energy per atom                       :       -4467.79256111 eV
  Evaluating new KS density.
  Integration grid: deviation in total charge (<rho> - N_e) =   0.000000E+00

  Self-consistency convergence accuracy:
  | Change of charge density      :  0.7787E-02
  | Change of unmixed KS density  :  0.1810E-01
  | Change of sum of eigenvalues  :  0.3434E+00 eV
  | Change of total energy        : -0.1324E-01 eV


------------------------------------------------------------
  End self-consistency iteration #     7       :  max(cpu_time)    wall_clock(cpu1)
  | Time for this iteration                     :        0.337 s           0.066 s
  | Charge density update                       :        0.001 s           0.001 s
  | Density mixing                              :        0.281 s           0.007 s
  | Hartree multipole update                    :        0.001 s           0.001 s
  | Hartree multipole summation                 :        0.002 s           0.002 s
  | Integration                                 :        0.002 s           0.002 s
  | Fock matrix evaluation                      :        0.050 s           0.044 s
  | Solution of K.-S. eqns.                     :        0.002 s           0.001 s
  | Total energy evaluation                     :        0.000 s           0.000 s

  Partial memory accounting:
  | Current value for overall tracked memory usage:
  |   Minimum:        1.199 MB (on task 14)
  |   Maximum:        1.906 MB (on task 52)
  |   Average:        1.592 MB
  | Peak value for overall tracked memory usage:
  |   Minimum:        1.689 MB (on task 10 after allocating wave)
  |   Maximum:        3.972 MB (on task  1 after allocating ovlp3fn_nosplit%tmploc)
  |   Average:        2.152 MB
  | Largest tracked array allocation so far:
  |   Minimum:        0.919 MB (aux_mat on task  2)
  |   Maximum:        1.655 MB (ovlp3fn_nosplit%dat on task  1)
  |   Average:        1.212 MB
  Note:  These values currently only include a subset of arrays which are explicitly tracked.
  The "true" memory usage will be greater.
------------------------------------------------------------

------------------------------------------------------------
          Begin self-consistency iteration #    8

  Date     :  20260724, Time     :  101715.935
------------------------------------------------------------
  Pulay mixing of updated and previous charge densities.
  Available memory per node after mixing [GB]:   1025.53
  Renormalizing the density to the exact electron count on the 3D integration grid.
  | Formal number of electrons (from input files) :      20.0000000000
  | Integrated number of electrons on 3D grid     :      20.0000000000
  | Charge integration error                      :      -0.0000000000
  | Normalization factor for density and gradient :       1.0000000000

  Evaluating partitioned Hartree potential by multipole expansion.
  | Original multipole sum: apparent total charge =  -0.136763E-13
  | Sum of charges compensated after spline to logarithmic grids =   0.213966E-06
  | Analytical far-field extrapolation by fixed multipoles:
  | Hartree multipole sum: apparent total charge =  -0.128892E-13
  Summing up the Hartree potential.
  Time summed over all CPUs for potential: real work        0.001 s, elapsed        0.001 s
  | RMS charge density error from multipole expansion :   0.157722E-02

  Integrating Hamiltonian matrix: batch-based integration.
  Time summed over all CPUs for integration: real work        0.082 s, elapsed        0.097 s
  Calculating non-local Hartree-Fock exchange by two-center RI (RI-LVL).
  screening_threshold (crit_val) =  0.000000100000
  Exact exchange progress report - outermost block loop i_block: 1 ..       3
  |        1         2         3  
 Total ovlp3fn data transfer [GB]   7.3643994983285666E-004
  Average sparsity of tmp1/2 0.50000000
  Average sparsity of fock_matrix_row 0.02173913
  Full exact exchange energy: weighted long- and short-range EXX    174.961277668207 eV.
  Times            DM_x_o3fn   CM_prod_1   CM_prod_2   tmp2_prod        Sync   Imbalance       Other  Total calc
  | Times    0:        0.000       0.001       0.000       0.000       0.000       0.000       0.008       0.010
  | Times    1:        0.000       0.000       0.000       0.000       0.000       0.001       0.008       0.010
  | Times    2:        0.000       0.001       0.001       0.000       0.000       0.000       0.008       0.010
  | Times    3:        0.000       0.000       0.000       0.000       0.000       0.001       0.008       0.010
  | Times    4:        0.000       0.000       0.000       0.000       0.000       0.000       0.009       0.010
  | Times    5:        0.000       0.000       0.000       0.000       0.000       0.001       0.009       0.010
  | Times    6:        0.000       0.000       0.000       0.000       0.000       0.000       0.009       0.011
  | Times    7:        0.000       0.000       0.000       0.000       0.000       0.001       0.009       0.010
  | Times    8:        0.000       0.001       0.000       0.000       0.000       0.000       0.008       0.010
  | Times    9:        0.000       0.000       0.000       0.000       0.000       0.001       0.008       0.010
  | Times   10:        0.000       0.001       0.000       0.000       0.000       0.000       0.008       0.010
  | Times   11:        0.000       0.000       0.000       0.000       0.000       0.001       0.008       0.010
  | Times   12:        0.000       0.001       0.000       0.000       0.000       0.000       0.008       0.010
  | Times   13:        0.000       0.000       0.000       0.000       0.000       0.001       0.008       0.010
  | Times   14:        0.000       0.001       0.001       0.000       0.000       0.000       0.008       0.010
  | Times   15:        0.000       0.000       0.000       0.000       0.000       0.001       0.008       0.010
  | Times   16:        0.000       0.000       0.000       0.000       0.000       0.000       0.009       0.010
  | Times   17:        0.000       0.000       0.000       0.000       0.000       0.001       0.009       0.010
  | Times   18:        0.000       0.000       0.000       0.000       0.000       0.000       0.009       0.010
  | Times   19:        0.000       0.000       0.000       0.000       0.000       0.001       0.009       0.010
  | Times   20:        0.000       0.001       0.000       0.000       0.000       0.000       0.008       0.010
  | Times   21:        0.000       0.000       0.000       0.000       0.000       0.001       0.008       0.010
  | Times   22:        0.000       0.001       0.001       0.000       0.000       0.000       0.008       0.010
  | Times   23:        0.000       0.000       0.000       0.000       0.000       0.001       0.008       0.010
  | Times   24:        0.000       0.000       0.000       0.000       0.000       0.000       0.009       0.010
  | Times   25:        0.000       0.000       0.000       0.000       0.000       0.001       0.009       0.010
  | Times   26:        0.000       0.000       0.000       0.000       0.000       0.000       0.009       0.010
  | Times   27:        0.000       0.000       0.000       0.000       0.000       0.001       0.009       0.010
  | Times   28:        0.000       0.001       0.000       0.000       0.000       0.000       0.008       0.010
  | Times   29:        0.000       0.000       0.000       0.000       0.000       0.001       0.008       0.010
  | Times   30:        0.000       0.001       0.001       0.000       0.000       0.000       0.008       0.010
  | Times   31:        0.000       0.000       0.000       0.000       0.000       0.001       0.008       0.010
  | Times   32:        0.000       0.001       0.000       0.000       0.000       0.000       0.008       0.010
  | Times   33:        0.000       0.000       0.000       0.000       0.000       0.001       0.008       0.010
  | Times   34:        0.000       0.001       0.000       0.000       0.000       0.000       0.008       0.010
  | Times   35:        0.000       0.000       0.000       0.000       0.000       0.001       0.008       0.010
  | Times   36:        0.000       0.001       0.000       0.000       0.000       0.000       0.008       0.010
  | Times   37:        0.000       0.000       0.000       0.000       0.000       0.000       0.008       0.010
  | Times   38:        0.000       0.001       0.000       0.000       0.000       0.000       0.008       0.010
  | Times   39:        0.000       0.000       0.000       0.000       0.000       0.001       0.008       0.010
  | Times   40:        0.000       0.001       0.000       0.000       0.000       0.000       0.008       0.010
  | Times   41:        0.000       0.000       0.000       0.000       0.000       0.000       0.009       0.010
  | Times   42:        0.000       0.001       0.000       0.000       0.000       0.000       0.009       0.010
  | Times   43:        0.000       0.000       0.000       0.000       0.000       0.000       0.009       0.010
  | Times   44:        0.000       0.001       0.000       0.000       0.000       0.000       0.008       0.010
  | Times   45:        0.000       0.000       0.000       0.000       0.000       0.000       0.009       0.010
  | Times   46:        0.000       0.001       0.000       0.000       0.000       0.000       0.009       0.010
  | Times   47:        0.000       0.000       0.000       0.000       0.000       0.000       0.009       0.010
  | Times   48:        0.000       0.001       0.000       0.000       0.000       0.000       0.009       0.010
  | Times   49:        0.000       0.000       0.000       0.000       0.000       0.000       0.009       0.010
  | Times   50:        0.000       0.001       0.000       0.000       0.000       0.000       0.009       0.010
  | Times   51:        0.000       0.000       0.000       0.000       0.000       0.000       0.009       0.010
  | Times   52:        0.000       0.001       0.000       0.000       0.000       0.000       0.009       0.010
  | Times   53:        0.000       0.000       0.000       0.000       0.000       0.000       0.009       0.010
  | Times   54:        0.000       0.001       0.000       0.000       0.000       0.000       0.009       0.010
  | Times   55:        0.000       0.000       0.000       0.000       0.000       0.000       0.009       0.010
  | Times   56:        0.000       0.001       0.000       0.000       0.000       0.000       0.008       0.010
  | Times   57:        0.000       0.001       0.000       0.000       0.000       0.000       0.008       0.010
  | Times   58:        0.000       0.001       0.000       0.000       0.000       0.001       0.008       0.010
  | Times   59:        0.000       0.000       0.000       0.000       0.000       0.000       0.008       0.010
  | Times   60:        0.000       0.001       0.000       0.000       0.000       0.000       0.009       0.010
  | Times   61:        0.000       0.000       0.000       0.000       0.000       0.000       0.009       0.010
  | Times   62:        0.000       0.001       0.000       0.000       0.000       0.000       0.009       0.010
  | Times   63:        0.000       0.000       0.000       0.000       0.000       0.000       0.009       0.010
  | Times  sum:        0.010       0.030       0.012       0.011       0.017       0.027       0.542       0.650

  Decomposition of Other based on code block (only on MPI task 0):
  Times             Block #1    Block #2    Block #3    Block #4    Block #5    Block #6    Block #7    Block #8
  | Times    0:        0.000       0.000       0.000       0.000       0.000       0.000       0.000       0.000

  Times             Block #9   Block #10   Block #11   Block #12   Block #13   Block #14   Block #15   Block #16
  | Times    0:        0.000       0.000       0.000       0.001       0.000       0.006       0.000       0.000

  Times            Block Sum    Expected
  | Times    0:        0.008       0.008
  Time for Fock matrix mixing     0.000

  Updating Kohn-Sham eigenvalues and eigenvectors using ELSI and the ELPA eigensolver.
  Starting ELPA eigensolver
  Finished transformation to standard eigenproblem
  | Time :     0.001 s
  Finished solving standard eigenproblem
  | Time :     0.000 s
  Finished back-transformation of eigenvectors
  | Time :     0.000 s

  Obtaining occupation numbers and electronic chemical potential using ELSI.
  | Note that, for insulating systems, the printed 'chemical potential' value is not uniquely defined.
  | It can be anywhere in the energy gap, as long as it correctly separates occupied and unoccupied states.
  | In systems with a gap, the physically relevant chemical potential is the VBM or HOMO.

  | Chemical potential (Fermi level):    -6.02998740 eV
  Highest occupied state (VBM) at     -8.83921310 eV
  | Occupation number:      2.00000000

  Lowest unoccupied state (CBM) at    -3.22076170 eV
  | Occupation number:      0.00000000

  Overall HOMO-LUMO gap:      5.61845140 eV.

  Total energy components:
  | Sum of eigenvalues            :        -192.22603754 Ha       -5230.73661828 eV
  | XC energy correction          :         -13.27032057 Ha        -361.10379556 eV
  | XC potential correction       :          26.94768116 Ha         733.28371354 eV
  | Free-atom electrostatic energy:        -149.49732459 Ha       -4068.02918108 eV
  | Hartree energy correction     :          -0.33064481 Ha          -8.99730312 eV
  | Entropy correction            :          -0.00000000 Ha          -0.00000000 eV
  | ---------------------------
  | Total energy                  :        -328.37664634 Ha       -8935.58318450 eV
  | Total energy, T -> 0          :        -328.37664634 Ha       -8935.58318450 eV  <-- do not rely on this value for anything but (periodic) metals
  | Electronic free energy        :        -328.37664634 Ha       -8935.58318450 eV

  Derived energy quantities:
  | Kinetic energy                :         328.59551309 Ha        8941.53885171 eV
  | Electrostatic energy          :        -630.84180898 Ha      -17166.07902280 eV
  | Energy correction for multipole
  | error in Hartree potential    :          -0.00011923 Ha          -0.00324434 eV
  | Sum of eigenvalues per atom                           :       -2615.36830914 eV
  | Total energy (T->0) per atom                          :       -4467.79159225 eV  <-- do not rely on this value for anything but (periodic) metals
  | Electronic free energy per atom                       :       -4467.79159225 eV
  Evaluating new KS density.
  Integration grid: deviation in total charge (<rho> - N_e) =   0.000000E+00

  Self-consistency convergence accuracy:
  | Change of charge density      :  0.5874E-02
  | Change of unmixed KS density  :  0.1841E-02
  | Change of sum of eigenvalues  :  0.2605E+01 eV
  | Change of total energy        :  0.1938E-02 eV


------------------------------------------------------------
  End self-consistency iteration #     8       :  max(cpu_time)    wall_clock(cpu1)
  | Time for this iteration                     :        0.361 s           0.149 s
  | Charge density update                       :        0.001 s           0.001 s
  | Density mixing                              :        0.345 s           0.131 s
  | Hartree multipole update                    :        0.001 s           0.001 s
  | Hartree multipole summation                 :        0.002 s           0.002 s
  | Integration                                 :        0.002 s           0.001 s
  | Fock matrix evaluation                      :        0.011 s           0.011 s
  | Solution of K.-S. eqns.                     :        0.001 s           0.002 s
  | Total energy evaluation                     :        0.000 s           0.000 s

  Partial memory accounting:
  | Current value for overall tracked memory usage:
  |   Minimum:        1.199 MB (on task 14)
  |   Maximum:        1.906 MB (on task 52)
  |   Average:        1.592 MB
  | Peak value for overall tracked memory usage:
  |   Minimum:        1.689 MB (on task 10 after allocating wave)
  |   Maximum:        3.972 MB (on task  1 after allocating ovlp3fn_nosplit%tmploc)
  |   Average:        2.152 MB
  | Largest tracked array allocation so far:
  |   Minimum:        0.919 MB (aux_mat on task  2)
  |   Maximum:        1.655 MB (ovlp3fn_nosplit%dat on task  1)
  |   Average:        1.212 MB
  Note:  These values currently only include a subset of arrays which are explicitly tracked.
  The "true" memory usage will be greater.
------------------------------------------------------------

------------------------------------------------------------
          Begin self-consistency iteration #    9

  Date     :  20260724, Time     :  101716.350
------------------------------------------------------------
  Pulay mixing of updated and previous charge densities.
  Available memory per node after mixing [GB]:   1025.53
  Renormalizing the density to the exact electron count on the 3D integration grid.
  | Formal number of electrons (from input files) :      20.0000000000
  | Integrated number of electrons on 3D grid     :      20.0000000000
  | Charge integration error                      :       0.0000000000
  | Normalization factor for density and gradient :       1.0000000000

  Evaluating partitioned Hartree potential by multipole expansion.
  | Original multipole sum: apparent total charge =  -0.487035E-14
  | Sum of charges compensated after spline to logarithmic grids =   0.227615E-06
  | Analytical far-field extrapolation by fixed multipoles:
  | Hartree multipole sum: apparent total charge =  -0.521472E-14
  Summing up the Hartree potential.
  Time summed over all CPUs for potential: real work        0.002 s, elapsed        0.003 s
  | RMS charge density error from multipole expansion :   0.157832E-02

  Integrating Hamiltonian matrix: batch-based integration.
  Time summed over all CPUs for integration: real work        0.082 s, elapsed        0.097 s
  Calculating non-local Hartree-Fock exchange by two-center RI (RI-LVL).
  screening_threshold (crit_val) =  0.000000100000
  Exact exchange progress report - outermost block loop i_block: 1 ..       3
  |        1         2         3  
 Total ovlp3fn data transfer [GB]   7.3643994983285666E-004
  Average sparsity of tmp1/2 0.50000000
  Average sparsity of fock_matrix_row 0.02173913
  Full exact exchange energy: weighted long- and short-range EXX    174.950935327000 eV.
  Times            DM_x_o3fn   CM_prod_1   CM_prod_2   tmp2_prod        Sync   Imbalance       Other  Total calc
  | Times    0:        0.000       0.001       0.000       0.000       0.000       0.000       0.009       0.010
  | Times    1:        0.000       0.000       0.000       0.000       0.000       0.001       0.008       0.010
  | Times    2:        0.000       0.001       0.001       0.000       0.000       0.000       0.008       0.010
  | Times    3:        0.000       0.000       0.000       0.000       0.000       0.001       0.008       0.010
  | Times    4:        0.000       0.000       0.000       0.000       0.000       0.000       0.009       0.010
  | Times    5:        0.000       0.000       0.000       0.000       0.000       0.001       0.009       0.010
  | Times    6:        0.000       0.000       0.000       0.000       0.000       0.000       0.009       0.010
  | Times    7:        0.000       0.000       0.000       0.000       0.000       0.001       0.009       0.010
  | Times    8:        0.000       0.001       0.000       0.000       0.000       0.000       0.009       0.010
  | Times    9:        0.000       0.000       0.000       0.000       0.000       0.001       0.008       0.010
  | Times   10:        0.000       0.001       0.001       0.000       0.000       0.000       0.008       0.010
  | Times   11:        0.000       0.000       0.000       0.000       0.000       0.001       0.008       0.010
  | Times   12:        0.000       0.000       0.000       0.000       0.000       0.000       0.009       0.010
  | Times   13:        0.000       0.000       0.000       0.000       0.000       0.001       0.009       0.010
  | Times   14:        0.000       0.000       0.000       0.000       0.000       0.000       0.009       0.010
  | Times   15:        0.000       0.000       0.000       0.000       0.000       0.001       0.009       0.010
  | Times   16:        0.000       0.001       0.000       0.000       0.000       0.000       0.009       0.010
  | Times   17:        0.000       0.000       0.000       0.000       0.000       0.001       0.008       0.010
  | Times   18:        0.000       0.001       0.001       0.000       0.000       0.000       0.008       0.010
  | Times   19:        0.000       0.000       0.000       0.000       0.000       0.001       0.008       0.010
  | Times   20:        0.000       0.001       0.000       0.000       0.000       0.000       0.009       0.010
  | Times   21:        0.000       0.000       0.000       0.000       0.000       0.001       0.009       0.010
  | Times   22:        0.000       0.001       0.001       0.000       0.000       0.000       0.008       0.010
  | Times   23:        0.000       0.000       0.000       0.000       0.000       0.001       0.009       0.010
  | Times   24:        0.000       0.000       0.000       0.000       0.000       0.000       0.009       0.010
  | Times   25:        0.000       0.000       0.000       0.000       0.000       0.001       0.009       0.010
  | Times   26:        0.000       0.000       0.000       0.000       0.000       0.000       0.009       0.010
  | Times   27:        0.000       0.000       0.000       0.000       0.000       0.001       0.009       0.010
  | Times   28:        0.000       0.001       0.000       0.000       0.000       0.000       0.009       0.010
  | Times   29:        0.000       0.000       0.000       0.000       0.000       0.001       0.009       0.010
  | Times   30:        0.000       0.001       0.001       0.000       0.000       0.000       0.008       0.010
  | Times   31:        0.000       0.000       0.000       0.000       0.000       0.001       0.009       0.010
  | Times   32:        0.000       0.000       0.000       0.000       0.000       0.000       0.009       0.010
  | Times   33:        0.000       0.000       0.000       0.000       0.000       0.001       0.009       0.010
  | Times   34:        0.000       0.000       0.000       0.000       0.000       0.000       0.009       0.010
  | Times   35:        0.000       0.000       0.000       0.000       0.000       0.001       0.009       0.010
  | Times   36:        0.000       0.001       0.000       0.000       0.000       0.000       0.009       0.010
  | Times   37:        0.000       0.000       0.000       0.000       0.000       0.001       0.009       0.010
  | Times   38:        0.000       0.001       0.000       0.000       0.000       0.000       0.009       0.010
  | Times   39:        0.000       0.000       0.000       0.000       0.000       0.001       0.009       0.010
  | Times   40:        0.000       0.001       0.000       0.000       0.000       0.000       0.009       0.010
  | Times   41:        0.000       0.000       0.000       0.000       0.000       0.000       0.009       0.010
  | Times   42:        0.000       0.001       0.000       0.000       0.000       0.000       0.009       0.010
  | Times   43:        0.000       0.000       0.000       0.000       0.000       0.000       0.009       0.010
  | Times   44:        0.000       0.001       0.000       0.000       0.000       0.000       0.008       0.010
  | Times   45:        0.000       0.000       0.000       0.000       0.000       0.000       0.008       0.010
  | Times   46:        0.000       0.001       0.000       0.000       0.000       0.000       0.008       0.010
  | Times   47:        0.000       0.000       0.000       0.000       0.000       0.000       0.008       0.010
  | Times   48:        0.000       0.001       0.000       0.000       0.000       0.000       0.009       0.010
  | Times   49:        0.000       0.000       0.000       0.000       0.000       0.000       0.009       0.010
  | Times   50:        0.000       0.001       0.000       0.000       0.000       0.000       0.009       0.010
  | Times   51:        0.000       0.000       0.000       0.000       0.000       0.000       0.009       0.010
  | Times   52:        0.000       0.001       0.000       0.000       0.000       0.000       0.009       0.010
  | Times   53:        0.000       0.000       0.000       0.000       0.000       0.000       0.009       0.010
  | Times   54:        0.000       0.001       0.000       0.000       0.000       0.000       0.009       0.010
  | Times   55:        0.000       0.000       0.000       0.000       0.000       0.000       0.009       0.010
  | Times   56:        0.000       0.001       0.000       0.000       0.000       0.000       0.008       0.010
  | Times   57:        0.000       0.001       0.000       0.000       0.000       0.000       0.009       0.010
  | Times   58:        0.000       0.001       0.000       0.000       0.000       0.001       0.009       0.010
  | Times   59:        0.000       0.000       0.000       0.000       0.000       0.000       0.009       0.010
  | Times   60:        0.000       0.001       0.000       0.000       0.000       0.000       0.009       0.010
  | Times   61:        0.000       0.000       0.000       0.000       0.000       0.000       0.009       0.010
  | Times   62:        0.000       0.001       0.000       0.000       0.000       0.000       0.009       0.010
  | Times   63:        0.000       0.000       0.000       0.000       0.000       0.000       0.009       0.010
  | Times  sum:        0.010       0.031       0.012       0.011       0.016       0.027       0.558       0.666

  Decomposition of Other based on code block (only on MPI task 0):
  Times             Block #1    Block #2    Block #3    Block #4    Block #5    Block #6    Block #7    Block #8
  | Times    0:        0.000       0.000       0.000       0.000       0.000       0.000       0.000       0.000

  Times             Block #9   Block #10   Block #11   Block #12   Block #13   Block #14   Block #15   Block #16
  | Times    0:        0.000       0.000       0.000       0.001       0.000       0.006       0.000       0.000

  Times            Block Sum    Expected
  | Times    0:        0.008       0.009
  Time for Fock matrix mixing     0.000

  Updating Kohn-Sham eigenvalues and eigenvectors using ELSI and the ELPA eigensolver.
  Starting ELPA eigensolver
  Finished transformation to standard eigenproblem
  | Time :     0.000 s
  Finished solving standard eigenproblem
  | Time :     0.000 s
  Finished back-transformation of eigenvectors
  | Time :     0.001 s

  Obtaining occupation numbers and electronic chemical potential using ELSI.
  | Note that, for insulating systems, the printed 'chemical potential' value is not uniquely defined.
  | It can be anywhere in the energy gap, as long as it correctly separates occupied and unoccupied states.
  | In systems with a gap, the physically relevant chemical potential is the VBM or HOMO.

  | Chemical potential (Fermi level):    -6.03346798 eV
  Highest occupied state (VBM) at     -8.84739799 eV
  | Occupation number:      2.00000000

  Lowest unoccupied state (CBM) at    -3.21953797 eV
  | Occupation number:      0.00000000

  Overall HOMO-LUMO gap:      5.62786001 eV.

  Total energy components:
  | Sum of eigenvalues            :        -192.21462840 Ha       -5230.42615994 eV
  | XC energy correction          :         -13.27062862 Ha        -361.11217796 eV
  | XC potential correction       :          26.94855641 Ha         733.30753012 eV
  | Free-atom electrostatic energy:        -149.49732459 Ha       -4068.02918108 eV
  | Hartree energy correction     :          -0.34247157 Ha          -9.31912553 eV
  | Entropy correction            :          -0.00000000 Ha          -0.00000000 eV
  | ---------------------------
  | Total energy                  :        -328.37649677 Ha       -8935.57911438 eV
  | Total energy, T -> 0          :        -328.37649677 Ha       -8935.57911438 eV  <-- do not rely on this value for anything but (periodic) metals
  | Electronic free energy        :        -328.37649677 Ha       -8935.57911438 eV

  Derived energy quantities:
  | Kinetic energy                :         328.60213226 Ha        8941.71896853 eV
  | Electrostatic energy          :        -630.84734967 Ha      -17166.22979281 eV
  | Energy correction for multipole
  | error in Hartree potential    :          -0.00012596 Ha          -0.00342745 eV
  | Sum of eigenvalues per atom                           :       -2615.21307997 eV
  | Total energy (T->0) per atom                          :       -4467.78955719 eV  <-- do not rely on this value for anything but (periodic) metals
  | Electronic free energy per atom                       :       -4467.78955719 eV
  Evaluating new KS density.
  Integration grid: deviation in total charge (<rho> - N_e) =   1.421085E-14

  Self-consistency convergence accuracy:
  | Change of charge density      :  0.2288E-02
  | Change of unmixed KS density  :  0.3393E-02
  | Change of sum of eigenvalues  :  0.3105E+00 eV
  | Change of total energy        :  0.4070E-02 eV


------------------------------------------------------------
  End self-consistency iteration #     9       :  max(cpu_time)    wall_clock(cpu1)
  | Time for this iteration                     :        0.271 s           0.022 s
  | Charge density update                       :        0.001 s           0.001 s
  | Density mixing                              :        0.256 s           0.003 s
  | Hartree multipole update                    :        0.001 s           0.001 s
  | Hartree multipole summation                 :        0.003 s           0.003 s
  | Integration                                 :        0.002 s           0.002 s
  | Fock matrix evaluation                      :        0.011 s           0.010 s
  | Solution of K.-S. eqns.                     :        0.001 s           0.002 s
  | Total energy evaluation                     :        0.000 s           0.000 s

  Partial memory accounting:
  | Current value for overall tracked memory usage:
  |   Minimum:        1.199 MB (on task 14)
  |   Maximum:        1.906 MB (on task 52)
  |   Average:        1.592 MB
  | Peak value for overall tracked memory usage:
  |   Minimum:        1.689 MB (on task 10 after allocating wave)
  |   Maximum:        3.972 MB (on task  1 after allocating ovlp3fn_nosplit%tmploc)
  |   Average:        2.152 MB
  | Largest tracked array allocation so far:
  |   Minimum:        0.919 MB (aux_mat on task  2)
  |   Maximum:        1.655 MB (ovlp3fn_nosplit%dat on task  1)
  |   Average:        1.212 MB
  Note:  These values currently only include a subset of arrays which are explicitly tracked.
  The "true" memory usage will be greater.
------------------------------------------------------------

------------------------------------------------------------
          Begin self-consistency iteration #   10

  Date     :  20260724, Time     :  101716.604
------------------------------------------------------------
  Pulay mixing of updated and previous charge densities.
  Available memory per node after mixing [GB]:   1025.53
  Renormalizing the density to the exact electron count on the 3D integration grid.
  | Formal number of electrons (from input files) :      20.0000000000
  | Integrated number of electrons on 3D grid     :      20.0000000000
  | Charge integration error                      :       0.0000000000
  | Normalization factor for density and gradient :       1.0000000000

  Evaluating partitioned Hartree potential by multipole expansion.
  | Original multipole sum: apparent total charge =  -0.491955E-15
  | Sum of charges compensated after spline to logarithmic grids =   0.219282E-06
  | Analytical far-field extrapolation by fixed multipoles:
  | Hartree multipole sum: apparent total charge =  -0.442759E-15
  Summing up the Hartree potential.
  Time summed over all CPUs for potential: real work        0.001 s, elapsed        0.001 s
  | RMS charge density error from multipole expansion :   0.159200E-02

  Integrating Hamiltonian matrix: batch-based integration.
  Time summed over all CPUs for integration: real work        0.081 s, elapsed        0.095 s
  Calculating non-local Hartree-Fock exchange by two-center RI (RI-LVL).
  screening_threshold (crit_val) =  0.000000100000
  Exact exchange progress report - outermost block loop i_block: 1 ..       3
  |        1         2         3  
 Total ovlp3fn data transfer [GB]   7.3643994983285666E-004
  Average sparsity of tmp1/2 0.50000000
  Average sparsity of fock_matrix_row 0.02173913
  Full exact exchange energy: weighted long- and short-range EXX    174.963554427944 eV.
  Times            DM_x_o3fn   CM_prod_1   CM_prod_2   tmp2_prod        Sync   Imbalance       Other  Total calc
  | Times    0:        0.000       0.001       0.001       0.000       0.000       0.000       0.008       0.010
  | Times    1:        0.000       0.000       0.000       0.000       0.000       0.001       0.008       0.010
  | Times    2:        0.000       0.001       0.001       0.000       0.000       0.001       0.008       0.010
  | Times    3:        0.000       0.000       0.000       0.000       0.000       0.001       0.008       0.010
  | Times    4:        0.000       0.000       0.000       0.000       0.000       0.000       0.009       0.010
  | Times    5:        0.000       0.000       0.000       0.000       0.000       0.001       0.009       0.010
  | Times    6:        0.000       0.001       0.001       0.000       0.000       0.000       0.009       0.011
  | Times    7:        0.000       0.000       0.000       0.000       0.000       0.001       0.009       0.010
  | Times    8:        0.000       0.001       0.001       0.000       0.000       0.000       0.008       0.010
  | Times    9:        0.000       0.000       0.000       0.000       0.000       0.001       0.008       0.010
  | Times   10:        0.000       0.001       0.001       0.000       0.000       0.000       0.008       0.010
  | Times   11:        0.000       0.000       0.000       0.000       0.000       0.001       0.008       0.010
  | Times   12:        0.000       0.001       0.001       0.000       0.000       0.000       0.008       0.010
  | Times   13:        0.000       0.000       0.000       0.000       0.000       0.001       0.008       0.010
  | Times   14:        0.000       0.001       0.001       0.000       0.000       0.000       0.008       0.010
  | Times   15:        0.000       0.000       0.000       0.000       0.000       0.001       0.008       0.010
  | Times   16:        0.000       0.001       0.001       0.000       0.000       0.000       0.008       0.010
  | Times   17:        0.000       0.000       0.000       0.000       0.000       0.001       0.008       0.010
  | Times   18:        0.000       0.001       0.001       0.000       0.000       0.000       0.008       0.010
  | Times   19:        0.000       0.000       0.000       0.000       0.000       0.001       0.008       0.010
  | Times   20:        0.000       0.001       0.001       0.000       0.000       0.000       0.008       0.010
  | Times   21:        0.000       0.001       0.000       0.000       0.000       0.001       0.008       0.010
  | Times   22:        0.000       0.001       0.001       0.000       0.000       0.000       0.008       0.010
  | Times   23:        0.000       0.000       0.000       0.000       0.000       0.001       0.008       0.010
  | Times   24:        0.000       0.001       0.001       0.000       0.000       0.000       0.009       0.010
  | Times   25:        0.000       0.000       0.000       0.000       0.000       0.001       0.008       0.010
  | Times   26:        0.000       0.001       0.001       0.000       0.000       0.000       0.008       0.010
  | Times   27:        0.000       0.000       0.000       0.000       0.000       0.001       0.008       0.010
  | Times   28:        0.000       0.001       0.001       0.000       0.000       0.000       0.008       0.010
  | Times   29:        0.000       0.000       0.000       0.000       0.000       0.001       0.008       0.010
  | Times   30:        0.000       0.001       0.001       0.000       0.000       0.000       0.008       0.010
  | Times   31:        0.000       0.000       0.000       0.000       0.000       0.002       0.008       0.010
  | Times   32:        0.000       0.001       0.000       0.000       0.000       0.000       0.009       0.010
  | Times   33:        0.000       0.000       0.000       0.000       0.000       0.001       0.009       0.010
  | Times   34:        0.000       0.001       0.000       0.000       0.000       0.000       0.008       0.010
  | Times   35:        0.000       0.000       0.000       0.000       0.000       0.001       0.008       0.010
  | Times   36:        0.000       0.001       0.000       0.000       0.000       0.000       0.009       0.010
  | Times   37:        0.000       0.000       0.000       0.000       0.000       0.000       0.009       0.010
  | Times   38:        0.000       0.001       0.000       0.000       0.000       0.001       0.009       0.010
  | Times   39:        0.000       0.000       0.000       0.000       0.000       0.001       0.009       0.010
  | Times   40:        0.000       0.001       0.000       0.000       0.000       0.000       0.009       0.010
  | Times   41:        0.000       0.000       0.000       0.000       0.000       0.000       0.009       0.010
  | Times   42:        0.000       0.001       0.000       0.000       0.000       0.000       0.009       0.010
  | Times   43:        0.000       0.000       0.000       0.000       0.000       0.000       0.009       0.010
  | Times   44:        0.000       0.001       0.000       0.000       0.000       0.000       0.009       0.010
  | Times   45:        0.000       0.000       0.000       0.000       0.000       0.000       0.009       0.010
  | Times   46:        0.000       0.001       0.000       0.000       0.000       0.000       0.009       0.010
  | Times   47:        0.000       0.000       0.000       0.000       0.000       0.000       0.009       0.010
  | Times   48:        0.000       0.001       0.000       0.000       0.000       0.000       0.009       0.010
  | Times   49:        0.000       0.000       0.000       0.000       0.000       0.000       0.009       0.010
  | Times   50:        0.000       0.001       0.000       0.000       0.000       0.000       0.009       0.010
  | Times   51:        0.000       0.000       0.000       0.000       0.000       0.000       0.009       0.010
  | Times   52:        0.000       0.001       0.000       0.000       0.000       0.000       0.009       0.010
  | Times   53:        0.000       0.000       0.000       0.000       0.000       0.000       0.009       0.010
  | Times   54:        0.000       0.001       0.000       0.000       0.000       0.000       0.009       0.010
  | Times   55:        0.000       0.000       0.000       0.000       0.000       0.000       0.009       0.010
  | Times   56:        0.000       0.001       0.000       0.000       0.000       0.000       0.008       0.010
  | Times   57:        0.000       0.001       0.000       0.000       0.000       0.000       0.009       0.010
  | Times   58:        0.000       0.001       0.000       0.000       0.000       0.000       0.009       0.010
  | Times   59:        0.000       0.001       0.000       0.000       0.000       0.000       0.008       0.010
  | Times   60:        0.000       0.001       0.000       0.000       0.000       0.000       0.009       0.010
  | Times   61:        0.000       0.000       0.000       0.000       0.000       0.000       0.009       0.010
  | Times   62:        0.000       0.001       0.000       0.000       0.000       0.000       0.009       0.010
  | Times   63:        0.000       0.000       0.000       0.000       0.000       0.000       0.009       0.010
  | Times  sum:        0.010       0.034       0.016       0.011       0.016       0.037       0.539       0.663

  Decomposition of Other based on code block (only on MPI task 0):
  Times             Block #1    Block #2    Block #3    Block #4    Block #5    Block #6    Block #7    Block #8
  | Times    0:        0.000       0.000       0.000       0.000       0.000       0.000       0.000       0.000

  Times             Block #9   Block #10   Block #11   Block #12   Block #13   Block #14   Block #15   Block #16
  | Times    0:        0.000       0.000       0.000       0.001       0.000       0.006       0.000       0.000

  Times            Block Sum    Expected
  | Times    0:        0.008       0.008
  Time for Fock matrix mixing     0.000

  Updating Kohn-Sham eigenvalues and eigenvectors using ELSI and the ELPA eigensolver.
  Starting ELPA eigensolver
  Finished transformation to standard eigenproblem
  | Time :     0.000 s
  Finished solving standard eigenproblem
  | Time :     0.001 s
  Finished back-transformation of eigenvectors
  | Time :     0.000 s

  Obtaining occupation numbers and electronic chemical potential using ELSI.
  | Note that, for insulating systems, the printed 'chemical potential' value is not uniquely defined.
  | It can be anywhere in the energy gap, as long as it correctly separates occupied and unoccupied states.
  | In systems with a gap, the physically relevant chemical potential is the VBM or HOMO.

  | Chemical potential (Fermi level):    -6.04499762 eV
  Highest occupied state (VBM) at     -8.85527553 eV
  | Occupation number:      2.00000000

  Lowest unoccupied state (CBM) at    -3.23471970 eV
  | Occupation number:      0.00000000

  Overall HOMO-LUMO gap:      5.62055583 eV.

  Total energy components:
  | Sum of eigenvalues            :        -192.24244080 Ha       -5231.18297389 eV
  | XC energy correction          :         -13.26916752 Ha        -361.07241947 eV
  | XC potential correction       :          26.94589868 Ha         733.23520971 eV
  | Free-atom electrostatic energy:        -149.49732459 Ha       -4068.02918108 eV
  | Hartree energy correction     :          -0.31275449 Ha          -8.51048267 eV
  | Entropy correction            :          -0.00000000 Ha          -0.00000000 eV
  | ---------------------------
  | Total energy                  :        -328.37578872 Ha       -8935.55984740 eV
  | Total energy, T -> 0          :        -328.37578872 Ha       -8935.55984740 eV  <-- do not rely on this value for anything but (periodic) metals
  | Electronic free energy        :        -328.37578872 Ha       -8935.55984740 eV

  Derived energy quantities:
  | Kinetic energy                :         328.57911336 Ha        8941.09259244 eV
  | Electrostatic energy          :        -630.82595111 Ha      -17165.64750831 eV
  | Energy correction for multipole
  | error in Hartree potential    :          -0.00012817 Ha          -0.00348762 eV
  | Sum of eigenvalues per atom                           :       -2615.59148695 eV
  | Total energy (T->0) per atom                          :       -4467.77992370 eV  <-- do not rely on this value for anything but (periodic) metals
  | Electronic free energy per atom                       :       -4467.77992370 eV
  Evaluating new KS density.
  Integration grid: deviation in total charge (<rho> - N_e) =   7.105427E-15

  Self-consistency convergence accuracy:
  | Change of charge density      :  0.1485E-02
  | Change of unmixed KS density  :  0.1437E-02
  | Change of sum of eigenvalues  : -0.7568E+00 eV
  | Change of total energy        :  0.1927E-01 eV


------------------------------------------------------------
  End self-consistency iteration #    10       :  max(cpu_time)    wall_clock(cpu1)
  | Time for this iteration                     :        0.261 s           0.047 s
  | Charge density update                       :        0.001 s           0.001 s
  | Density mixing                              :        0.246 s           0.029 s
  | Hartree multipole update                    :        0.001 s           0.001 s
  | Hartree multipole summation                 :        0.002 s           0.002 s
  | Integration                                 :        0.002 s           0.001 s
  | Fock matrix evaluation                      :        0.011 s           0.012 s
  | Solution of K.-S. eqns.                     :        0.001 s           0.001 s
  | Total energy evaluation                     :        0.000 s           0.000 s

  Partial memory accounting:
  | Current value for overall tracked memory usage:
  |   Minimum:        1.199 MB (on task 14)
  |   Maximum:        1.906 MB (on task 52)
  |   Average:        1.592 MB
  | Peak value for overall tracked memory usage:
  |   Minimum:        1.689 MB (on task 10 after allocating wave)
  |   Maximum:        3.972 MB (on task  1 after allocating ovlp3fn_nosplit%tmploc)
  |   Average:        2.152 MB
  | Largest tracked array allocation so far:
  |   Minimum:        0.919 MB (aux_mat on task  2)
  |   Maximum:        1.655 MB (ovlp3fn_nosplit%dat on task  1)
  |   Average:        1.212 MB
  Note:  These values currently only include a subset of arrays which are explicitly tracked.
  The "true" memory usage will be greater.
------------------------------------------------------------

------------------------------------------------------------
          Begin self-consistency iteration #   11

  Date     :  20260724, Time     :  101716.733
------------------------------------------------------------
  Pulay mixing of updated and previous charge densities.
  Available memory per node after mixing [GB]:   1025.53
  Renormalizing the density to the exact electron count on the 3D integration grid.
  | Formal number of electrons (from input files) :      20.0000000000
  | Integrated number of electrons on 3D grid     :      20.0000000000
  | Charge integration error                      :       0.0000000000
  | Normalization factor for density and gradient :       1.0000000000

  Evaluating partitioned Hartree potential by multipole expansion.
  | Original multipole sum: apparent total charge =  -0.501794E-14
  | Sum of charges compensated after spline to logarithmic grids =   0.220045E-06
  | Analytical far-field extrapolation by fixed multipoles:
  | Hartree multipole sum: apparent total charge =  -0.511633E-14
  Summing up the Hartree potential.
  Time summed over all CPUs for potential: real work        0.001 s, elapsed        0.001 s
  | RMS charge density error from multipole expansion :   0.158955E-02

  Integrating Hamiltonian matrix: batch-based integration.
  Time summed over all CPUs for integration: real work        0.080 s, elapsed        0.095 s
  Calculating non-local Hartree-Fock exchange by two-center RI (RI-LVL).
  screening_threshold (crit_val) =  0.000000100000
  Exact exchange progress report - outermost block loop i_block: 1 ..       3
  |        1         2         3  
 Total ovlp3fn data transfer [GB]   7.3643994983285666E-004
  Average sparsity of tmp1/2 0.50000000
  Average sparsity of fock_matrix_row 0.02173913
  Full exact exchange energy: weighted long- and short-range EXX    174.971197781345 eV.
  Times            DM_x_o3fn   CM_prod_1   CM_prod_2   tmp2_prod        Sync   Imbalance       Other  Total calc
  | Times    0:        0.000       0.001       0.000       0.000       0.000       0.000       0.011       0.013
  | Times    1:        0.000       0.000       0.000       0.000       0.000       0.001       0.011       0.013
  | Times    2:        0.000       0.001       0.001       0.000       0.000       0.000       0.011       0.013
  | Times    3:        0.000       0.000       0.000       0.000       0.000       0.001       0.011       0.013
  | Times    4:        0.000       0.000       0.000       0.000       0.000       0.000       0.011       0.013
  | Times    5:        0.000       0.000       0.000       0.000       0.000       0.001       0.011       0.013
  | Times    6:        0.000       0.000       0.000       0.000       0.000       0.000       0.012       0.013
  | Times    7:        0.000       0.000       0.000       0.000       0.000       0.001       0.011       0.013
  | Times    8:        0.000       0.000       0.000       0.000       0.000       0.000       0.011       0.013
  | Times    9:        0.000       0.000       0.000       0.000       0.000       0.001       0.011       0.013
  | Times   10:        0.000       0.000       0.000       0.000       0.000       0.000       0.011       0.013
  | Times   11:        0.000       0.000       0.000       0.000       0.000       0.001       0.011       0.013
  | Times   12:        0.000       0.000       0.000       0.000       0.000       0.000       0.011       0.013
  | Times   13:        0.000       0.000       0.000       0.000       0.000       0.001       0.011       0.013
  | Times   14:        0.000       0.000       0.000       0.000       0.000       0.000       0.011       0.013
  | Times   15:        0.000       0.000       0.000       0.000       0.000       0.001       0.011       0.013
  | Times   16:        0.000       0.000       0.000       0.000       0.000       0.000       0.011       0.013
  | Times   17:        0.000       0.000       0.000       0.000       0.000       0.001       0.011       0.013
  | Times   18:        0.000       0.000       0.000       0.000       0.000       0.000       0.011       0.013
  | Times   19:        0.000       0.000       0.000       0.000       0.000       0.001       0.011       0.013
  | Times   20:        0.000       0.001       0.000       0.000       0.000       0.000       0.011       0.013
  | Times   21:        0.000       0.000       0.000       0.000       0.000       0.001       0.011       0.013
  | Times   22:        0.000       0.001       0.000       0.000       0.000       0.000       0.011       0.013
  | Times   23:        0.000       0.000       0.000       0.000       0.000       0.001       0.011       0.013
  | Times   24:        0.000       0.001       0.000       0.000       0.000       0.000       0.011       0.013
  | Times   25:        0.000       0.000       0.000       0.000       0.000       0.001       0.011       0.013
  | Times   26:        0.000       0.001       0.000       0.000       0.000       0.000       0.011       0.013
  | Times   27:        0.000       0.000       0.000       0.000       0.000       0.001       0.011       0.013
  | Times   28:        0.000       0.000       0.000       0.000       0.000       0.000       0.012       0.013
  | Times   29:        0.000       0.000       0.000       0.000       0.000       0.001       0.012       0.013
  | Times   30:        0.000       0.000       0.000       0.000       0.000       0.000       0.011       0.013
  | Times   31:        0.000       0.000       0.000       0.000       0.000       0.001       0.012       0.013
  | Times   32:        0.000       0.000       0.000       0.000       0.000       0.000       0.012       0.013
  | Times   33:        0.000       0.000       0.000       0.000       0.000       0.000       0.012       0.013
  | Times   34:        0.000       0.000       0.000       0.000       0.000       0.000       0.011       0.013
  | Times   35:        0.000       0.000       0.000       0.000       0.000       0.001       0.012       0.013
  | Times   36:        0.000       0.001       0.001       0.000       0.000       0.000       0.011       0.013
  | Times   37:        0.000       0.000       0.000       0.000       0.000       0.001       0.011       0.013
  | Times   38:        0.000       0.001       0.001       0.000       0.000       0.000       0.010       0.013
  | Times   39:        0.000       0.000       0.000       0.000       0.000       0.001       0.011       0.013
  | Times   40:        0.000       0.001       0.000       0.000       0.000       0.000       0.011       0.013
  | Times   41:        0.000       0.000       0.000       0.000       0.000       0.000       0.011       0.013
  | Times   42:        0.000       0.001       0.000       0.000       0.000       0.000       0.011       0.013
  | Times   43:        0.000       0.000       0.000       0.000       0.000       0.000       0.011       0.013
  | Times   44:        0.000       0.001       0.000       0.000       0.000       0.000       0.011       0.013
  | Times   45:        0.000       0.000       0.000       0.000       0.000       0.000       0.011       0.013
  | Times   46:        0.000       0.001       0.000       0.000       0.000       0.000       0.011       0.013
  | Times   47:        0.000       0.000       0.000       0.000       0.000       0.000       0.011       0.013
  | Times   48:        0.000       0.001       0.000       0.000       0.000       0.000       0.011       0.013
  | Times   49:        0.000       0.000       0.000       0.000       0.000       0.000       0.011       0.013
  | Times   50:        0.000       0.001       0.000       0.000       0.000       0.000       0.011       0.013
  | Times   51:        0.000       0.000       0.000       0.000       0.000       0.000       0.011       0.013
  | Times   52:        0.000       0.001       0.000       0.000       0.000       0.000       0.011       0.013
  | Times   53:        0.000       0.001       0.000       0.000       0.000       0.000       0.011       0.013
  | Times   54:        0.000       0.001       0.000       0.000       0.000       0.001       0.011       0.013
  | Times   55:        0.000       0.000       0.000       0.000       0.000       0.000       0.011       0.013
  | Times   56:        0.000       0.001       0.000       0.000       0.000       0.001       0.011       0.013
  | Times   57:        0.000       0.001       0.001       0.000       0.000       0.000       0.011       0.013
  | Times   58:        0.000       0.001       0.000       0.000       0.000       0.001       0.011       0.013
  | Times   59:        0.000       0.001       0.000       0.000       0.000       0.001       0.011       0.013
  | Times   60:        0.000       0.001       0.000       0.000       0.000       0.000       0.011       0.013
  | Times   61:        0.000       0.000       0.000       0.000       0.000       0.000       0.011       0.013
  | Times   62:        0.000       0.001       0.000       0.000       0.000       0.000       0.011       0.013
  | Times   63:        0.000       0.000       0.000       0.000       0.000       0.000       0.011       0.013
  | Times  sum:        0.010       0.030       0.012       0.011       0.016       0.028       0.714       0.820

  Decomposition of Other based on code block (only on MPI task 0):
  Times             Block #1    Block #2    Block #3    Block #4    Block #5    Block #6    Block #7    Block #8
  | Times    0:        0.000       0.000       0.000       0.000       0.000       0.000       0.000       0.000

  Times             Block #9   Block #10   Block #11   Block #12   Block #13   Block #14   Block #15   Block #16
  | Times    0:        0.000       0.000       0.000       0.004       0.000       0.006       0.000       0.000

  Times            Block Sum    Expected
  | Times    0:        0.010       0.011
  Time for Fock matrix mixing     0.000

  Updating Kohn-Sham eigenvalues and eigenvectors using ELSI and the ELPA eigensolver.
  Starting ELPA eigensolver
  Finished transformation to standard eigenproblem
  | Time :     0.000 s
  Finished solving standard eigenproblem
  | Time :     0.001 s
  Finished back-transformation of eigenvectors
  | Time :     0.000 s

  Obtaining occupation numbers and electronic chemical potential using ELSI.
  | Note that, for insulating systems, the printed 'chemical potential' value is not uniquely defined.
  | It can be anywhere in the energy gap, as long as it correctly separates occupied and unoccupied states.
  | In systems with a gap, the physically relevant chemical potential is the VBM or HOMO.

  | Chemical potential (Fermi level):    -6.04849784 eV
  Highest occupied state (VBM) at     -8.85960677 eV
  | Occupation number:      2.00000000

  Lowest unoccupied state (CBM) at    -3.23738891 eV
  | Occupation number:      0.00000000

  Overall HOMO-LUMO gap:      5.62221787 eV.

  Total energy components:
  | Sum of eigenvalues            :        -192.24100549 Ha       -5231.14391695 eV
  | XC energy correction          :         -13.26908934 Ha        -361.07029205 eV
  | XC potential correction       :          26.94584848 Ha         733.23384368 eV
  | Free-atom electrostatic energy:        -149.49732459 Ha       -4068.02918108 eV
  | Hartree energy correction     :          -0.31412145 Ha          -8.54767951 eV
  | Entropy correction            :          -0.00000000 Ha          -0.00000000 eV
  | ---------------------------
  | Total energy                  :        -328.37569238 Ha       -8935.55722591 eV
  | Total energy, T -> 0          :        -328.37569238 Ha       -8935.55722591 eV  <-- do not rely on this value for anything but (periodic) metals
  | Electronic free energy        :        -328.37569238 Ha       -8935.55722591 eV

  Derived energy quantities:
  | Kinetic energy                :         328.57973422 Ha        8941.10948677 eV
  | Electrostatic energy          :        -630.82646599 Ha      -17165.66151889 eV
  | Energy correction for multipole
  | error in Hartree potential    :          -0.00012917 Ha          -0.00351498 eV
  | Sum of eigenvalues per atom                           :       -2615.57195847 eV
  | Total energy (T->0) per atom                          :       -4467.77861296 eV  <-- do not rely on this value for anything but (periodic) metals
  | Electronic free energy per atom                       :       -4467.77861296 eV
  Evaluating new KS density.
  Integration grid: deviation in total charge (<rho> - N_e) =   0.000000E+00

  Self-consistency convergence accuracy:
  | Change of charge density      :  0.6816E-03
  | Change of unmixed KS density  :  0.8433E-03
  | Change of sum of eigenvalues  :  0.3906E-01 eV
  | Change of total energy        :  0.2621E-02 eV


------------------------------------------------------------
  End self-consistency iteration #    11       :  max(cpu_time)    wall_clock(cpu1)
  | Time for this iteration                     :        0.281 s           0.222 s
  | Charge density update                       :        0.001 s           0.001 s
  | Density mixing                              :        0.263 s           0.202 s
  | Hartree multipole update                    :        0.001 s           0.001 s
  | Hartree multipole summation                 :        0.002 s           0.002 s
  | Integration                                 :        0.002 s           0.001 s
  | Fock matrix evaluation                      :        0.014 s           0.014 s
  | Solution of K.-S. eqns.                     :        0.001 s           0.001 s
  | Total energy evaluation                     :        0.000 s           0.000 s

  Partial memory accounting:
  | Current value for overall tracked memory usage:
  |   Minimum:        1.199 MB (on task 14)
  |   Maximum:        1.906 MB (on task 52)
  |   Average:        1.592 MB
  | Peak value for overall tracked memory usage:
  |   Minimum:        1.689 MB (on task 10 after allocating wave)
  |   Maximum:        3.972 MB (on task  1 after allocating ovlp3fn_nosplit%tmploc)
  |   Average:        2.152 MB
  | Largest tracked array allocation so far:
  |   Minimum:        0.919 MB (aux_mat on task  2)
  |   Maximum:        1.655 MB (ovlp3fn_nosplit%dat on task  1)
  |   Average:        1.212 MB
  Note:  These values currently only include a subset of arrays which are explicitly tracked.
  The "true" memory usage will be greater.
------------------------------------------------------------

------------------------------------------------------------
          Begin self-consistency iteration #   12

  Date     :  20260724, Time     :  101716.983
------------------------------------------------------------
  Pulay mixing of updated and previous charge densities.
  Available memory per node after mixing [GB]:   1025.53
  Renormalizing the density to the exact electron count on the 3D integration grid.
  | Formal number of electrons (from input files) :      20.0000000000
  | Integrated number of electrons on 3D grid     :      20.0000000000
  | Charge integration error                      :       0.0000000000
  | Normalization factor for density and gradient :       1.0000000000

  Evaluating partitioned Hartree potential by multipole expansion.
  | Original multipole sum: apparent total charge =  -0.560828E-14
  | Sum of charges compensated after spline to logarithmic grids =   0.218867E-06
  | Analytical far-field extrapolation by fixed multipoles:
  | Hartree multipole sum: apparent total charge =  -0.673978E-14
  Summing up the Hartree potential.
  Time summed over all CPUs for potential: real work        0.002 s, elapsed        0.003 s
  | RMS charge density error from multipole expansion :   0.159925E-02

  Integrating Hamiltonian matrix: batch-based integration.
  Time summed over all CPUs for integration: real work        0.081 s, elapsed        0.096 s
  Calculating non-local Hartree-Fock exchange by two-center RI (RI-LVL).
  screening_threshold (crit_val) =  0.000000100000
  Exact exchange progress report - outermost block loop i_block: 1 ..       3
  |        1         2         3  
 Total ovlp3fn data transfer [GB]   7.3643994983285666E-004
  Average sparsity of tmp1/2 0.50000000
  Average sparsity of fock_matrix_row 0.02173913
  Full exact exchange energy: weighted long- and short-range EXX    174.975080712904 eV.
  Times            DM_x_o3fn   CM_prod_1   CM_prod_2   tmp2_prod        Sync   Imbalance       Other  Total calc
  | Times    0:        0.000       0.001       0.000       0.000       0.000       0.000       0.008       0.010
  | Times    1:        0.000       0.000       0.000       0.000       0.000       0.001       0.008       0.010
  | Times    2:        0.000       0.001       0.000       0.000       0.000       0.000       0.008       0.010
  | Times    3:        0.000       0.000       0.000       0.000       0.000       0.001       0.008       0.010
  | Times    4:        0.000       0.000       0.000       0.000       0.000       0.000       0.008       0.010
  | Times    5:        0.000       0.000       0.000       0.000       0.000       0.001       0.008       0.010
  | Times    6:        0.000       0.001       0.000       0.000       0.000       0.000       0.009       0.010
  | Times    7:        0.000       0.000       0.000       0.000       0.000       0.001       0.008       0.010
  | Times    8:        0.000       0.001       0.000       0.000       0.000       0.000       0.008       0.010
  | Times    9:        0.000       0.000       0.000       0.000       0.000       0.001       0.008       0.010
  | Times   10:        0.000       0.001       0.000       0.000       0.000       0.000       0.008       0.010
  | Times   11:        0.000       0.000       0.000       0.000       0.000       0.001       0.008       0.010
  | Times   12:        0.000       0.000       0.000       0.000       0.000       0.000       0.008       0.010
  | Times   13:        0.000       0.000       0.000       0.000       0.000       0.001       0.008       0.010
  | Times   14:        0.000       0.000       0.000       0.000       0.000       0.000       0.008       0.010
  | Times   15:        0.000       0.000       0.000       0.000       0.000       0.001       0.008       0.010
  | Times   16:        0.000       0.000       0.000       0.000       0.000       0.000       0.008       0.010
  | Times   17:        0.000       0.000       0.000       0.000       0.000       0.001       0.008       0.010
  | Times   18:        0.000       0.000       0.000       0.000       0.000       0.000       0.008       0.010
  | Times   19:        0.000       0.000       0.000       0.000       0.000       0.001       0.008       0.010
  | Times   20:        0.000       0.001       0.000       0.000       0.000       0.000       0.008       0.010
  | Times   21:        0.000       0.000       0.000       0.000       0.000       0.001       0.008       0.010
  | Times   22:        0.000       0.001       0.001       0.000       0.000       0.000       0.008       0.010
  | Times   23:        0.000       0.000       0.000       0.000       0.000       0.001       0.008       0.010
  | Times   24:        0.000       0.001       0.000       0.000       0.000       0.000       0.008       0.010
  | Times   25:        0.000       0.000       0.000       0.000       0.000       0.001       0.008       0.010
  | Times   26:        0.000       0.001       0.000       0.000       0.000       0.000       0.008       0.010
  | Times   27:        0.000       0.000       0.000       0.000       0.000       0.001       0.008       0.010
  | Times   28:        0.000       0.001       0.000       0.000       0.000       0.000       0.008       0.010
  | Times   29:        0.000       0.000       0.000       0.000       0.000       0.001       0.008       0.010
  | Times   30:        0.000       0.000       0.000       0.000       0.000       0.000       0.008       0.010
  | Times   31:        0.000       0.000       0.000       0.000       0.000       0.001       0.008       0.010
  | Times   32:        0.000       0.001       0.000       0.000       0.000       0.000       0.008       0.010
  | Times   33:        0.000       0.000       0.000       0.000       0.000       0.001       0.008       0.010
  | Times   34:        0.000       0.001       0.000       0.000       0.000       0.000       0.008       0.010
  | Times   35:        0.000       0.000       0.000       0.000       0.000       0.001       0.008       0.010
  | Times   36:        0.000       0.001       0.000       0.000       0.000       0.000       0.008       0.010
  | Times   37:        0.000       0.000       0.000       0.000       0.000       0.001       0.008       0.010
  | Times   38:        0.000       0.001       0.000       0.000       0.000       0.000       0.008       0.010
  | Times   39:        0.000       0.000       0.000       0.000       0.000       0.001       0.008       0.010
  | Times   40:        0.000       0.001       0.000       0.000       0.000       0.000       0.008       0.010
  | Times   41:        0.000       0.000       0.000       0.000       0.000       0.000       0.008       0.010
  | Times   42:        0.000       0.001       0.000       0.000       0.000       0.000       0.008       0.010
  | Times   43:        0.000       0.000       0.000       0.000       0.000       0.000       0.008       0.010
  | Times   44:        0.000       0.001       0.000       0.000       0.000       0.000       0.008       0.010
  | Times   45:        0.000       0.000       0.000       0.000       0.000       0.000       0.008       0.010
  | Times   46:        0.000       0.001       0.000       0.000       0.000       0.000       0.008       0.010
  | Times   47:        0.000       0.000       0.000       0.000       0.000       0.000       0.008       0.010
  | Times   48:        0.000       0.001       0.000       0.000       0.000       0.000       0.008       0.010
  | Times   49:        0.000       0.000       0.000       0.000       0.000       0.000       0.008       0.010
  | Times   50:        0.000       0.001       0.000       0.000       0.000       0.000       0.008       0.010
  | Times   51:        0.000       0.000       0.000       0.000       0.000       0.000       0.008       0.010
  | Times   52:        0.000       0.001       0.000       0.000       0.000       0.000       0.008       0.010
  | Times   53:        0.000       0.000       0.000       0.000       0.000       0.000       0.008       0.010
  | Times   54:        0.000       0.001       0.000       0.000       0.000       0.001       0.008       0.010
  | Times   55:        0.000       0.000       0.000       0.000       0.000       0.000       0.008       0.010
  | Times   56:        0.000       0.001       0.000       0.000       0.000       0.000       0.008       0.010
  | Times   57:        0.000       0.001       0.000       0.000       0.000       0.000       0.008       0.010
  | Times   58:        0.000       0.001       0.000       0.000       0.000       0.001       0.008       0.010
  | Times   59:        0.000       0.000       0.000       0.000       0.000       0.000       0.008       0.010
  | Times   60:        0.000       0.001       0.000       0.000       0.000       0.000       0.008       0.010
  | Times   61:        0.000       0.000       0.000       0.000       0.000       0.000       0.008       0.010
  | Times   62:        0.000       0.001       0.000       0.000       0.000       0.000       0.008       0.010
  | Times   63:        0.000       0.000       0.000       0.000       0.000       0.000       0.008       0.010
  | Times  sum:        0.011       0.030       0.012       0.011       0.016       0.028       0.515       0.623

  Decomposition of Other based on code block (only on MPI task 0):
  Times             Block #1    Block #2    Block #3    Block #4    Block #5    Block #6    Block #7    Block #8
  | Times    0:        0.000       0.000       0.000       0.000       0.000       0.000       0.000       0.000

  Times             Block #9   Block #10   Block #11   Block #12   Block #13   Block #14   Block #15   Block #16
  | Times    0:        0.000       0.000       0.000       0.001       0.000       0.006       0.000       0.000

  Times            Block Sum    Expected
  | Times    0:        0.007       0.008
  Time for Fock matrix mixing     0.000

  Updating Kohn-Sham eigenvalues and eigenvectors using ELSI and the ELPA eigensolver.
  Starting ELPA eigensolver
  Finished transformation to standard eigenproblem
  | Time :     0.001 s
  Finished solving standard eigenproblem
  | Time :     0.000 s
  Finished back-transformation of eigenvectors
  | Time :     0.000 s

  Obtaining occupation numbers and electronic chemical potential using ELSI.
  | Note that, for insulating systems, the printed 'chemical potential' value is not uniquely defined.
  | It can be anywhere in the energy gap, as long as it correctly separates occupied and unoccupied states.
  | In systems with a gap, the physically relevant chemical potential is the VBM or HOMO.

  | Chemical potential (Fermi level):    -6.04407152 eV
  Highest occupied state (VBM) at     -8.86184269 eV
  | Occupation number:      2.00000000

  Lowest unoccupied state (CBM) at    -3.22630035 eV
  | Occupation number:      0.00000000

  Overall HOMO-LUMO gap:      5.63554234 eV.

  Total energy components:
  | Sum of eigenvalues            :        -192.24685210 Ha       -5231.30301141 eV
  | XC energy correction          :         -13.26844507 Ha        -361.05276061 eV
  | XC potential correction       :          26.94591504 Ha         733.23565488 eV
  | Free-atom electrostatic energy:        -149.49732459 Ha       -4068.02918108 eV
  | Hartree energy correction     :          -0.30940637 Ha          -8.41937570 eV
  | Entropy correction            :          -0.00000000 Ha          -0.00000000 eV
  | ---------------------------
  | Total energy                  :        -328.37611309 Ha       -8935.56867392 eV
  | Total energy, T -> 0          :        -328.37611309 Ha       -8935.56867392 eV  <-- do not rely on this value for anything but (periodic) metals
  | Electronic free energy        :        -328.37611309 Ha       -8935.56867392 eV

  Derived energy quantities:
  | Kinetic energy                :         328.57744997 Ha        8941.04732922 eV
  | Electrostatic energy          :        -630.82389295 Ha      -17165.59150279 eV
  | Energy correction for multipole
  | error in Hartree potential    :          -0.00012437 Ha          -0.00338427 eV
  | Sum of eigenvalues per atom                           :       -2615.65150570 eV
  | Total energy (T->0) per atom                          :       -4467.78433696 eV  <-- do not rely on this value for anything but (periodic) metals
  | Electronic free energy per atom                       :       -4467.78433696 eV
  Evaluating new KS density.
  Integration grid: deviation in total charge (<rho> - N_e) =   7.105427E-15

  Self-consistency convergence accuracy:
  | Change of charge density      :  0.7044E-03
  | Change of unmixed KS density  :  0.6962E-03
  | Change of sum of eigenvalues  : -0.1591E+00 eV
  | Change of total energy        : -0.1145E-01 eV


------------------------------------------------------------
  End self-consistency iteration #    12       :  max(cpu_time)    wall_clock(cpu1)
  | Time for this iteration                     :        0.315 s           0.315 s
  | Charge density update                       :        0.001 s           0.001 s
  | Density mixing                              :        0.298 s           0.296 s
  | Hartree multipole update                    :        0.001 s           0.001 s
  | Hartree multipole summation                 :        0.003 s           0.003 s
  | Integration                                 :        0.002 s           0.002 s
  | Fock matrix evaluation                      :        0.011 s           0.010 s
  | Solution of K.-S. eqns.                     :        0.001 s           0.002 s
  | Total energy evaluation                     :        0.000 s           0.000 s

  Partial memory accounting:
  | Current value for overall tracked memory usage:
  |   Minimum:        1.199 MB (on task 14)
  |   Maximum:        1.906 MB (on task 52)
  |   Average:        1.592 MB
  | Peak value for overall tracked memory usage:
  |   Minimum:        1.689 MB (on task 10 after allocating wave)
  |   Maximum:        3.972 MB (on task  1 after allocating ovlp3fn_nosplit%tmploc)
  |   Average:        2.152 MB
  | Largest tracked array allocation so far:
  |   Minimum:        0.919 MB (aux_mat on task  2)
  |   Maximum:        1.655 MB (ovlp3fn_nosplit%dat on task  1)
  |   Average:        1.212 MB
  Note:  These values currently only include a subset of arrays which are explicitly tracked.
  The "true" memory usage will be greater.
------------------------------------------------------------

------------------------------------------------------------
          Begin self-consistency iteration #   13

  Date     :  20260724, Time     :  101717.491
------------------------------------------------------------
  Pulay mixing of updated and previous charge densities.
  Available memory per node after mixing [GB]:   1025.53
  Renormalizing the density to the exact electron count on the 3D integration grid.
  | Formal number of electrons (from input files) :      20.0000000000
  | Integrated number of electrons on 3D grid     :      20.0000000000
  | Charge integration error                      :       0.0000000000
  | Normalization factor for density and gradient :       1.0000000000

  Evaluating partitioned Hartree potential by multipole expansion.
  | Original multipole sum: apparent total charge =  -0.531311E-14
  | Sum of charges compensated after spline to logarithmic grids =   0.217596E-06
  | Analytical far-field extrapolation by fixed multipoles:
  | Hartree multipole sum: apparent total charge =  -0.482116E-14
  Summing up the Hartree potential.
  Time summed over all CPUs for potential: real work        0.001 s, elapsed        0.001 s
  | RMS charge density error from multipole expansion :   0.159851E-02

  Integrating Hamiltonian matrix: batch-based integration.
  Time summed over all CPUs for integration: real work        0.080 s, elapsed        0.097 s
  Calculating non-local Hartree-Fock exchange by two-center RI (RI-LVL).
  screening_threshold (crit_val) =  0.000000100000
  Exact exchange progress report - outermost block loop i_block: 1 ..       3
  |        1         2         3  
 Total ovlp3fn data transfer [GB]   7.3643994983285666E-004
  Average sparsity of tmp1/2 0.50000000
  Average sparsity of fock_matrix_row 0.02173913
  Full exact exchange energy: weighted long- and short-range EXX    174.982112413746 eV.
  Times            DM_x_o3fn   CM_prod_1   CM_prod_2   tmp2_prod        Sync   Imbalance       Other  Total calc
  | Times    0:        0.000       0.001       0.000       0.000       0.000       0.000       0.008       0.009
  | Times    1:        0.000       0.000       0.000       0.000       0.000       0.001       0.008       0.009
  | Times    2:        0.000       0.001       0.001       0.000       0.000       0.000       0.007       0.009
  | Times    3:        0.000       0.000       0.000       0.000       0.000       0.001       0.008       0.009
  | Times    4:        0.000       0.000       0.000       0.000       0.000       0.000       0.008       0.009
  | Times    5:        0.000       0.000       0.000       0.000       0.000       0.001       0.008       0.009
  | Times    6:        0.000       0.000       0.000       0.000       0.000       0.000       0.008       0.010
  | Times    7:        0.000       0.000       0.000       0.000       0.000       0.001       0.008       0.009
  | Times    8:        0.000       0.001       0.000       0.000       0.000       0.000       0.008       0.009
  | Times    9:        0.000       0.000       0.000       0.000       0.000       0.001       0.008       0.009
  | Times   10:        0.000       0.001       0.001       0.000       0.000       0.000       0.007       0.009
  | Times   11:        0.000       0.000       0.000       0.000       0.000       0.001       0.008       0.009
  | Times   12:        0.000       0.000       0.000       0.000       0.000       0.000       0.008       0.009
  | Times   13:        0.000       0.000       0.000       0.000       0.000       0.001       0.008       0.009
  | Times   14:        0.000       0.000       0.000       0.000       0.000       0.000       0.008       0.009
  | Times   15:        0.000       0.000       0.000       0.000       0.000       0.001       0.008       0.009
  | Times   16:        0.000       0.001       0.000       0.000       0.000       0.000       0.008       0.009
  | Times   17:        0.000       0.000       0.000       0.000       0.000       0.001       0.008       0.009
  | Times   18:        0.000       0.001       0.001       0.000       0.000       0.000       0.007       0.009
  | Times   19:        0.000       0.000       0.000       0.000       0.000       0.001       0.008       0.009
  | Times   20:        0.000       0.001       0.000       0.000       0.000       0.000       0.008       0.009
  | Times   21:        0.000       0.000       0.000       0.000       0.000       0.001       0.008       0.009
  | Times   22:        0.000       0.001       0.001       0.000       0.000       0.000       0.008       0.009
  | Times   23:        0.000       0.000       0.000       0.000       0.000       0.001       0.008       0.009
  | Times   24:        0.000       0.000       0.000       0.000       0.000       0.000       0.008       0.009
  | Times   25:        0.000       0.000       0.000       0.000       0.000       0.001       0.008       0.009
  | Times   26:        0.000       0.000       0.000       0.000       0.000       0.000       0.008       0.009
  | Times   27:        0.000       0.000       0.000       0.000       0.000       0.001       0.008       0.009
  | Times   28:        0.000       0.001       0.000       0.000       0.000       0.000       0.008       0.009
  | Times   29:        0.000       0.000       0.000       0.000       0.000       0.001       0.008       0.009
  | Times   30:        0.000       0.001       0.001       0.000       0.000       0.000       0.008       0.009
  | Times   31:        0.000       0.000       0.000       0.000       0.000       0.001       0.008       0.009
  | Times   32:        0.000       0.000       0.000       0.000       0.000       0.000       0.008       0.009
  | Times   33:        0.000       0.000       0.000       0.000       0.000       0.001       0.008       0.009
  | Times   34:        0.000       0.000       0.000       0.000       0.000       0.000       0.008       0.009
  | Times   35:        0.000       0.000       0.000       0.000       0.000       0.001       0.008       0.009
  | Times   36:        0.000       0.001       0.000       0.000       0.000       0.000       0.008       0.009
  | Times   37:        0.000       0.000       0.000       0.000       0.000       0.001       0.008       0.009
  | Times   38:        0.000       0.001       0.000       0.000       0.000       0.000       0.008       0.009
  | Times   39:        0.000       0.000       0.000       0.000       0.000       0.001       0.008       0.009
  | Times   40:        0.000       0.001       0.000       0.000       0.000       0.000       0.008       0.009
  | Times   41:        0.000       0.000       0.000       0.000       0.000       0.000       0.008       0.009
  | Times   42:        0.000       0.001       0.000       0.000       0.000       0.000       0.008       0.009
  | Times   43:        0.000       0.000       0.000       0.000       0.000       0.000       0.008       0.009
  | Times   44:        0.000       0.001       0.000       0.000       0.000       0.000       0.007       0.009
  | Times   45:        0.000       0.000       0.000       0.000       0.000       0.000       0.008       0.009
  | Times   46:        0.000       0.001       0.000       0.000       0.000       0.001       0.008       0.009
  | Times   47:        0.000       0.000       0.000       0.000       0.000       0.000       0.008       0.009
  | Times   48:        0.000       0.001       0.000       0.000       0.000       0.000       0.008       0.009
  | Times   49:        0.000       0.000       0.000       0.000       0.000       0.000       0.008       0.009
  | Times   50:        0.000       0.001       0.000       0.000       0.000       0.000       0.008       0.009
  | Times   51:        0.000       0.000       0.000       0.000       0.000       0.000       0.008       0.009
  | Times   52:        0.000       0.001       0.000       0.000       0.000       0.000       0.008       0.009
  | Times   53:        0.000       0.000       0.000       0.000       0.000       0.000       0.008       0.009
  | Times   54:        0.000       0.001       0.000       0.000       0.000       0.000       0.008       0.009
  | Times   55:        0.000       0.000       0.000       0.000       0.000       0.000       0.008       0.009
  | Times   56:        0.000       0.001       0.000       0.000       0.000       0.000       0.008       0.009
  | Times   57:        0.000       0.001       0.000       0.000       0.000       0.000       0.008       0.009
  | Times   58:        0.000       0.001       0.000       0.000       0.000       0.001       0.008       0.009
  | Times   59:        0.000       0.000       0.000       0.000       0.000       0.000       0.008       0.009
  | Times   60:        0.000       0.001       0.000       0.000       0.000       0.000       0.008       0.009
  | Times   61:        0.000       0.000       0.000       0.000       0.000       0.000       0.008       0.009
  | Times   62:        0.000       0.001       0.000       0.000       0.000       0.000       0.008       0.009
  | Times   63:        0.000       0.000       0.000       0.000       0.000       0.000       0.008       0.009
  | Times  sum:        0.010       0.030       0.012       0.011       0.016       0.027       0.501       0.608

  Decomposition of Other based on code block (only on MPI task 0):
  Times             Block #1    Block #2    Block #3    Block #4    Block #5    Block #6    Block #7    Block #8
  | Times    0:        0.000       0.000       0.000       0.000       0.000       0.000       0.000       0.000

  Times             Block #9   Block #10   Block #11   Block #12   Block #13   Block #14   Block #15   Block #16
  | Times    0:        0.000       0.000       0.000       0.001       0.000       0.006       0.000       0.000

  Times            Block Sum    Expected
  | Times    0:        0.007       0.008
  Time for Fock matrix mixing     0.000

  Updating Kohn-Sham eigenvalues and eigenvectors using ELSI and the ELPA eigensolver.
  Starting ELPA eigensolver
  Finished transformation to standard eigenproblem
  | Time :     0.000 s
  Finished solving standard eigenproblem
  | Time :     0.001 s
  Finished back-transformation of eigenvectors
  | Time :     0.000 s

  Obtaining occupation numbers and electronic chemical potential using ELSI.
  | Note that, for insulating systems, the printed 'chemical potential' value is not uniquely defined.
  | It can be anywhere in the energy gap, as long as it correctly separates occupied and unoccupied states.
  | In systems with a gap, the physically relevant chemical potential is the VBM or HOMO.

  | Chemical potential (Fermi level):    -6.04358224 eV
  Highest occupied state (VBM) at     -8.86002612 eV
  | Occupation number:      2.00000000

  Lowest unoccupied state (CBM) at    -3.22713836 eV
  | Occupation number:      0.00000000

  Overall HOMO-LUMO gap:      5.63288776 eV.

  Total energy components:
  | Sum of eigenvalues            :        -192.24734880 Ha       -5231.31652719 eV
  | XC energy correction          :         -13.26851739 Ha        -361.05472840 eV
  | XC potential correction       :          26.94583071 Ha         733.23336024 eV
  | Free-atom electrostatic energy:        -149.49732459 Ha       -4068.02918108 eV
  | Hartree energy correction     :          -0.30870060 Ha          -8.40017063 eV
  | Entropy correction            :          -0.00000000 Ha          -0.00000000 eV
  | ---------------------------
  | Total energy                  :        -328.37606065 Ha       -8935.56724707 eV
  | Total energy, T -> 0          :        -328.37606065 Ha       -8935.56724707 eV  <-- do not rely on this value for anything but (periodic) metals
  | Electronic free energy        :        -328.37606065 Ha       -8935.56724707 eV

  Derived energy quantities:
  | Kinetic energy                :         328.57673890 Ha        8941.02798009 eV
  | Electrostatic energy          :        -630.82332083 Ha      -17165.57593459 eV
  | Energy correction for multipole
  | error in Hartree potential    :          -0.00012314 Ha          -0.00335087 eV
  | Sum of eigenvalues per atom                           :       -2615.65826360 eV
  | Total energy (T->0) per atom                          :       -4467.78362353 eV  <-- do not rely on this value for anything but (periodic) metals
  | Electronic free energy per atom                       :       -4467.78362353 eV
  Evaluating new KS density.
  Integration grid: deviation in total charge (<rho> - N_e) =   1.065814E-14

  Self-consistency convergence accuracy:
  | Change of charge density      :  0.2031E-03
  | Change of unmixed KS density  :  0.9906E-03
  | Change of sum of eigenvalues  : -0.1352E-01 eV
  | Change of total energy        :  0.1427E-02 eV


------------------------------------------------------------
  End self-consistency iteration #    13       :  max(cpu_time)    wall_clock(cpu1)
  | Time for this iteration                     :        0.260 s           0.085 s
  | Charge density update                       :        0.001 s           0.001 s
  | Density mixing                              :        0.247 s           0.068 s
  | Hartree multipole update                    :        0.001 s           0.001 s
  | Hartree multipole summation                 :        0.002 s           0.002 s
  | Integration                                 :        0.002 s           0.002 s
  | Fock matrix evaluation                      :        0.010 s           0.010 s
  | Solution of K.-S. eqns.                     :        0.001 s           0.001 s
  | Total energy evaluation                     :        0.000 s           0.000 s

  Partial memory accounting:
  | Current value for overall tracked memory usage:
  |   Minimum:        1.199 MB (on task 14)
  |   Maximum:        1.906 MB (on task 52)
  |   Average:        1.592 MB
  | Peak value for overall tracked memory usage:
  |   Minimum:        1.689 MB (on task 10 after allocating wave)
  |   Maximum:        3.972 MB (on task  1 after allocating ovlp3fn_nosplit%tmploc)
  |   Average:        2.152 MB
  | Largest tracked array allocation so far:
  |   Minimum:        0.919 MB (aux_mat on task  2)
  |   Maximum:        1.655 MB (ovlp3fn_nosplit%dat on task  1)
  |   Average:        1.212 MB
  Note:  These values currently only include a subset of arrays which are explicitly tracked.
  The "true" memory usage will be greater.
------------------------------------------------------------

------------------------------------------------------------
          Begin self-consistency iteration #   14

  Date     :  20260724, Time     :  101717.607
------------------------------------------------------------
  Pulay mixing of updated and previous charge densities.
  Available memory per node after mixing [GB]:   1025.53
  Renormalizing the density to the exact electron count on the 3D integration grid.
  | Formal number of electrons (from input files) :      20.0000000000
  | Integrated number of electrons on 3D grid     :      20.0000000000
  | Charge integration error                      :       0.0000000000
  | Normalization factor for density and gradient :       1.0000000000

  Evaluating partitioned Hartree potential by multipole expansion.
  | Original multipole sum: apparent total charge =  -0.693656E-14
  | Sum of charges compensated after spline to logarithmic grids =   0.217744E-06
  | Analytical far-field extrapolation by fixed multipoles:
  | Hartree multipole sum: apparent total charge =  -0.634622E-14
  Summing up the Hartree potential.
  Time summed over all CPUs for potential: real work        0.001 s, elapsed        0.001 s
  | RMS charge density error from multipole expansion :   0.159930E-02

  Integrating Hamiltonian matrix: batch-based integration.
  Time summed over all CPUs for integration: real work        0.080 s, elapsed        0.096 s
  Calculating non-local Hartree-Fock exchange by two-center RI (RI-LVL).
  screening_threshold (crit_val) =  0.000000100000
  Exact exchange progress report - outermost block loop i_block: 1 ..       3
  |        1         2         3  
 Total ovlp3fn data transfer [GB]   7.3643994983285666E-004
  Average sparsity of tmp1/2 0.50000000
  Average sparsity of fock_matrix_row 0.02173913
  Full exact exchange energy: weighted long- and short-range EXX    174.979955041675 eV.
  Times            DM_x_o3fn   CM_prod_1   CM_prod_2   tmp2_prod        Sync   Imbalance       Other  Total calc
  | Times    0:        0.000       0.001       0.001       0.000       0.000       0.000       0.008       0.010
  | Times    1:        0.000       0.000       0.000       0.000       0.000       0.001       0.007       0.010
  | Times    2:        0.000       0.001       0.001       0.000       0.000       0.001       0.007       0.010
  | Times    3:        0.000       0.000       0.000       0.000       0.000       0.002       0.007       0.010
  | Times    4:        0.000       0.001       0.001       0.000       0.000       0.000       0.008       0.010
  | Times    5:        0.000       0.000       0.000       0.000       0.000       0.001       0.008       0.010
  | Times    6:        0.000       0.001       0.001       0.000       0.000       0.000       0.008       0.010
  | Times    7:        0.000       0.000       0.000       0.000       0.000       0.001       0.008       0.010
  | Times    8:        0.000       0.001       0.001       0.000       0.000       0.000       0.007       0.010
  | Times    9:        0.000       0.000       0.000       0.000       0.000       0.001       0.007       0.010
  | Times   10:        0.000       0.001       0.001       0.000       0.000       0.001       0.007       0.010
  | Times   11:        0.000       0.000       0.000       0.000       0.000       0.002       0.007       0.010
  | Times   12:        0.000       0.001       0.001       0.000       0.000       0.000       0.008       0.010
  | Times   13:        0.000       0.000       0.000       0.000       0.000       0.001       0.008       0.010
  | Times   14:        0.000       0.001       0.001       0.000       0.000       0.000       0.008       0.010
  | Times   15:        0.000       0.000       0.000       0.000       0.000       0.001       0.008       0.010
  | Times   16:        0.000       0.001       0.001       0.000       0.000       0.000       0.008       0.010
  | Times   17:        0.000       0.000       0.000       0.000       0.000       0.001       0.007       0.010
  | Times   18:        0.000       0.001       0.001       0.000       0.000       0.000       0.007       0.010
  | Times   19:        0.000       0.000       0.000       0.000       0.000       0.002       0.007       0.010
  | Times   20:        0.000       0.001       0.001       0.000       0.000       0.000       0.008       0.010
  | Times   21:        0.000       0.001       0.000       0.000       0.000       0.001       0.008       0.010
  | Times   22:        0.000       0.001       0.001       0.000       0.000       0.000       0.007       0.010
  | Times   23:        0.000       0.000       0.000       0.000       0.000       0.001       0.008       0.010
  | Times   24:        0.000       0.001       0.001       0.000       0.000       0.000       0.008       0.010
  | Times   25:        0.000       0.000       0.000       0.000       0.000       0.001       0.008       0.010
  | Times   26:        0.000       0.001       0.001       0.000       0.000       0.000       0.008       0.010
  | Times   27:        0.000       0.000       0.000       0.000       0.000       0.001       0.008       0.010
  | Times   28:        0.000       0.001       0.001       0.000       0.000       0.000       0.008       0.010
  | Times   29:        0.000       0.000       0.000       0.000       0.000       0.001       0.008       0.010
  | Times   30:        0.000       0.001       0.001       0.000       0.000       0.000       0.007       0.010
  | Times   31:        0.000       0.000       0.000       0.000       0.000       0.002       0.007       0.010
  | Times   32:        0.000       0.000       0.000       0.000       0.000       0.000       0.009       0.010
  | Times   33:        0.000       0.000       0.000       0.000       0.000       0.001       0.009       0.010
  | Times   34:        0.000       0.000       0.000       0.000       0.000       0.000       0.008       0.010
  | Times   35:        0.000       0.000       0.000       0.000       0.000       0.001       0.009       0.010
  | Times   36:        0.000       0.001       0.000       0.000       0.000       0.000       0.008       0.010
  | Times   37:        0.000       0.000       0.000       0.000       0.000       0.001       0.008       0.010
  | Times   38:        0.000       0.001       0.000       0.000       0.000       0.000       0.008       0.010
  | Times   39:        0.000       0.000       0.000       0.000       0.000       0.001       0.008       0.010
  | Times   40:        0.000       0.001       0.000       0.000       0.000       0.000       0.008       0.010
  | Times   41:        0.000       0.000       0.000       0.000       0.000       0.000       0.008       0.010
  | Times   42:        0.000       0.001       0.000       0.000       0.000       0.000       0.008       0.010
  | Times   43:        0.000       0.000       0.000       0.000       0.000       0.000       0.008       0.010
  | Times   44:        0.000       0.001       0.000       0.000       0.000       0.000       0.008       0.010
  | Times   45:        0.000       0.000       0.000       0.000       0.000       0.000       0.008       0.010
  | Times   46:        0.000       0.001       0.000       0.000       0.000       0.001       0.008       0.010
  | Times   47:        0.000       0.000       0.000       0.000       0.000       0.000       0.008       0.010
  | Times   48:        0.000       0.001       0.000       0.000       0.000       0.000       0.008       0.010
  | Times   49:        0.000       0.000       0.000       0.000       0.000       0.000       0.008       0.010
  | Times   50:        0.000       0.001       0.000       0.000       0.000       0.000       0.008       0.010
  | Times   51:        0.000       0.000       0.000       0.000       0.000       0.000       0.008       0.010
  | Times   52:        0.000       0.001       0.000       0.000       0.000       0.000       0.008       0.010
  | Times   53:        0.000       0.000       0.000       0.000       0.000       0.000       0.008       0.010
  | Times   54:        0.000       0.001       0.000       0.000       0.000       0.000       0.009       0.010
  | Times   55:        0.000       0.000       0.000       0.000       0.000       0.000       0.008       0.010
  | Times   56:        0.000       0.001       0.000       0.000       0.000       0.000       0.008       0.010
  | Times   57:        0.000       0.001       0.000       0.000       0.000       0.000       0.008       0.010
  | Times   58:        0.000       0.001       0.000       0.000       0.000       0.000       0.008       0.010
  | Times   59:        0.000       0.000       0.000       0.000       0.000       0.000       0.008       0.010
  | Times   60:        0.000       0.001       0.000       0.000       0.000       0.000       0.008       0.010
  | Times   61:        0.000       0.000       0.000       0.000       0.000       0.000       0.009       0.010
  | Times   62:        0.000       0.001       0.000       0.000       0.000       0.000       0.009       0.010
  | Times   63:        0.000       0.000       0.000       0.000       0.000       0.000       0.009       0.010
  | Times  sum:        0.010       0.035       0.016       0.011       0.015       0.038       0.512       0.637

  Decomposition of Other based on code block (only on MPI task 0):
  Times             Block #1    Block #2    Block #3    Block #4    Block #5    Block #6    Block #7    Block #8
  | Times    0:        0.000       0.000       0.000       0.000       0.000       0.000       0.000       0.000

  Times             Block #9   Block #10   Block #11   Block #12   Block #13   Block #14   Block #15   Block #16
  | Times    0:        0.000       0.000       0.000       0.001       0.000       0.006       0.000       0.000

  Times            Block Sum    Expected
  | Times    0:        0.007       0.008
  Time for Fock matrix mixing     0.000

  Updating Kohn-Sham eigenvalues and eigenvectors using ELSI and the ELPA eigensolver.
  Starting ELPA eigensolver
  Finished transformation to standard eigenproblem
  | Time :     0.001 s
  Finished solving standard eigenproblem
  | Time :     0.000 s
  Finished back-transformation of eigenvectors
  | Time :     0.000 s

  Obtaining occupation numbers and electronic chemical potential using ELSI.
  | Note that, for insulating systems, the printed 'chemical potential' value is not uniquely defined.
  | It can be anywhere in the energy gap, as long as it correctly separates occupied and unoccupied states.
  | In systems with a gap, the physically relevant chemical potential is the VBM or HOMO.

  | Chemical potential (Fermi level):    -6.04485454 eV
  Highest occupied state (VBM) at     -8.86050814 eV
  | Occupation number:      2.00000000

  Lowest unoccupied state (CBM) at    -3.22920095 eV
  | Occupation number:      0.00000000

  Overall HOMO-LUMO gap:      5.63130719 eV.

  Total energy components:
  | Sum of eigenvalues            :        -192.24692584 Ha       -5231.30501793 eV
  | XC energy correction          :         -13.26857513 Ha        -361.05629952 eV
  | XC potential correction       :          26.94578792 Ha         733.23219567 eV
  | Free-atom electrostatic energy:        -149.49732459 Ha       -4068.02918108 eV
  | Hartree energy correction     :          -0.30893098 Ha          -8.40643972 eV
  | Entropy correction            :          -0.00000000 Ha          -0.00000000 eV
  | ---------------------------
  | Total energy                  :        -328.37596862 Ha       -8935.56474258 eV
  | Total energy, T -> 0          :        -328.37596862 Ha       -8935.56474258 eV  <-- do not rely on this value for anything but (periodic) metals
  | Electronic free energy        :        -328.37596862 Ha       -8935.56474258 eV

  Derived energy quantities:
  | Kinetic energy                :         328.57648397 Ha        8941.02104284 eV
  | Electrostatic energy          :        -630.82309843 Ha      -17165.56988272 eV
  | Energy correction for multipole
  | error in Hartree potential    :          -0.00011953 Ha          -0.00325271 eV
  | Sum of eigenvalues per atom                           :       -2615.65250897 eV
  | Total energy (T->0) per atom                          :       -4467.78237129 eV  <-- do not rely on this value for anything but (periodic) metals
  | Electronic free energy per atom                       :       -4467.78237129 eV
  Evaluating new KS density.
  Integration grid: deviation in total charge (<rho> - N_e) =   7.105427E-15

  Self-consistency convergence accuracy:
  | Change of charge density      :  0.1648E-03
  | Change of unmixed KS density  :  0.2105E-03
  | Change of sum of eigenvalues  :  0.1151E-01 eV
  | Change of total energy        :  0.2504E-02 eV


------------------------------------------------------------
  End self-consistency iteration #    14       :  max(cpu_time)    wall_clock(cpu1)
  | Time for this iteration                     :        0.280 s           0.268 s
  | Charge density update                       :        0.001 s           0.001 s
  | Density mixing                              :        0.267 s           0.250 s
  | Hartree multipole update                    :        0.001 s           0.001 s
  | Hartree multipole summation                 :        0.002 s           0.002 s
  | Integration                                 :        0.002 s           0.002 s
  | Fock matrix evaluation                      :        0.011 s           0.010 s
  | Solution of K.-S. eqns.                     :        0.001 s           0.001 s
  | Total energy evaluation                     :        0.000 s           0.000 s

  Partial memory accounting:
  | Current value for overall tracked memory usage:
  |   Minimum:        1.199 MB (on task 14)
  |   Maximum:        1.906 MB (on task 52)
  |   Average:        1.592 MB
  | Peak value for overall tracked memory usage:
  |   Minimum:        1.689 MB (on task 10 after allocating wave)
  |   Maximum:        3.972 MB (on task  1 after allocating ovlp3fn_nosplit%tmploc)
  |   Average:        2.152 MB
  | Largest tracked array allocation so far:
  |   Minimum:        0.919 MB (aux_mat on task  2)
  |   Maximum:        1.655 MB (ovlp3fn_nosplit%dat on task  1)
  |   Average:        1.212 MB
  Note:  These values currently only include a subset of arrays which are explicitly tracked.
  The "true" memory usage will be greater.
------------------------------------------------------------

------------------------------------------------------------
          Begin self-consistency iteration #   15

  Date     :  20260724, Time     :  101717.920
------------------------------------------------------------
  Pulay mixing of updated and previous charge densities.
  Available memory per node after mixing [GB]:   1025.53
  Renormalizing the density to the exact electron count on the 3D integration grid.
  | Formal number of electrons (from input files) :      20.0000000000
  | Integrated number of electrons on 3D grid     :      20.0000000000
  | Charge integration error                      :       0.0000000000
  | Normalization factor for density and gradient :       1.0000000000

  Evaluating partitioned Hartree potential by multipole expansion.
  | Original multipole sum: apparent total charge =  -0.196782E-15
  | Sum of charges compensated after spline to logarithmic grids =   0.217712E-06
  | Analytical far-field extrapolation by fixed multipoles:
  | Hartree multipole sum: apparent total charge =  -0.491955E-15
  Summing up the Hartree potential.
  Time summed over all CPUs for potential: real work        0.001 s, elapsed        0.001 s
  | RMS charge density error from multipole expansion :   0.159924E-02

  Integrating Hamiltonian matrix: batch-based integration.
  Time summed over all CPUs for integration: real work        0.080 s, elapsed        0.096 s
  Calculating non-local Hartree-Fock exchange by two-center RI (RI-LVL).
  screening_threshold (crit_val) =  0.000000100000
  Exact exchange progress report - outermost block loop i_block: 1 ..       2
  |        1         2  
 Total ovlp3fn data transfer [GB]   4.9095996655523777E-004
  Average sparsity of tmp1/2 0.50000000
  Average sparsity of fock_matrix_row 0.02173913
  Full exact exchange energy: weighted long- and short-range EXX    174.979978130330 eV.
  Times            DM_x_o3fn   CM_prod_1   CM_prod_2   tmp2_prod        Sync   Imbalance       Other  Total calc
  | Times    0:        0.000       0.000       0.000       0.000       0.000       0.000       0.009       0.010
  | Times    1:        0.000       0.000       0.000       0.000       0.000       0.001       0.009       0.010
  | Times    2:        0.000       0.000       0.000       0.000       0.000       0.000       0.009       0.010
  | Times    3:        0.000       0.000       0.000       0.000       0.000       0.001       0.009       0.010
  | Times    4:        0.000       0.001       0.000       0.000       0.000       0.000       0.008       0.010
  | Times    5:        0.000       0.000       0.000       0.000       0.000       0.001       0.008       0.010
  | Times    6:        0.000       0.001       0.001       0.000       0.000       0.000       0.008       0.010
  | Times    7:        0.000       0.000       0.000       0.000       0.000       0.001       0.008       0.010
  | Times    8:        0.000       0.001       0.000       0.000       0.000       0.000       0.009       0.010
  | Times    9:        0.000       0.000       0.000       0.000       0.000       0.001       0.008       0.010
  | Times   10:        0.000       0.000       0.000       0.000       0.000       0.001       0.008       0.010
  | Times   11:        0.000       0.000       0.000       0.000       0.000       0.001       0.008       0.010
  | Times   12:        0.000       0.000       0.000       0.000       0.000       0.000       0.009       0.010
  | Times   13:        0.000       0.000       0.000       0.000       0.000       0.001       0.009       0.010
  | Times   14:        0.000       0.000       0.000       0.000       0.000       0.000       0.009       0.010
  | Times   15:        0.000       0.000       0.000       0.000       0.000       0.001       0.009       0.010
  | Times   16:        0.000       0.000       0.000       0.000       0.000       0.000       0.009       0.010
  | Times   17:        0.000       0.000       0.000       0.000       0.000       0.001       0.009       0.010
  | Times   18:        0.000       0.000       0.000       0.000       0.000       0.000       0.009       0.010
  | Times   19:        0.000       0.000       0.000       0.000       0.000       0.001       0.009       0.010
  | Times   20:        0.000       0.001       0.000       0.000       0.000       0.000       0.008       0.010
  | Times   21:        0.000       0.000       0.000       0.000       0.000       0.001       0.008       0.010
  | Times   22:        0.000       0.001       0.001       0.000       0.000       0.000       0.008       0.010
  | Times   23:        0.000       0.000       0.000       0.000       0.000       0.001       0.008       0.010
  | Times   24:        0.000       0.000       0.000       0.000       0.000       0.000       0.009       0.010
  | Times   25:        0.000       0.000       0.000       0.000       0.000       0.001       0.009       0.010
  | Times   26:        0.000       0.000       0.000       0.000       0.000       0.000       0.009       0.010
  | Times   27:        0.000       0.000       0.000       0.000       0.000       0.001       0.009       0.010
  | Times   28:        0.000       0.000       0.000       0.000       0.000       0.000       0.009       0.010
  | Times   29:        0.000       0.000       0.000       0.000       0.000       0.001       0.009       0.010
  | Times   30:        0.000       0.000       0.000       0.000       0.000       0.000       0.009       0.010
  | Times   31:        0.000       0.000       0.000       0.000       0.000       0.001       0.009       0.010
  | Times   32:        0.000       0.000       0.000       0.000       0.000       0.000       0.009       0.010
  | Times   33:        0.000       0.000       0.000       0.000       0.000       0.001       0.009       0.010
  | Times   34:        0.000       0.000       0.000       0.000       0.000       0.000       0.009       0.010
  | Times   35:        0.000       0.000       0.000       0.000       0.000       0.001       0.009       0.010
  | Times   36:        0.000       0.001       0.000       0.000       0.000       0.000       0.008       0.010
  | Times   37:        0.000       0.000       0.000       0.000       0.000       0.001       0.008       0.010
  | Times   38:        0.000       0.001       0.000       0.000       0.000       0.000       0.008       0.010
  | Times   39:        0.000       0.000       0.000       0.000       0.000       0.001       0.008       0.010
  | Times   40:        0.000       0.001       0.000       0.000       0.000       0.000       0.008       0.010
  | Times   41:        0.000       0.001       0.000       0.000       0.000       0.001       0.008       0.010
  | Times   42:        0.000       0.001       0.000       0.000       0.000       0.001       0.008       0.010
  | Times   43:        0.000       0.000       0.000       0.000       0.000       0.001       0.008       0.010
  | Times   44:        0.000       0.001       0.000       0.000       0.000       0.000       0.008       0.010
  | Times   45:        0.000       0.000       0.000       0.000       0.000       0.000       0.009       0.010
  | Times   46:        0.000       0.001       0.000       0.000       0.000       0.000       0.009       0.010
  | Times   47:        0.000       0.000       0.000       0.000       0.000       0.000       0.009       0.010
  | Times   48:        0.000       0.001       0.000       0.000       0.000       0.000       0.008       0.010
  | Times   49:        0.000       0.001       0.000       0.000       0.000       0.000       0.008       0.010
  | Times   50:        0.000       0.001       0.000       0.000       0.000       0.001       0.008       0.010
  | Times   51:        0.000       0.000       0.000       0.000       0.000       0.000       0.008       0.010
  | Times   52:        0.000       0.001       0.000       0.000       0.000       0.000       0.008       0.010
  | Times   53:        0.000       0.001       0.000       0.000       0.000       0.000       0.008       0.010
  | Times   54:        0.000       0.001       0.000       0.000       0.000       0.001       0.008       0.010
  | Times   55:        0.000       0.000       0.000       0.000       0.000       0.000       0.008       0.010
  | Times   56:        0.000       0.001       0.000       0.000       0.000       0.000       0.008       0.010
  | Times   57:        0.000       0.001       0.000       0.000       0.000       0.000       0.008       0.010
  | Times   58:        0.000       0.001       0.000       0.000       0.000       0.000       0.008       0.010
  | Times   59:        0.000       0.000       0.000       0.000       0.000       0.000       0.008       0.010
  | Times   60:        0.000       0.001       0.000       0.000       0.000       0.000       0.008       0.010
  | Times   61:        0.000       0.000       0.000       0.000       0.000       0.000       0.008       0.010
  | Times   62:        0.000       0.001       0.000       0.000       0.000       0.001       0.008       0.010
  | Times   63:        0.000       0.000       0.000       0.000       0.000       0.000       0.008       0.010
  | Times  sum:        0.010       0.030       0.012       0.011       0.015       0.028       0.540       0.647

  Decomposition of Other based on code block (only on MPI task 0):
  Times             Block #1    Block #2    Block #3    Block #4    Block #5    Block #6    Block #7    Block #8
  | Times    0:        0.000       0.000       0.000       0.000       0.000       0.000       0.000       0.000

  Times             Block #9   Block #10   Block #11   Block #12   Block #13   Block #14   Block #15   Block #16
  | Times    0:        0.000       0.000       0.000       0.001       0.000       0.006       0.000       0.000

  Times            Block Sum    Expected
  | Times    0:        0.008       0.009
  Time for Fock matrix mixing     0.000

  Updating Kohn-Sham eigenvalues and eigenvectors using ELSI and the ELPA eigensolver.
  Starting ELPA eigensolver
  Finished transformation to standard eigenproblem
  | Time :     0.000 s
  Finished solving standard eigenproblem
  | Time :     0.001 s
  Finished back-transformation of eigenvectors
  | Time :     0.000 s

  Obtaining occupation numbers and electronic chemical potential using ELSI.
  | Note that, for insulating systems, the printed 'chemical potential' value is not uniquely defined.
  | It can be anywhere in the energy gap, as long as it correctly separates occupied and unoccupied states.
  | In systems with a gap, the physically relevant chemical potential is the VBM or HOMO.

  | Chemical potential (Fermi level):    -6.04487238 eV
  Highest occupied state (VBM) at     -8.86050687 eV
  | Occupation number:      2.00000000

  Lowest unoccupied state (CBM) at    -3.22923789 eV
  | Occupation number:      0.00000000

  Overall HOMO-LUMO gap:      5.63126898 eV.

  Total energy components:
  | Sum of eigenvalues            :        -192.24694195 Ha       -5231.30545644 eV
  | XC energy correction          :         -13.26857629 Ha        -361.05633119 eV
  | XC potential correction       :          26.94578579 Ha         733.23213776 eV
  | Free-atom electrostatic energy:        -149.49732459 Ha       -4068.02918108 eV
  | Hartree energy correction     :          -0.30891060 Ha          -8.40588524 eV
  | Entropy correction            :          -0.00000000 Ha          -0.00000000 eV
  | ---------------------------
  | Total energy                  :        -328.37596765 Ha       -8935.56471618 eV
  | Total energy, T -> 0          :        -328.37596765 Ha       -8935.56471618 eV  <-- do not rely on this value for anything but (periodic) metals
  | Electronic free energy        :        -328.37596765 Ha       -8935.56471618 eV

  Derived energy quantities:
  | Kinetic energy                :         328.57648127 Ha        8941.02096949 eV
  | Electrostatic energy          :        -630.82309882 Ha      -17165.56989344 eV
  | Energy correction for multipole
  | error in Hartree potential    :          -0.00011951 Ha          -0.00325208 eV
  | Sum of eigenvalues per atom                           :       -2615.65272822 eV
  | Total energy (T->0) per atom                          :       -4467.78235809 eV  <-- do not rely on this value for anything but (periodic) metals
  | Electronic free energy per atom                       :       -4467.78235809 eV
  Evaluating new KS density.
  Integration grid: deviation in total charge (<rho> - N_e) =   1.065814E-14

  Self-consistency convergence accuracy:
  | Change of charge density      :  0.1052E-04
  | Change of unmixed KS density  :  0.6743E-04
  | Change of sum of eigenvalues  : -0.4385E-03 eV
  | Change of total energy        :  0.2639E-04 eV


------------------------------------------------------------
  End self-consistency iteration #    15       :  max(cpu_time)    wall_clock(cpu1)
  | Time for this iteration                     :        0.304 s           0.273 s
  | Charge density update                       :        0.001 s           0.001 s
  | Density mixing                              :        0.289 s           0.256 s
  | Hartree multipole update                    :        0.001 s           0.001 s
  | Hartree multipole summation                 :        0.002 s           0.001 s
  | Integration                                 :        0.002 s           0.002 s
  | Fock matrix evaluation                      :        0.011 s           0.011 s
  | Solution of K.-S. eqns.                     :        0.001 s           0.001 s
  | Total energy evaluation                     :        0.000 s           0.000 s

  Partial memory accounting:
  | Current value for overall tracked memory usage:
  |   Minimum:        1.199 MB (on task 14)
  |   Maximum:        1.906 MB (on task 52)
  |   Average:        1.592 MB
  | Peak value for overall tracked memory usage:
  |   Minimum:        1.689 MB (on task 10 after allocating wave)
  |   Maximum:        3.972 MB (on task  1 after allocating ovlp3fn_nosplit%tmploc)
  |   Average:        2.152 MB
  | Largest tracked array allocation so far:
  |   Minimum:        0.919 MB (aux_mat on task  2)
  |   Maximum:        1.655 MB (ovlp3fn_nosplit%dat on task  1)
  |   Average:        1.212 MB
  Note:  These values currently only include a subset of arrays which are explicitly tracked.
  The "true" memory usage will be greater.
------------------------------------------------------------

------------------------------------------------------------
          Begin self-consistency iteration #   16

  Date     :  20260724, Time     :  101718.408
------------------------------------------------------------
  Pulay mixing of updated and previous charge densities.
  Available memory per node after mixing [GB]:   1025.53
  Renormalizing the density to the exact electron count on the 3D integration grid.
  | Formal number of electrons (from input files) :      20.0000000000
  | Integrated number of electrons on 3D grid     :      20.0000000000
  | Charge integration error                      :       0.0000000000
  | Normalization factor for density and gradient :       1.0000000000

  Evaluating partitioned Hartree potential by multipole expansion.
  | Original multipole sum: apparent total charge =  -0.104786E-13
  | Sum of charges compensated after spline to logarithmic grids =   0.217623E-06
  | Analytical far-field extrapolation by fixed multipoles:
  | Hartree multipole sum: apparent total charge =  -0.107738E-13
  Summing up the Hartree potential.
  Time summed over all CPUs for potential: real work        0.001 s, elapsed        0.001 s
  | RMS charge density error from multipole expansion :   0.159911E-02

  Integrating Hamiltonian matrix: batch-based integration.
  Time summed over all CPUs for integration: real work        0.080 s, elapsed        0.097 s
  Calculating non-local Hartree-Fock exchange by two-center RI (RI-LVL).
  screening_threshold (crit_val) =  0.000000100000
  Exact exchange progress report - outermost block loop i_block: 1 ..       3
  |        1         2         3  
 Total ovlp3fn data transfer [GB]   7.3643994983285666E-004
  Average sparsity of tmp1/2 0.50000000
  Average sparsity of fock_matrix_row 0.02173913
  Full exact exchange energy: weighted long- and short-range EXX    174.979933428649 eV.
  Times            DM_x_o3fn   CM_prod_1   CM_prod_2   tmp2_prod        Sync   Imbalance       Other  Total calc
  | Times    0:        0.000       0.001       0.000       0.000       0.000       0.000       0.009       0.011
  | Times    1:        0.000       0.000       0.000       0.000       0.000       0.001       0.009       0.011
  | Times    2:        0.000       0.001       0.001       0.000       0.000       0.000       0.009       0.011
  | Times    3:        0.000       0.000       0.000       0.000       0.000       0.001       0.009       0.011
  | Times    4:        0.000       0.000       0.000       0.000       0.000       0.000       0.010       0.011
  | Times    5:        0.000       0.000       0.000       0.000       0.000       0.001       0.010       0.011
  | Times    6:        0.000       0.000       0.000       0.000       0.000       0.000       0.010       0.011
  | Times    7:        0.000       0.000       0.000       0.000       0.000       0.001       0.010       0.011
  | Times    8:        0.000       0.001       0.000       0.000       0.000       0.000       0.009       0.011
  | Times    9:        0.000       0.000       0.000       0.000       0.000       0.001       0.009       0.011
  | Times   10:        0.000       0.001       0.001       0.000       0.000       0.000       0.009       0.011
  | Times   11:        0.000       0.000       0.000       0.000       0.000       0.001       0.009       0.011
  | Times   12:        0.000       0.000       0.000       0.000       0.000       0.000       0.010       0.011
  | Times   13:        0.000       0.000       0.000       0.000       0.000       0.001       0.010       0.011
  | Times   14:        0.000       0.000       0.000       0.000       0.000       0.000       0.010       0.011
  | Times   15:        0.000       0.000       0.000       0.000       0.000       0.001       0.010       0.011
  | Times   16:        0.000       0.000       0.000       0.000       0.000       0.000       0.010       0.011
  | Times   17:        0.000       0.000       0.000       0.000       0.000       0.001       0.010       0.011
  | Times   18:        0.000       0.000       0.000       0.000       0.000       0.000       0.010       0.011
  | Times   19:        0.000       0.000       0.000       0.000       0.000       0.001       0.010       0.011
  | Times   20:        0.000       0.001       0.001       0.000       0.000       0.000       0.008       0.011
  | Times   21:        0.000       0.001       0.000       0.000       0.000       0.002       0.008       0.011
  | Times   22:        0.000       0.001       0.001       0.000       0.000       0.001       0.008       0.011
  | Times   23:        0.000       0.001       0.000       0.000       0.000       0.002       0.008       0.011
  | Times   24:        0.000       0.000       0.000       0.000       0.000       0.000       0.010       0.011
  | Times   25:        0.000       0.000       0.000       0.000       0.000       0.001       0.010       0.011
  | Times   26:        0.000       0.000       0.000       0.000       0.000       0.000       0.010       0.011
  | Times   27:        0.000       0.000       0.000       0.000       0.000       0.001       0.010       0.011
  | Times   28:        0.000       0.001       0.000       0.000       0.000       0.000       0.010       0.011
  | Times   29:        0.000       0.000       0.000       0.000       0.000       0.001       0.010       0.011
  | Times   30:        0.000       0.001       0.001       0.000       0.000       0.000       0.009       0.011
  | Times   31:        0.000       0.000       0.000       0.000       0.000       0.001       0.009       0.011
  | Times   32:        0.000       0.000       0.000       0.000       0.000       0.000       0.010       0.011
  | Times   33:        0.000       0.000       0.000       0.000       0.000       0.001       0.010       0.011
  | Times   34:        0.000       0.000       0.000       0.000       0.000       0.000       0.010       0.011
  | Times   35:        0.000       0.000       0.000       0.000       0.000       0.001       0.010       0.011
  | Times   36:        0.000       0.001       0.000       0.000       0.000       0.000       0.010       0.011
  | Times   37:        0.000       0.000       0.000       0.000       0.000       0.001       0.009       0.011
  | Times   38:        0.000       0.001       0.000       0.000       0.000       0.000       0.009       0.011
  | Times   39:        0.000       0.000       0.000       0.000       0.000       0.001       0.009       0.011
  | Times   40:        0.000       0.001       0.000       0.000       0.000       0.000       0.009       0.011
  | Times   41:        0.000       0.000       0.000       0.000       0.000       0.000       0.010       0.011
  | Times   42:        0.000       0.001       0.000       0.000       0.000       0.000       0.010       0.011
  | Times   43:        0.000       0.000       0.000       0.000       0.000       0.000       0.010       0.011
  | Times   44:        0.000       0.001       0.000       0.000       0.000       0.000       0.009       0.011
  | Times   45:        0.000       0.001       0.000       0.000       0.000       0.000       0.009       0.011
  | Times   46:        0.000       0.001       0.000       0.000       0.000       0.001       0.009       0.011
  | Times   47:        0.000       0.000       0.000       0.000       0.000       0.000       0.009       0.011
  | Times   48:        0.000       0.001       0.000       0.000       0.000       0.000       0.010       0.011
  | Times   49:        0.000       0.000       0.000       0.000       0.000       0.000       0.010       0.011
  | Times   50:        0.000       0.001       0.000       0.000       0.000       0.000       0.010       0.011
  | Times   51:        0.000       0.000       0.000       0.000       0.000       0.000       0.010       0.011
  | Times   52:        0.000       0.001       0.000       0.000       0.000       0.000       0.009       0.011
  | Times   53:        0.000       0.001       0.000       0.000       0.000       0.000       0.009       0.011
  | Times   54:        0.000       0.001       0.000       0.000       0.000       0.001       0.009       0.011
  | Times   55:        0.000       0.000       0.000       0.000       0.000       0.000       0.009       0.011
  | Times   56:        0.000       0.001       0.000       0.000       0.000       0.000       0.009       0.011
  | Times   57:        0.000       0.001       0.000       0.000       0.000       0.000       0.009       0.011
  | Times   58:        0.000       0.001       0.000       0.000       0.000       0.001       0.009       0.011
  | Times   59:        0.000       0.000       0.000       0.000       0.000       0.000       0.009       0.011
  | Times   60:        0.000       0.001       0.000       0.000       0.000       0.000       0.010       0.011
  | Times   61:        0.000       0.000       0.000       0.000       0.000       0.000       0.010       0.011
  | Times   62:        0.000       0.001       0.000       0.000       0.000       0.000       0.010       0.011
  | Times   63:        0.000       0.000       0.000       0.000       0.000       0.000       0.010       0.011
  | Times  sum:        0.011       0.032       0.013       0.011       0.016       0.030       0.605       0.716

  Decomposition of Other based on code block (only on MPI task 0):
  Times             Block #1    Block #2    Block #3    Block #4    Block #5    Block #6    Block #7    Block #8
  | Times    0:        0.000       0.000       0.000       0.000       0.000       0.000       0.000       0.000

  Times             Block #9   Block #10   Block #11   Block #12   Block #13   Block #14   Block #15   Block #16
  | Times    0:        0.000       0.000       0.000       0.002       0.000       0.006       0.000       0.000

  Times            Block Sum    Expected
  | Times    0:        0.008       0.009
  Time for Fock matrix mixing     0.000

  Updating Kohn-Sham eigenvalues and eigenvectors using ELSI and the ELPA eigensolver.
  Starting ELPA eigensolver
  Finished transformation to standard eigenproblem
  | Time :     0.000 s
  Finished solving standard eigenproblem
  | Time :     0.001 s
  Finished back-transformation of eigenvectors
  | Time :     0.000 s

  Obtaining occupation numbers and electronic chemical potential using ELSI.
  | Note that, for insulating systems, the printed 'chemical potential' value is not uniquely defined.
  | It can be anywhere in the energy gap, as long as it correctly separates occupied and unoccupied states.
  | In systems with a gap, the physically relevant chemical potential is the VBM or HOMO.

  | Chemical potential (Fermi level):    -6.04496957 eV
  Highest occupied state (VBM) at     -8.86068650 eV
  | Occupation number:      2.00000000

  Lowest unoccupied state (CBM) at    -3.22925264 eV
  | Occupation number:      0.00000000

  Overall HOMO-LUMO gap:      5.63143386 eV.

  Total energy components:
  | Sum of eigenvalues            :        -192.24704759 Ha       -5231.30833105 eV
  | XC energy correction          :         -13.26856713 Ha        -361.05608203 eV
  | XC potential correction       :          26.94578187 Ha         733.23203105 eV
  | Free-atom electrostatic energy:        -149.49732459 Ha       -4068.02918108 eV
  | Hartree energy correction     :          -0.30881909 Ha          -8.40339506 eV
  | Entropy correction            :          -0.00000000 Ha          -0.00000000 eV
  | ---------------------------
  | Total energy                  :        -328.37597654 Ha       -8935.56495816 eV
  | Total energy, T -> 0          :        -328.37597654 Ha       -8935.56495816 eV  <-- do not rely on this value for anything but (periodic) metals
  | Electronic free energy        :        -328.37597654 Ha       -8935.56495816 eV

  Derived energy quantities:
  | Kinetic energy                :         328.57651056 Ha        8941.02176640 eV
  | Electrostatic energy          :        -630.82313295 Ha      -17165.57082227 eV
  | Energy correction for multipole
  | error in Hartree potential    :          -0.00011943 Ha          -0.00324999 eV
  | Sum of eigenvalues per atom                           :       -2615.65416552 eV
  | Total energy (T->0) per atom                          :       -4467.78247908 eV  <-- do not rely on this value for anything but (periodic) metals
  | Electronic free energy per atom                       :       -4467.78247908 eV
  Evaluating new KS density.
  Integration grid: deviation in total charge (<rho> - N_e) =   7.105427E-15

  Self-consistency convergence accuracy:
  | Change of charge density      :  0.9195E-05
  | Change of unmixed KS density  :  0.3901E-05
  | Change of sum of eigenvalues  : -0.2875E-02 eV
  | Change of total energy        : -0.2420E-03 eV


------------------------------------------------------------
  End self-consistency iteration #    16       :  max(cpu_time)    wall_clock(cpu1)
  | Time for this iteration                     :        0.267 s           0.066 s
  | Charge density update                       :        0.001 s           0.001 s
  | Density mixing                              :        0.251 s           0.048 s
  | Hartree multipole update                    :        0.001 s           0.001 s
  | Hartree multipole summation                 :        0.002 s           0.001 s
  | Integration                                 :        0.002 s           0.002 s
  | Fock matrix evaluation                      :        0.012 s           0.012 s
  | Solution of K.-S. eqns.                     :        0.001 s           0.001 s
  | Total energy evaluation                     :        0.000 s           0.000 s

  Partial memory accounting:
  | Current value for overall tracked memory usage:
  |   Minimum:        1.199 MB (on task 14)
  |   Maximum:        1.906 MB (on task 52)
  |   Average:        1.592 MB
  | Peak value for overall tracked memory usage:
  |   Minimum:        1.689 MB (on task 10 after allocating wave)
  |   Maximum:        3.972 MB (on task  1 after allocating ovlp3fn_nosplit%tmploc)
  |   Average:        2.152 MB
  | Largest tracked array allocation so far:
  |   Minimum:        0.919 MB (aux_mat on task  2)
  |   Maximum:        1.655 MB (ovlp3fn_nosplit%dat on task  1)
  |   Average:        1.212 MB
  Note:  These values currently only include a subset of arrays which are explicitly tracked.
  The "true" memory usage will be greater.
------------------------------------------------------------

------------------------------------------------------------
          Begin self-consistency iteration #   17

  Date     :  20260724, Time     :  101718.652
------------------------------------------------------------
  Pulay mixing of updated and previous charge densities.
  Available memory per node after mixing [GB]:   1025.52
  Renormalizing the density to the exact electron count on the 3D integration grid.
  | Formal number of electrons (from input files) :      20.0000000000
  | Integrated number of electrons on 3D grid     :      20.0000000000
  | Charge integration error                      :       0.0000000000
  | Normalization factor for density and gradient :       1.0000000000

  Evaluating partitioned Hartree potential by multipole expansion.
  | Original multipole sum: apparent total charge =   0.142667E-14
  | Sum of charges compensated after spline to logarithmic grids =   0.217620E-06
  | Analytical far-field extrapolation by fixed multipoles:
  | Hartree multipole sum: apparent total charge =   0.393564E-15
  Summing up the Hartree potential.
  Time summed over all CPUs for potential: real work        0.001 s, elapsed        0.001 s
  | RMS charge density error from multipole expansion :   0.159912E-02

  Integrating Hamiltonian matrix: batch-based integration.
  Time summed over all CPUs for integration: real work        0.080 s, elapsed        0.096 s
  Calculating non-local Hartree-Fock exchange by two-center RI (RI-LVL).
  screening_threshold (crit_val) =  0.000000100000
  Exact exchange progress report - outermost block loop i_block: 1 ..       3
  |        1         2         3  
 Total ovlp3fn data transfer [GB]   7.3643994983285666E-004
  Average sparsity of tmp1/2 0.50000000
  Average sparsity of fock_matrix_row 0.02173913
  Full exact exchange energy: weighted long- and short-range EXX    174.979870947292 eV.
  Times            DM_x_o3fn   CM_prod_1   CM_prod_2   tmp2_prod        Sync   Imbalance       Other  Total calc
  | Times    0:        0.000       0.001       0.000       0.000       0.000       0.000       0.008       0.010
  | Times    1:        0.000       0.000       0.000       0.000       0.000       0.001       0.008       0.010
  | Times    2:        0.000       0.001       0.001       0.000       0.000       0.000       0.008       0.010
  | Times    3:        0.000       0.000       0.000       0.000       0.000       0.001       0.008       0.010
  | Times    4:        0.000       0.001       0.000       0.000       0.000       0.000       0.008       0.010
  | Times    5:        0.000       0.000       0.000       0.000       0.000       0.001       0.008       0.010
  | Times    6:        0.000       0.001       0.001       0.000       0.000       0.000       0.008       0.010
  | Times    7:        0.000       0.000       0.000       0.000       0.000       0.001       0.008       0.010
  | Times    8:        0.000       0.000       0.000       0.000       0.000       0.000       0.008       0.010
  | Times    9:        0.000       0.000       0.000       0.000       0.000       0.001       0.008       0.010
  | Times   10:        0.000       0.000       0.000       0.000       0.000       0.000       0.008       0.010
  | Times   11:        0.000       0.000       0.000       0.000       0.000       0.001       0.008       0.010
  | Times   12:        0.000       0.001       0.000       0.000       0.000       0.000       0.008       0.010
  | Times   13:        0.000       0.000       0.000       0.000       0.000       0.001       0.008       0.010
  | Times   14:        0.000       0.001       0.001       0.000       0.000       0.000       0.008       0.010
  | Times   15:        0.000       0.000       0.000       0.000       0.000       0.001       0.008       0.010
  | Times   16:        0.000       0.000       0.000       0.000       0.000       0.000       0.008       0.010
  | Times   17:        0.000       0.000       0.000       0.000       0.000       0.001       0.008       0.010
  | Times   18:        0.000       0.000       0.000       0.000       0.000       0.000       0.008       0.010
  | Times   19:        0.000       0.000       0.000       0.000       0.000       0.001       0.008       0.010
  | Times   20:        0.000       0.000       0.000       0.000       0.000       0.000       0.008       0.010
  | Times   21:        0.000       0.000       0.000       0.000       0.000       0.001       0.008       0.010
  | Times   22:        0.000       0.000       0.000       0.000       0.000       0.000       0.008       0.010
  | Times   23:        0.000       0.000       0.000       0.000       0.000       0.001       0.008       0.010
  | Times   24:        0.000       0.000       0.000       0.000       0.000       0.000       0.008       0.010
  | Times   25:        0.000       0.000       0.000       0.000       0.000       0.001       0.008       0.010
  | Times   26:        0.000       0.000       0.000       0.000       0.000       0.000       0.008       0.010
  | Times   27:        0.000       0.000       0.000       0.000       0.000       0.001       0.008       0.010
  | Times   28:        0.000       0.001       0.000       0.000       0.000       0.000       0.008       0.010
  | Times   29:        0.000       0.000       0.000       0.000       0.000       0.001       0.008       0.010
  | Times   30:        0.000       0.001       0.001       0.000       0.000       0.000       0.008       0.010
  | Times   31:        0.000       0.000       0.000       0.000       0.000       0.001       0.008       0.010
  | Times   32:        0.000       0.000       0.000       0.000       0.000       0.000       0.008       0.010
  | Times   33:        0.000       0.000       0.000       0.000       0.000       0.001       0.008       0.010
  | Times   34:        0.000       0.000       0.000       0.000       0.000       0.000       0.008       0.010
  | Times   35:        0.000       0.000       0.000       0.000       0.000       0.001       0.008       0.010
  | Times   36:        0.000       0.001       0.000       0.000       0.000       0.000       0.008       0.010
  | Times   37:        0.000       0.000       0.000       0.000       0.000       0.001       0.008       0.010
  | Times   38:        0.000       0.001       0.001       0.000       0.000       0.000       0.008       0.010
  | Times   39:        0.000       0.000       0.000       0.000       0.000       0.001       0.008       0.010
  | Times   40:        0.000       0.001       0.000       0.000       0.000       0.000       0.007       0.010
  | Times   41:        0.000       0.001       0.000       0.000       0.000       0.000       0.008       0.010
  | Times   42:        0.000       0.001       0.000       0.000       0.000       0.001       0.008       0.010
  | Times   43:        0.000       0.000       0.000       0.000       0.000       0.001       0.007       0.010
  | Times   44:        0.000       0.001       0.000       0.000       0.000       0.000       0.008       0.010
  | Times   45:        0.000       0.000       0.000       0.000       0.000       0.000       0.008       0.010
  | Times   46:        0.000       0.001       0.000       0.000       0.000       0.000       0.008       0.010
  | Times   47:        0.000       0.000       0.000       0.000       0.000       0.000       0.008       0.010
  | Times   48:        0.000       0.001       0.000       0.000       0.000       0.000       0.008       0.010
  | Times   49:        0.000       0.000       0.000       0.000       0.000       0.000       0.008       0.010
  | Times   50:        0.000       0.001       0.000       0.000       0.000       0.000       0.008       0.010
  | Times   51:        0.000       0.000       0.000       0.000       0.000       0.000       0.008       0.010
  | Times   52:        0.000       0.001       0.000       0.000       0.000       0.000       0.008       0.010
  | Times   53:        0.000       0.001       0.000       0.000       0.000       0.000       0.008       0.010
  | Times   54:        0.000       0.001       0.000       0.000       0.000       0.001       0.008       0.010
  | Times   55:        0.000       0.000       0.000       0.000       0.000       0.000       0.008       0.010
  | Times   56:        0.000       0.001       0.000       0.000       0.000       0.000       0.008       0.010
  | Times   57:        0.000       0.001       0.000       0.000       0.000       0.000       0.008       0.010
  | Times   58:        0.000       0.001       0.000       0.000       0.000       0.001       0.008       0.010
  | Times   59:        0.000       0.001       0.000       0.000       0.000       0.000       0.008       0.010
  | Times   60:        0.000       0.001       0.000       0.000       0.000       0.000       0.008       0.010
  | Times   61:        0.000       0.000       0.000       0.000       0.000       0.000       0.008       0.010
  | Times   62:        0.000       0.001       0.000       0.000       0.000       0.000       0.008       0.010
  | Times   63:        0.000       0.000       0.000       0.000       0.000       0.000       0.008       0.010
  | Times  sum:        0.010       0.030       0.012       0.011       0.015       0.027       0.505       0.611

  Decomposition of Other based on code block (only on MPI task 0):
  Times             Block #1    Block #2    Block #3    Block #4    Block #5    Block #6    Block #7    Block #8
  | Times    0:        0.000       0.000       0.000       0.000       0.000       0.000       0.000       0.000

  Times             Block #9   Block #10   Block #11   Block #12   Block #13   Block #14   Block #15   Block #16
  | Times    0:        0.000       0.000       0.000       0.001       0.000       0.006       0.000       0.000

  Times            Block Sum    Expected
  | Times    0:        0.007       0.008
  Time for Fock matrix mixing     0.000

  Updating Kohn-Sham eigenvalues and eigenvectors using ELSI and the ELPA eigensolver.
  Starting ELPA eigensolver
  Finished transformation to standard eigenproblem
  | Time :     0.000 s
  Finished solving standard eigenproblem
  | Time :     0.001 s
  Finished back-transformation of eigenvectors
  | Time :     0.000 s

  Obtaining occupation numbers and electronic chemical potential using ELSI.
  | Note that, for insulating systems, the printed 'chemical potential' value is not uniquely defined.
  | It can be anywhere in the energy gap, as long as it correctly separates occupied and unoccupied states.
  | In systems with a gap, the physically relevant chemical potential is the VBM or HOMO.

  | Chemical potential (Fermi level):    -6.04496314 eV
  Highest occupied state (VBM) at     -8.86067386 eV
  | Occupation number:      2.00000000

  Lowest unoccupied state (CBM) at    -3.22925242 eV
  | Occupation number:      0.00000000

  Overall HOMO-LUMO gap:      5.63142144 eV.

  Total energy components:
  | Sum of eigenvalues            :        -192.24705268 Ha       -5231.30846940 eV
  | XC energy correction          :         -13.26856732 Ha        -361.05608722 eV
  | XC potential correction       :          26.94578135 Ha         733.23201699 eV
  | Free-atom electrostatic energy:        -149.49732459 Ha       -4068.02918108 eV
  | Hartree energy correction     :          -0.30881300 Ha          -8.40322919 eV
  | Entropy correction            :          -0.00000000 Ha          -0.00000000 eV
  | ---------------------------
  | Total energy                  :        -328.37597624 Ha       -8935.56494990 eV
  | Total energy, T -> 0          :        -328.37597624 Ha       -8935.56494990 eV  <-- do not rely on this value for anything but (periodic) metals
  | Electronic free energy        :        -328.37597624 Ha       -8935.56494990 eV

  Derived energy quantities:
  | Kinetic energy                :         328.57650293 Ha        8941.02155886 eV
  | Electrostatic energy          :        -630.82312596 Ha      -17165.57063193 eV
  | Energy correction for multipole
  | error in Hartree potential    :          -0.00011944 Ha          -0.00325008 eV
  | Sum of eigenvalues per atom                           :       -2615.65423470 eV
  | Total energy (T->0) per atom                          :       -4467.78247495 eV  <-- do not rely on this value for anything but (periodic) metals
  | Electronic free energy per atom                       :       -4467.78247495 eV
  Evaluating new KS density.
  Integration grid: deviation in total charge (<rho> - N_e) =   7.105427E-15

  Self-consistency convergence accuracy:
  | Change of charge density      :  0.2056E-05
  | Change of unmixed KS density  :  0.7185E-05
  | Change of sum of eigenvalues  : -0.1384E-03 eV
  | Change of total energy        :  0.8263E-05 eV


------------------------------------------------------------
  End self-consistency iteration #    17       :  max(cpu_time)    wall_clock(cpu1)
  | Time for this iteration                     :        0.249 s           0.090 s
  | Charge density update                       :        0.001 s           0.001 s
  | Density mixing                              :        0.232 s           0.073 s
  | Hartree multipole update                    :        0.001 s           0.001 s
  | Hartree multipole summation                 :        0.002 s           0.002 s
  | Integration                                 :        0.002 s           0.002 s
  | Fock matrix evaluation                      :        0.010 s           0.010 s
  | Solution of K.-S. eqns.                     :        0.001 s           0.001 s
  | Total energy evaluation                     :        0.000 s           0.000 s

  Partial memory accounting:
  | Current value for overall tracked memory usage:
  |   Minimum:        1.199 MB (on task 14)
  |   Maximum:        1.906 MB (on task 52)
  |   Average:        1.592 MB
  | Peak value for overall tracked memory usage:
  |   Minimum:        1.689 MB (on task 10 after allocating wave)
  |   Maximum:        3.972 MB (on task  1 after allocating ovlp3fn_nosplit%tmploc)
  |   Average:        2.152 MB
  | Largest tracked array allocation so far:
  |   Minimum:        0.919 MB (aux_mat on task  2)
  |   Maximum:        1.655 MB (ovlp3fn_nosplit%dat on task  1)
  |   Average:        1.212 MB
  Note:  These values currently only include a subset of arrays which are explicitly tracked.
  The "true" memory usage will be greater.
------------------------------------------------------------

------------------------------------------------------------
          Begin self-consistency iteration #   18

  Date     :  20260724, Time     :  101718.817
------------------------------------------------------------
  Pulay mixing of updated and previous charge densities.
  Available memory per node after mixing [GB]:   1025.52
  Renormalizing the density to the exact electron count on the 3D integration grid.
  | Formal number of electrons (from input files) :      20.0000000000
  | Integrated number of electrons on 3D grid     :      20.0000000000
  | Charge integration error                      :       0.0000000000
  | Normalization factor for density and gradient :       1.0000000000

  Evaluating partitioned Hartree potential by multipole expansion.
  | Original multipole sum: apparent total charge =  -0.364047E-14
  | Sum of charges compensated after spline to logarithmic grids =   0.217644E-06
  | Analytical far-field extrapolation by fixed multipoles:
  | Hartree multipole sum: apparent total charge =  -0.388644E-14
  Summing up the Hartree potential.
  Time summed over all CPUs for potential: real work        0.001 s, elapsed        0.001 s
  | RMS charge density error from multipole expansion :   0.159912E-02

  Integrating Hamiltonian matrix: batch-based integration.
  Time summed over all CPUs for integration: real work        0.080 s, elapsed        0.096 s
  Calculating non-local Hartree-Fock exchange by two-center RI (RI-LVL).
  screening_threshold (crit_val) =  0.000000100000
  Exact exchange progress report - outermost block loop i_block: 1 ..       3
  |        1         2         3  
 Total ovlp3fn data transfer [GB]   7.3643994983285666E-004
  Average sparsity of tmp1/2 0.50000000
  Average sparsity of fock_matrix_row 0.02173913
  Full exact exchange energy: weighted long- and short-range EXX    174.979863888191 eV.
  Times            DM_x_o3fn   CM_prod_1   CM_prod_2   tmp2_prod        Sync   Imbalance       Other  Total calc
  | Times    0:        0.000       0.001       0.001       0.000       0.000       0.000       0.008       0.010
  | Times    1:        0.000       0.000       0.000       0.000       0.000       0.001       0.007       0.010
  | Times    2:        0.000       0.001       0.001       0.000       0.000       0.001       0.007       0.010
  | Times    3:        0.000       0.000       0.000       0.000       0.000       0.002       0.007       0.010
  | Times    4:        0.000       0.001       0.001       0.000       0.000       0.000       0.008       0.010
  | Times    5:        0.000       0.000       0.000       0.000       0.000       0.001       0.008       0.010
  | Times    6:        0.000       0.001       0.001       0.000       0.000       0.000       0.009       0.011
  | Times    7:        0.000       0.000       0.000       0.000       0.000       0.001       0.008       0.010
  | Times    8:        0.000       0.001       0.001       0.000       0.000       0.000       0.007       0.010
  | Times    9:        0.000       0.000       0.000       0.000       0.000       0.001       0.007       0.010
  | Times   10:        0.000       0.001       0.001       0.000       0.000       0.001       0.007       0.010
  | Times   11:        0.000       0.000       0.000       0.000       0.000       0.002       0.007       0.010
  | Times   12:        0.000       0.001       0.001       0.000       0.000       0.000       0.008       0.010
  | Times   13:        0.000       0.000       0.000       0.000       0.000       0.001       0.008       0.010
  | Times   14:        0.000       0.001       0.001       0.000       0.000       0.000       0.008       0.010
  | Times   15:        0.000       0.000       0.000       0.000       0.000       0.001       0.008       0.010
  | Times   16:        0.000       0.001       0.001       0.000       0.000       0.000       0.008       0.010
  | Times   17:        0.000       0.000       0.000       0.000       0.000       0.001       0.007       0.010
  | Times   18:        0.000       0.001       0.001       0.000       0.000       0.001       0.007       0.010
  | Times   19:        0.000       0.000       0.000       0.000       0.000       0.002       0.007       0.010
  | Times   20:        0.000       0.001       0.001       0.000       0.000       0.000       0.008       0.010
  | Times   21:        0.000       0.001       0.000       0.000       0.000       0.001       0.008       0.010
  | Times   22:        0.000       0.001       0.001       0.000       0.000       0.001       0.007       0.010
  | Times   23:        0.000       0.000       0.000       0.000       0.000       0.002       0.007       0.010
  | Times   24:        0.000       0.001       0.001       0.000       0.000       0.000       0.008       0.010
  | Times   25:        0.000       0.000       0.000       0.000       0.000       0.001       0.008       0.010
  | Times   26:        0.000       0.001       0.001       0.000       0.000       0.000       0.008       0.010
  | Times   27:        0.000       0.000       0.000       0.000       0.000       0.001       0.008       0.010
  | Times   28:        0.000       0.001       0.001       0.000       0.000       0.000       0.008       0.010
  | Times   29:        0.000       0.000       0.000       0.000       0.000       0.002       0.007       0.010
  | Times   30:        0.000       0.001       0.001       0.000       0.000       0.001       0.007       0.010
  | Times   31:        0.000       0.001       0.000       0.000       0.000       0.002       0.007       0.010
  | Times   32:        0.000       0.000       0.000       0.000       0.000       0.000       0.009       0.010
  | Times   33:        0.000       0.000       0.000       0.000       0.000       0.001       0.009       0.010
  | Times   34:        0.000       0.000       0.000       0.000       0.000       0.000       0.009       0.010
  | Times   35:        0.000       0.000       0.000       0.000       0.000       0.001       0.009       0.010
  | Times   36:        0.000       0.001       0.000       0.000       0.000       0.000       0.008       0.010
  | Times   37:        0.000       0.000       0.000       0.000       0.000       0.001       0.008       0.010
  | Times   38:        0.000       0.001       0.000       0.000       0.000       0.000       0.008       0.010
  | Times   39:        0.000       0.000       0.000       0.000       0.000       0.001       0.008       0.010
  | Times   40:        0.000       0.001       0.000       0.000       0.000       0.001       0.008       0.010
  | Times   41:        0.000       0.001       0.000       0.000       0.000       0.000       0.008       0.010
  | Times   42:        0.000       0.001       0.000       0.000       0.000       0.001       0.008       0.010
  | Times   43:        0.000       0.000       0.000       0.000       0.000       0.001       0.008       0.010
  | Times   44:        0.000       0.001       0.000       0.000       0.000       0.000       0.008       0.010
  | Times   45:        0.000       0.000       0.000       0.000       0.000       0.000       0.008       0.010
  | Times   46:        0.000       0.001       0.000       0.000       0.000       0.000       0.008       0.010
  | Times   47:        0.000       0.000       0.000       0.000       0.000       0.000       0.008       0.010
  | Times   48:        0.000       0.001       0.000       0.000       0.000       0.000       0.008       0.010
  | Times   49:        0.000       0.000       0.000       0.000       0.000       0.000       0.009       0.010
  | Times   50:        0.000       0.001       0.000       0.000       0.000       0.000       0.009       0.010
  | Times   51:        0.000       0.000       0.000       0.000       0.000       0.000       0.009       0.010
  | Times   52:        0.000       0.001       0.000       0.000       0.000       0.000       0.008       0.010
  | Times   53:        0.000       0.001       0.000       0.000       0.000       0.000       0.008       0.010
  | Times   54:        0.000       0.001       0.000       0.000       0.000       0.001       0.008       0.010
  | Times   55:        0.000       0.000       0.000       0.000       0.000       0.000       0.008       0.010
  | Times   56:        0.000       0.001       0.000       0.000       0.000       0.000       0.008       0.010
  | Times   57:        0.000       0.000       0.000       0.000       0.000       0.000       0.009       0.010
  | Times   58:        0.000       0.001       0.000       0.000       0.000       0.000       0.009       0.010
  | Times   59:        0.000       0.000       0.000       0.000       0.000       0.000       0.008       0.010
  | Times   60:        0.000       0.001       0.000       0.000       0.000       0.000       0.009       0.010
  | Times   61:        0.000       0.000       0.000       0.000       0.000       0.000       0.009       0.010
  | Times   62:        0.000       0.001       0.000       0.000       0.000       0.000       0.009       0.010
  | Times   63:        0.000       0.000       0.000       0.000       0.000       0.000       0.009       0.010
  | Times  sum:        0.010       0.036       0.016       0.011       0.015       0.039       0.514       0.641

  Decomposition of Other based on code block (only on MPI task 0):
  Times             Block #1    Block #2    Block #3    Block #4    Block #5    Block #6    Block #7    Block #8
  | Times    0:        0.000       0.000       0.000       0.000       0.000       0.000       0.000       0.000

  Times             Block #9   Block #10   Block #11   Block #12   Block #13   Block #14   Block #15   Block #16
  | Times    0:        0.000       0.000       0.000       0.001       0.000       0.006       0.000       0.000

  Times            Block Sum    Expected
  | Times    0:        0.007       0.008
  Time for Fock matrix mixing     0.000

  Updating Kohn-Sham eigenvalues and eigenvectors using ELSI and the ELPA eigensolver.
  Starting ELPA eigensolver
  Finished transformation to standard eigenproblem
  | Time :     0.001 s
  Finished solving standard eigenproblem
  | Time :     0.000 s
  Finished back-transformation of eigenvectors
  | Time :     0.000 s

  Obtaining occupation numbers and electronic chemical potential using ELSI.
  | Note that, for insulating systems, the printed 'chemical potential' value is not uniquely defined.
  | It can be anywhere in the energy gap, as long as it correctly separates occupied and unoccupied states.
  | In systems with a gap, the physically relevant chemical potential is the VBM or HOMO.

  | Chemical potential (Fermi level):    -6.04495621 eV
  Highest occupied state (VBM) at     -8.86066265 eV
  | Occupation number:      2.00000000

  Lowest unoccupied state (CBM) at    -3.22924977 eV
  | Occupation number:      0.00000000

  Overall HOMO-LUMO gap:      5.63141288 eV.

  Total energy components:
  | Sum of eigenvalues            :        -192.24705016 Ha       -5231.30840095 eV
  | XC energy correction          :         -13.26856821 Ha        -361.05611131 eV
  | XC potential correction       :          26.94578146 Ha         733.23202007 eV
  | Free-atom electrostatic energy:        -149.49732459 Ha       -4068.02918108 eV
  | Hartree energy correction     :          -0.30881335 Ha          -8.40323870 eV
  | Entropy correction            :          -0.00000000 Ha          -0.00000000 eV
  | ---------------------------
  | Total energy                  :        -328.37597484 Ha       -8935.56491198 eV
  | Total energy, T -> 0          :        -328.37597484 Ha       -8935.56491198 eV  <-- do not rely on this value for anything but (periodic) metals
  | Electronic free energy        :        -328.37597484 Ha       -8935.56491198 eV

  Derived energy quantities:
  | Kinetic energy                :         328.57649152 Ha        8941.02124839 eV
  | Electrostatic energy          :        -630.82311394 Ha      -17165.57030489 eV
  | Energy correction for multipole
  | error in Hartree potential    :          -0.00011948 Ha          -0.00325133 eV
  | Sum of eigenvalues per atom                           :       -2615.65420048 eV
  | Total energy (T->0) per atom                          :       -4467.78245599 eV  <-- do not rely on this value for anything but (periodic) metals
  | Electronic free energy per atom                       :       -4467.78245599 eV
  Evaluating new KS density.
  Integration grid: deviation in total charge (<rho> - N_e) =   7.105427E-15

  Self-consistency convergence accuracy:
  | Change of charge density      :  0.1121E-05
  | Change of unmixed KS density  :  0.1174E-05
  | Change of sum of eigenvalues  :  0.6845E-04 eV
  | Change of total energy        :  0.3792E-04 eV


------------------------------------------------------------
  End self-consistency iteration #    18       :  max(cpu_time)    wall_clock(cpu1)
  | Time for this iteration                     :        0.272 s           0.219 s
  | Charge density update                       :        0.001 s           0.001 s
  | Density mixing                              :        0.259 s           0.201 s
  | Hartree multipole update                    :        0.001 s           0.001 s
  | Hartree multipole summation                 :        0.002 s           0.002 s
  | Integration                                 :        0.002 s           0.001 s
  | Fock matrix evaluation                      :        0.011 s           0.011 s
  | Solution of K.-S. eqns.                     :        0.001 s           0.002 s
  | Total energy evaluation                     :        0.000 s           0.000 s

  Partial memory accounting:
  | Current value for overall tracked memory usage:
  |   Minimum:        1.199 MB (on task 14)
  |   Maximum:        1.906 MB (on task 52)
  |   Average:        1.592 MB
  | Peak value for overall tracked memory usage:
  |   Minimum:        1.689 MB (on task 10 after allocating wave)
  |   Maximum:        3.972 MB (on task  1 after allocating ovlp3fn_nosplit%tmploc)
  |   Average:        2.152 MB
  | Largest tracked array allocation so far:
  |   Minimum:        0.919 MB (aux_mat on task  2)
  |   Maximum:        1.655 MB (ovlp3fn_nosplit%dat on task  1)
  |   Average:        1.212 MB
  Note:  These values currently only include a subset of arrays which are explicitly tracked.
  The "true" memory usage will be greater.
------------------------------------------------------------

------------------------------------------------------------
          Begin self-consistency iteration #   19

  Date     :  20260724, Time     :  101719.358
------------------------------------------------------------
  Pulay mixing of updated and previous charge densities.
  Available memory per node after mixing [GB]:   1025.52
  Renormalizing the density to the exact electron count on the 3D integration grid.
  | Formal number of electrons (from input files) :      20.0000000000
  | Integrated number of electrons on 3D grid     :      20.0000000000
  | Charge integration error                      :       0.0000000000
  | Normalization factor for density and gradient :       1.0000000000

  Evaluating partitioned Hartree potential by multipole expansion.
  | Original multipole sum: apparent total charge =  -0.442759E-14
  | Sum of charges compensated after spline to logarithmic grids =   0.217644E-06
  | Analytical far-field extrapolation by fixed multipoles:
  | Hartree multipole sum: apparent total charge =  -0.487035E-14
  Summing up the Hartree potential.
  Time summed over all CPUs for potential: real work        0.001 s, elapsed        0.001 s
  | RMS charge density error from multipole expansion :   0.159912E-02

  Integrating Hamiltonian matrix: batch-based integration.
  Time summed over all CPUs for integration: real work        0.080 s, elapsed        0.102 s
  Calculating non-local Hartree-Fock exchange by two-center RI (RI-LVL).
  screening_threshold (crit_val) =  0.000000100000
  Exact exchange progress report - outermost block loop i_block: 1 ..       2
  |        1         2  
 Total ovlp3fn data transfer [GB]   4.9095996655523777E-004
  Average sparsity of tmp1/2 0.50000000
  Average sparsity of fock_matrix_row 0.02173913
  Full exact exchange energy: weighted long- and short-range EXX    174.979879082965 eV.
  Times            DM_x_o3fn   CM_prod_1   CM_prod_2   tmp2_prod        Sync   Imbalance       Other  Total calc
  | Times    0:        0.000       0.000       0.000       0.000       0.000       0.000       0.009       0.010
  | Times    1:        0.000       0.000       0.000       0.000       0.000       0.001       0.009       0.010
  | Times    2:        0.000       0.000       0.000       0.000       0.000       0.000       0.009       0.010
  | Times    3:        0.000       0.000       0.000       0.000       0.000       0.001       0.009       0.010
  | Times    4:        0.000       0.001       0.000       0.000       0.000       0.000       0.008       0.010
  | Times    5:        0.000       0.000       0.000       0.000       0.000       0.001       0.008       0.010
  | Times    6:        0.000       0.001       0.001       0.000       0.000       0.000       0.008       0.010
  | Times    7:        0.000       0.000       0.000       0.000       0.000       0.001       0.008       0.010
  | Times    8:        0.000       0.000       0.000       0.000       0.000       0.000       0.009       0.010
  | Times    9:        0.000       0.000       0.000       0.000       0.000       0.001       0.009       0.010
  | Times   10:        0.000       0.000       0.000       0.000       0.000       0.000       0.009       0.010
  | Times   11:        0.000       0.000       0.000       0.000       0.000       0.001       0.009       0.010
  | Times   12:        0.000       0.000       0.000       0.000       0.000       0.000       0.009       0.010
  | Times   13:        0.000       0.000       0.000       0.000       0.000       0.001       0.009       0.010
  | Times   14:        0.000       0.000       0.000       0.000       0.000       0.000       0.009       0.010
  | Times   15:        0.000       0.000       0.000       0.000       0.000       0.001       0.009       0.010
  | Times   16:        0.000       0.000       0.000       0.000       0.000       0.000       0.009       0.010
  | Times   17:        0.000       0.000       0.000       0.000       0.000       0.001       0.009       0.010
  | Times   18:        0.000       0.000       0.000       0.000       0.000       0.000       0.009       0.010
  | Times   19:        0.000       0.000       0.000       0.000       0.000       0.001       0.009       0.010
  | Times   20:        0.000       0.001       0.000       0.000       0.000       0.000       0.008       0.010
  | Times   21:        0.000       0.000       0.000       0.000       0.000       0.001       0.008       0.010
  | Times   22:        0.000       0.001       0.001       0.000       0.000       0.000       0.008       0.010
  | Times   23:        0.000       0.000       0.000       0.000       0.000       0.001       0.008       0.010
  | Times   24:        0.000       0.000       0.000       0.000       0.000       0.000       0.009       0.010
  | Times   25:        0.000       0.000       0.000       0.000       0.000       0.001       0.009       0.010
  | Times   26:        0.000       0.000       0.000       0.000       0.000       0.000       0.009       0.010
  | Times   27:        0.000       0.000       0.000       0.000       0.000       0.001       0.009       0.010
  | Times   28:        0.000       0.000       0.000       0.000       0.000       0.000       0.009       0.010
  | Times   29:        0.000       0.000       0.000       0.000       0.000       0.001       0.009       0.010
  | Times   30:        0.000       0.000       0.000       0.000       0.000       0.000       0.009       0.010
  | Times   31:        0.000       0.000       0.000       0.000       0.000       0.001       0.009       0.010
  | Times   32:        0.000       0.000       0.000       0.000       0.000       0.000       0.009       0.010
  | Times   33:        0.000       0.000       0.000       0.000       0.000       0.001       0.009       0.010
  | Times   34:        0.000       0.000       0.000       0.000       0.000       0.000       0.009       0.010
  | Times   35:        0.000       0.000       0.000       0.000       0.000       0.001       0.009       0.010
  | Times   36:        0.000       0.001       0.000       0.000       0.000       0.000       0.008       0.010
  | Times   37:        0.000       0.000       0.000       0.000       0.000       0.001       0.008       0.010
  | Times   38:        0.000       0.001       0.000       0.000       0.000       0.000       0.008       0.010
  | Times   39:        0.000       0.000       0.000       0.000       0.000       0.001       0.008       0.010
  | Times   40:        0.000       0.001       0.000       0.000       0.000       0.000       0.008       0.010
  | Times   41:        0.000       0.001       0.000       0.000       0.000       0.001       0.008       0.010
  | Times   42:        0.000       0.001       0.000       0.000       0.000       0.001       0.008       0.010
  | Times   43:        0.000       0.000       0.000       0.000       0.000       0.001       0.008       0.010
  | Times   44:        0.000       0.001       0.000       0.000       0.000       0.000       0.008       0.010
  | Times   45:        0.000       0.001       0.000       0.000       0.000       0.000       0.008       0.010
  | Times   46:        0.000       0.001       0.000       0.000       0.000       0.000       0.008       0.010
  | Times   47:        0.000       0.000       0.000       0.000       0.000       0.000       0.008       0.010
  | Times   48:        0.000       0.001       0.000       0.000       0.000       0.000       0.008       0.010
  | Times   49:        0.000       0.000       0.000       0.000       0.000       0.000       0.009       0.010
  | Times   50:        0.000       0.001       0.000       0.000       0.000       0.000       0.009       0.010
  | Times   51:        0.000       0.000       0.000       0.000       0.000       0.000       0.009       0.010
  | Times   52:        0.000       0.001       0.000       0.000       0.000       0.000       0.008       0.010
  | Times   53:        0.000       0.001       0.000       0.000       0.000       0.000       0.008       0.010
  | Times   54:        0.000       0.001       0.000       0.000       0.000       0.000       0.008       0.010
  | Times   55:        0.000       0.000       0.000       0.000       0.000       0.000       0.008       0.010
  | Times   56:        0.000       0.001       0.000       0.000       0.000       0.000       0.008       0.010
  | Times   57:        0.000       0.001       0.000       0.000       0.000       0.000       0.008       0.010
  | Times   58:        0.000       0.001       0.000       0.000       0.000       0.000       0.008       0.010
  | Times   59:        0.000       0.000       0.000       0.000       0.000       0.000       0.008       0.010
  | Times   60:        0.000       0.001       0.000       0.000       0.000       0.000       0.008       0.010
  | Times   61:        0.000       0.001       0.000       0.000       0.000       0.000       0.008       0.010
  | Times   62:        0.000       0.001       0.000       0.000       0.000       0.001       0.008       0.010
  | Times   63:        0.000       0.000       0.000       0.000       0.000       0.000       0.008       0.010
  | Times  sum:        0.010       0.031       0.012       0.011       0.016       0.028       0.541       0.648

  Decomposition of Other based on code block (only on MPI task 0):
  Times             Block #1    Block #2    Block #3    Block #4    Block #5    Block #6    Block #7    Block #8
  | Times    0:        0.000       0.000       0.000       0.000       0.000       0.000       0.000       0.000

  Times             Block #9   Block #10   Block #11   Block #12   Block #13   Block #14   Block #15   Block #16
  | Times    0:        0.000       0.000       0.000       0.001       0.000       0.006       0.000       0.000

  Times            Block Sum    Expected
  | Times    0:        0.008       0.009
  Time for Fock matrix mixing     0.000

  Updating Kohn-Sham eigenvalues and eigenvectors using ELSI and the ELPA eigensolver.
  Starting ELPA eigensolver
  Finished transformation to standard eigenproblem
  | Time :     0.000 s
  Finished solving standard eigenproblem
  | Time :     0.001 s
  Finished back-transformation of eigenvectors
  | Time :     0.000 s

  Obtaining occupation numbers and electronic chemical potential using ELSI.
  | Note that, for insulating systems, the printed 'chemical potential' value is not uniquely defined.
  | It can be anywhere in the energy gap, as long as it correctly separates occupied and unoccupied states.
  | In systems with a gap, the physically relevant chemical potential is the VBM or HOMO.

  | Chemical potential (Fermi level):    -6.04495640 eV
  Highest occupied state (VBM) at     -8.86066290 eV
  | Occupation number:      2.00000000

  Lowest unoccupied state (CBM) at    -3.22924989 eV
  | Occupation number:      0.00000000

  Overall HOMO-LUMO gap:      5.63141301 eV.

  Total energy components:
  | Sum of eigenvalues            :        -192.24705015 Ha       -5231.30840066 eV
  | XC energy correction          :         -13.26856820 Ha        -361.05611107 eV
  | XC potential correction       :          26.94578147 Ha         733.23202024 eV
  | Free-atom electrostatic energy:        -149.49732459 Ha       -4068.02918108 eV
  | Hartree energy correction     :          -0.30881339 Ha          -8.40323996 eV
  | Entropy correction            :          -0.00000000 Ha          -0.00000000 eV
  | ---------------------------
  | Total energy                  :        -328.37597486 Ha       -8935.56491253 eV
  | Total energy, T -> 0          :        -328.37597486 Ha       -8935.56491253 eV  <-- do not rely on this value for anything but (periodic) metals
  | Electronic free energy        :        -328.37597486 Ha       -8935.56491253 eV

  Derived energy quantities:
  | Kinetic energy                :         328.57649173 Ha        8941.02125402 eV
  | Electrostatic energy          :        -630.82311415 Ha      -17165.57031056 eV
  | Energy correction for multipole
  | error in Hartree potential    :          -0.00011948 Ha          -0.00325133 eV
  | Sum of eigenvalues per atom                           :       -2615.65420033 eV
  | Total energy (T->0) per atom                          :       -4467.78245626 eV  <-- do not rely on this value for anything but (periodic) metals
  | Electronic free energy per atom                       :       -4467.78245626 eV

  Self-consistency convergence accuracy:
  | Change of charge density      :  0.2762E-06
  | Change of unmixed KS density  :  0.1799E-05
  | Change of sum of eigenvalues  :  0.2891E-06 eV
  | Change of total energy        : -0.5483E-06 eV

  Writing Kohn-Sham eigenvalues.

  State    Occupation    Eigenvalue [Ha]    Eigenvalue [eV]
      1       2.00000         -66.795506        -1817.59820
      2       2.00000         -10.465121         -284.77043
      3       2.00000          -5.533935         -150.58604
      4       2.00000          -3.823001         -104.02916
      5       2.00000          -3.819468         -103.93302
      6       2.00000          -3.819468         -103.93302
      7       2.00000          -0.729489          -19.85041
      8       2.00000          -0.486288          -13.23257
      9       2.00000          -0.325623           -8.86066
     10       2.00000          -0.325623           -8.86066
     11       0.00000          -0.118673           -3.22925
     12       0.00000           0.001329            0.03616
     13       0.00000           0.001329            0.03616
     14       0.00000           0.112477            3.06067
     15       0.00000           0.257054            6.99478
     16       0.00000           0.257054            6.99478

  Highest occupied state (VBM) at     -8.86066290 eV
  | Occupation number:      2.00000000

  Lowest unoccupied state (CBM) at    -3.22924989 eV
  | Occupation number:      0.00000000

  Overall HOMO-LUMO gap:      5.63141301 eV.

  | Chemical Potential                          :    -6.04495640 eV
  | Note that, for insulating systems, the printed 'chemical potential' value is not uniquely defined.
  | It can be anywhere in the energy gap, as long as it correctly separates occupied and unoccupied states.
  | In systems with a gap, the physically relevant chemical potential is the VBM or HOMO.

  Self-consistency cycle converged.


------------------------------------------------------------
  End self-consistency iteration #    19       :  max(cpu_time)    wall_clock(cpu1)
  | Time for this iteration                     :        0.306 s           0.020 s
  | Charge density update                       :        0.000 s           0.000 s
  | Density mixing                              :        0.293 s           0.003 s
  | Hartree multipole update                    :        0.001 s           0.001 s
  | Hartree multipole summation                 :        0.002 s           0.002 s
  | Integration                                 :        0.002 s           0.002 s
  | Fock matrix evaluation                      :        0.011 s           0.011 s
  | Solution of K.-S. eqns.                     :        0.001 s           0.001 s
  | Total energy evaluation                     :        0.000 s           0.000 s

  Partial memory accounting:
  | Current value for overall tracked memory usage:
  |   Minimum:        1.199 MB (on task 14)
  |   Maximum:        1.906 MB (on task 52)
  |   Average:        1.592 MB
  | Peak value for overall tracked memory usage:
  |   Minimum:        1.689 MB (on task 10 after allocating wave)
  |   Maximum:        3.972 MB (on task  1 after allocating ovlp3fn_nosplit%tmploc)
  |   Average:        2.152 MB
  | Largest tracked array allocation so far:
  |   Minimum:        0.919 MB (aux_mat on task  2)
  |   Maximum:        1.655 MB (ovlp3fn_nosplit%dat on task  1)
  |   Average:        1.212 MB
  Note:  These values currently only include a subset of arrays which are explicitly tracked.
  The "true" memory usage will be greater.
------------------------------------------------------------

  Energy and forces in a compact form:
  | Total energy uncorrected      :         -0.893556491252949E+04 eV
  | Total energy corrected        :         -0.893556491252949E+04 eV  <-- do not rely on this value for anything but (periodic) metals
  | Electronic free energy        :         -0.893556491252949E+04 eV

  ------------------------------------ 
  Start decomposition of the XC Energy 
  ------------------------------------ 
  Since you specified a libxc flag with exchange and correlation combined, only the total XC energy is shown below.
  Hartree-Fock Energy :         -6.430392363 Ha           -174.979879083 eV
  XC Energy w/o HF    :        -19.698960320 Ha           -536.035983530 eV
  Total XC Energy     :        -26.129352684 Ha           -711.015862613 eV
  ------------------------------------ 
  LDA X and C from self-consistent density 
  X Energy LDA        :        -23.123794180 Ha           -629.230454534 eV
  C Energy LDA        :         -1.436701956 Ha            -39.094649329 eV
  ------------------------------------ 
  End decomposition of the XC Energy 
  ------------------------------------ 

------------------------------------------------------------

------------------------------------------------------------------------------
  Final output of selected total energy values:

  The following output summarizes some interesting total energy values
  at the end of a run (AFTER all relaxation, molecular dynamics, etc.).

  | Total energy of the DFT / Hartree-Fock s.c.f. calculation      :          -8935.564912529 eV
  | Final zero-broadening corrected energy (caution - metals only) :          -8935.564912529 eV
  | For reference only, the value of 1 Hartree used in FHI-aims is :             27.211384500 eV

  Before relying on these values, please be sure to understand exactly which
  total energy value is referred to by a given number. Different objects may
  all carry the same name 'total energy'. Definitions:

  Total energy of the DFT / Hartree-Fock s.c.f. calculation:
  | Note that this energy does not include ANY quantities calculated after the
  | s.c.f. cycle, in particular not ANY RPA, MP2, etc. many-body perturbation terms.

  Final zero-broadening corrected energy:
  | For metallic systems only, a broadening of the occupation numbers at the Fermi
  | level can be extrapolated back to zero broadening by an electron-gas inspired
  | formula. For all systems that are not real metals, this value can be
  | meaningless and should be avoided.

------------------------------------------------------------------------------
  Methods described in the following list of references were used in this FHI-aims run.
  If you publish the results, please make sure to cite these reference if they apply.
  FHI-aims is an academic code, and for our developers (often, Ph.D. students
  and postdocs), scientific credit in the community is essential.
  Thank you for helping us!

  For any use of FHI-aims, please cite:

    Volker Blum, Ralf Gehrke, Felix Hanke, Paula Havu, Ville Havu,
    Xinguo Ren, Karsten Reuter, and Matthias Scheffler
    'Ab initio molecular simulations with numeric atom-centered orbitals'
    Computer Physics Communications 180, 2175-2196 (2009)
    http://doi.org/10.1016/j.cpc.2009.06.022


  For Hartree-Fock, hybrid functionals, or many-body perturbation theory used in your run, please cite:

    Xinguo Ren, Patrick Rinke, Volker Blum, Juergen Wieferink, Alex Tkatchenko,
    Andrea Sanfilippo, Karsten Reuter, and Matthias Scheffler,
    'Resolution-of-identity approach to Hartree-Fock, hybrid density functionals,
    RPA, MP2, and GW with numeric atom-centered orbital basis functions'
    New Journal of Physics 14, 053020 (2012).
    http://doi.org/10.1088/1367-2630/14/5/053020


  For using hybrid functionals or Hartree-Fock in FHI-aims, please cite

    Sergey V. Levchenko, Xinguo Ren, Juergen Wieferink, Rainer Joahanni,
    Patrick Rinke, Volker Blum, and Matthias Scheffler
    Hybrid functionals for large periodic systems in an all-electron,
    numeric atom-centered basis framework

    Comput. Phys. Commun. 192, 60-69 (2015)
    https://doi.org/10.1016/j.cpc.2015.02.021


  For using hybrid functionals or Hartree-Fock in FHI-aims, please also cite

    Sebastian Kokott, Florian Merz, Yi Yao, Christian Carbogno, Mariana Rossi,
    Ville Havu, Markus Rampp, Matthias Scheffler, and Volker Blum
    Efficient all-electron hybrid density functionals for atomistic simulations
    beyond 10,000 atoms

    J. Chem. Phys. 161, 024112 (2024)
    https://doi.org/10.1063/5.0208103


  The ELSI infrastructure was used in your run to solve the Kohn-Sham electronic structure.
  Please check out https://wordpress.elsi-interchange.org to learn more.
  If scalability is important for your project, please acknowledge ELSI by citing:

    V. W-z. Yu, F. Corsetti, A. Garcia, W. P. Huhn, M. Jacquelin, W. Jia,
    B. Lange, L. Lin, J. Lu, W. Mi, A. Seifitokaldani, A. Vazquez-Mayagoitia,
    C. Yang, H. Yang, and V. Blum
    'ELSI: A unified software interface for Kohn-Sham electronic structure solvers'
    Computer Physics Communications 222, 267-285 (2018).
    http://doi.org/10.1016/j.cpc.2017.09.007


  For the real-space grid partitioning and parallelization used in this calculation, please cite:

    Ville Havu, Volker Blum, Paula Havu, and Matthias Scheffler,
    'Efficient O(N) integration for all-electron electronic structure calculation'
    'using numerically tabulated basis functions'
    Journal of Computational Physics 228, 8367-8379 (2009).
    http://doi.org/10.1016/j.jcp.2009.08.008


  The high-level electronic structure method used in your calculation
  employed our efficient localized resolution of identity for the Coulomb operator.
  Some calculations, especially large-scale hybrid density functional theory,
  are only possible thanks to this development. For this feature, please cite:

    Arvid Ihrig, Juergen Wieferink, Igor Ying Zhang, Matti Ropo, Xinguo Ren,
    Patrick Rinke, Matthias Scheffler, and Volker Blum,
    'Accurate localized resolution of identity approach for linear-scaling
    hybrid density functionals and for many-body perturbation theory'
    New Journal of Physics 117, 093020 (2015).
    http://doi.org/10.1088/1367-2630/17/9/093020

  Of course, there are many other important community references, e.g., those cited in the
  above references. Our list is limited to references that describe implementations in the
  FHI-aims code. The reason is purely practical (length of this list) - please credit others as well.
------------------------------------------------------------
Warnings summary:

At least    2 warnings were raised during execution.

------------------------------------------------------------
          Leaving FHI-aims.
          Date     :  20260724, Time     :  101719.644

          Computational steps:
          | Number of self-consistency cycles          :           19
          | Number of SCF (re)initializations          :            1

          Detailed time accounting                     :  max(cpu_time)    wall_clock(cpu1)
          | Total time                                  :        6.489 s           8.816 s
          | Preparation time                            :        0.177 s           0.559 s
          | Boundary condition initalization            :        0.002 s           0.002 s
          | Grid partitioning                           :        0.014 s           0.014 s
          | Preloading free-atom quantities on grid     :        0.004 s           0.004 s
          | Free-atom superposition energy              :        0.001 s           0.001 s
          | Total time for integrations                 :        0.042 s           0.042 s
          | Product basis setup: Total time             :        0.992 s           1.705 s
          | Total time evaluating exchange matrix       :        0.365 s           0.368 s
          | Total time for solution of K.-S. equations  :        0.208 s           0.231 s
          | Total time for density update               :        0.019 s           0.020 s
          | Total time for mixing                       :        4.890 s           2.215 s
          | Total time for Hartree multipole update     :        0.020 s           0.019 s
          | Total time for Hartree multipole sum        :        0.036 s           0.038 s
          | Total time for total energy evaluation      :        0.002 s           0.000 s
          | Total time for scaled ZORA corrections      :        0.000 s           0.000 s

          Partial memory accounting:
          | Residual value for overall tracked memory usage across tasks:     0.000000 MB (should be 0.000000 MB)
          | Peak values for overall tracked memory usage:
          |   Minimum:        1.689 MB (on task 10 after allocating wave)
          |   Maximum:        3.972 MB (on task  1 after allocating ovlp3fn_nosplit%tmploc)
          |   Average:        2.152 MB
          | Largest tracked array allocation:
          |   Minimum:        0.919 MB (aux_mat on task  2)
          |   Maximum:        1.655 MB (ovlp3fn_nosplit%dat on task  1)
          |   Average:        1.212 MB
          Note:  These values currently only include a subset of arrays which are explicitly tracked.
          The "true" memory usage will be greater.

          Have a nice day.
------------------------------------------------------------
