8
Lattice="3.8234200000000005 0.0 0.0 0.0 3.8234200000000005 0.0 0.0 0.0 3.8234200000000005" Properties=species:S:1:pos:R:3:forces:R:3 energy=-1.6141321649092155 free_energy=-1.6141321649092155 stress="0.02567242428266182 1.6827816201536501e-18 2.069417272001134e-20 1.6827816201536501e-18 0.02567242414677608 1.837581624203623e-16 2.069417272001134e-20 1.837581624203623e-16 0.02567242401089054" pbc="T T T"
B        0.00000000       0.00000000       0.00000000      -0.00000000       0.00000000       0.00000000
N        0.95585500       0.95585500       0.95585500      -0.00000000      -0.00000000      -0.00000000
B        0.00000000       1.91171000       1.91171000       0.00000000      -0.00000000      -0.00000000
N        0.95585500       2.86756500       2.86756500      -0.00000000       0.00000000       0.00000000
B        1.91171000       0.00000000       1.91171000       0.00000000       0.00000000      -0.00000000
N        2.86756500       0.95585500       2.86756500       0.00000000       0.00000000       0.00000000
B        1.91171000       1.91171000       0.00000000       0.00000000      -0.00000000       0.00000000
N        2.86756500       2.86756500       0.95585500       0.00000000       0.00000000       0.00000000
