8
Lattice="3.7810200000000003 0.0 0.0 0.0 3.7810200000000003 0.0 0.0 0.0 3.7810200000000003" Properties=species:S:1:pos:R:3:forces:R:3 energy=-1.4609225593344297 free_energy=-1.4609225593344297 stress="0.023529019461311165 -1.1469803202201409e-18 -3.3851317495736817e-19 -1.1469803202201409e-18 0.023529019461310544 -5.391375379468935e-19 -3.3851317495736817e-19 -5.391375379468935e-19 0.023529019461310488" pbc="T T T"
C        0.00000000       0.00000000       0.00000000       0.00000000      -0.00000000      -0.00000000
C        0.94525500       0.94525500       0.94525500      -0.00000000      -0.00000000       0.00000000
C        0.00000000       1.89051000       1.89051000       0.00000000       0.00000000       0.00000000
C        0.94525500       2.83576500       2.83576500      -0.00000000       0.00000000       0.00000000
C        1.89051000       0.00000000       1.89051000      -0.00000000      -0.00000000       0.00000000
C        2.83576500       0.94525500       2.83576500       0.00000000      -0.00000000      -0.00000000
C        1.89051000       1.89051000       0.00000000      -0.00000000       0.00000000      -0.00000000
C        2.83576500       2.83576500       0.94525500       0.00000000       0.00000000       0.00000000
