8
Lattice="4.1303 0.0 0.0 0.0 4.1303 0.0 0.0 0.0 4.1303" Properties=species:S:1:pos:R:3:forces:R:3 energy=-0.4650171024655039 free_energy=-0.4650171024655039 stress="0.007288029865251593 2.8432567840497387e-21 2.3352056994139877e-20 2.8432567840497387e-21 0.007288029865251539 1.6337147798761314e-20 2.3352056994139877e-20 1.6337147798761314e-20 0.007288029865251571" pbc="T T T"
Li       0.00000000       0.00000000       0.00000000       0.00000000       0.00000000      -0.00000000
F        2.06515000       0.00000000       0.00000000      -0.00000000      -0.00000000      -0.00000000
Li       0.00000000       2.06515000       2.06515000      -0.00000000      -0.00000000      -0.00000000
F        2.06515000       2.06515000       2.06515000      -0.00000000       0.00000000      -0.00000000
Li       2.06515000       0.00000000       2.06515000       0.00000000       0.00000000      -0.00000000
F        0.00000000       0.00000000       2.06515000       0.00000000       0.00000000       0.00000000
Li       2.06515000       2.06515000       0.00000000      -0.00000000      -0.00000000      -0.00000000
F        0.00000000       2.06515000       0.00000000       0.00000000       0.00000000       0.00000000
