8
Lattice="4.190449999999999 0.0 0.0 0.0 4.190449999999999 0.0 0.0 0.0 4.190449999999999" Properties=species:S:1:pos:R:3:forces:R:3 energy=-0.4431711656668674 free_energy=-0.4431711656668674 stress="0.0067020614238788795 -4.216015407371917e-20 8.747726486419893e-21 -4.216015407371917e-20 0.006702061423879068 -5.795083507576559e-21 8.747726486419893e-21 -5.795083507576559e-21 0.006702061423879064" pbc="T T T"
Li       0.00000000       0.00000000       0.00000000      -0.00000000       0.00000000      -0.00000000
F        2.09522500       0.00000000       0.00000000      -0.00000000      -0.00000000       0.00000000
Li       0.00000000       2.09522500       2.09522500      -0.00000000      -0.00000000      -0.00000000
F        2.09522500       2.09522500       2.09522500      -0.00000000       0.00000000      -0.00000000
Li       2.09522500       0.00000000       2.09522500      -0.00000000      -0.00000000      -0.00000000
F        0.00000000       0.00000000       2.09522500       0.00000000      -0.00000000       0.00000000
Li       2.09522500       2.09522500       0.00000000      -0.00000000      -0.00000000       0.00000000
F        0.00000000       2.09522500       0.00000000       0.00000000       0.00000000       0.00000000
