8
Lattice="4.96791 0.0 0.0 0.0 4.96791 0.0 0.0 0.0 4.96791" Properties=species:S:1:pos:R:3:forces:R:3 energy=-1.4193847941848445 free_energy=-1.4193847941848445 stress="0.011122611846578619 1.287274054799967e-19 6.447909896122622e-20 1.287274054799967e-19 0.011122611846578409 4.050173469015777e-21 6.447909896122622e-20 4.050173469015777e-21 0.01112261184657842" pbc="T T T"
Mg       0.00000000       0.00000000       0.00000000      -0.00000000       0.00000000      -0.00000000
S        2.48395500       0.00000000       0.00000000       0.00000000       0.00000000       0.00000000
Mg       0.00000000       2.48395500       2.48395500      -0.00000000      -0.00000000      -0.00000000
S        2.48395500       2.48395500       2.48395500       0.00000000      -0.00000000      -0.00000000
Mg       2.48395500       0.00000000       2.48395500      -0.00000000       0.00000000      -0.00000000
S        0.00000000       0.00000000       2.48395500      -0.00000000      -0.00000000       0.00000000
Mg       2.48395500       2.48395500       0.00000000       0.00000000       0.00000000      -0.00000000
S        0.00000000       2.48395500       0.00000000      -0.00000000       0.00000000       0.00000000
