8
Lattice="4.885540000000001 0.0 0.0 0.0 4.885540000000001 0.0 0.0 0.0 4.885540000000001" Properties=species:S:1:pos:R:3:forces:R:3 energy=-0.28588249585995673 free_energy=-0.28588249585995673 stress="0.002988533567992596 9.194019928503054e-21 -6.0728717726051884e-21 9.194019928503054e-21 0.0029885335679926558 -1.8054014760308982e-20 -6.0728717726051884e-21 -1.8054014760308982e-20 0.0029885335679926683" pbc="T T T"
Na       0.00000000       0.00000000       0.00000000      -0.00000000      -0.00000000       0.00000000
F        2.44277000       0.00000000       0.00000000       0.00000000       0.00000000       0.00000000
Na       0.00000000       2.44277000       2.44277000      -0.00000000      -0.00000000      -0.00000000
F        2.44277000       2.44277000       2.44277000       0.00000000      -0.00000000      -0.00000000
Na       2.44277000       0.00000000       2.44277000       0.00000000      -0.00000000      -0.00000000
F        0.00000000       0.00000000       2.44277000      -0.00000000       0.00000000       0.00000000
Na       2.44277000       2.44277000       0.00000000       0.00000000       0.00000000       0.00000000
F        0.00000000       2.44277000       0.00000000      -0.00000000      -0.00000000       0.00000000
