8
Lattice="4.539865 0.0 0.0 0.0 4.539865 0.0 0.0 0.0 4.539865" Properties=species:S:1:pos:R:3:forces:R:3 energy=-0.37500824469170063 free_energy=-0.37500824469170063 stress="0.004926386575272629 9.270585986067045e-21 8.835288345944438e-21 9.270585986067045e-21 0.004926386575272752 -2.549294303311853e-21 8.835288345944438e-21 -2.549294303311853e-21 0.004926386575272745" pbc="T T T"
Na       0.00000000       0.00000000       0.00000000       0.00000000      -0.00000000      -0.00000000
F        2.26993250       0.00000000       0.00000000      -0.00000000      -0.00000000       0.00000000
Na       0.00000000       2.26993250       2.26993250       0.00000000       0.00000000       0.00000000
F        2.26993250       2.26993250       2.26993250      -0.00000000       0.00000000       0.00000000
Na       2.26993250       0.00000000       2.26993250      -0.00000000       0.00000000       0.00000000
F        0.00000000       0.00000000       2.26993250       0.00000000      -0.00000000      -0.00000000
Na       2.26993250       2.26993250       0.00000000      -0.00000000      -0.00000000      -0.00000000
F        0.00000000       2.26993250       0.00000000       0.00000000       0.00000000      -0.00000000
