8
Lattice="5.43 0.0 0.0 0.0 5.43 0.0 0.0 0.0 5.43" Properties=species:S:1:pos:R:3:forces:R:3 energy=-1.559789599289244 free_energy=-1.559789599289244 stress="0.00865681428599525 -7.704468288115628e-20 -1.3319032790136012e-19 -7.704468288115628e-20 0.008656814285995231 4.953529838232787e-19 -1.3319032790136012e-19 4.953529838232787e-19 0.008656814285995221" pbc="T T T"
Si       0.00000000       0.00000000       0.00000000       0.00000000      -0.00000000      -0.00000000
Si       1.35750000       1.35750000       1.35750000      -0.00000000      -0.00000000       0.00000000
Si       0.00000000       2.71500000       2.71500000       0.00000000      -0.00000000       0.00000000
Si       1.35750000       4.07250000       4.07250000       0.00000000       0.00000000      -0.00000000
Si       2.71500000       0.00000000       2.71500000      -0.00000000       0.00000000       0.00000000
Si       4.07250000       1.35750000       4.07250000       0.00000000      -0.00000000      -0.00000000
Si       2.71500000       2.71500000       0.00000000      -0.00000000      -0.00000000      -0.00000000
Si       4.07250000       4.07250000       1.35750000       0.00000000       0.00000000       0.00000000
