8
Lattice="5.5929 0.0 0.0 0.0 5.5929 0.0 0.0 0.0 5.5929" Properties=species:S:1:pos:R:3:forces:R:3 energy=-1.4480081730232084 free_energy=-1.4480081730232084 stress="0.006010431183761922 -6.356986055962452e-19 -7.096332167095893e-19 -6.356986055962452e-19 0.0060104311837618045 -2.242453722029833e-19 -7.096332167095893e-19 -2.242453722029833e-19 0.006010431183761774" pbc="T T T"
Si       0.00000000       0.00000000       0.00000000      -0.00000000      -0.00000000       0.00000000
Si       1.39822500       1.39822500       1.39822500       0.00000000       0.00000000      -0.00000000
Si       0.00000000       2.79645000       2.79645000      -0.00000000       0.00000000      -0.00000000
Si       1.39822500       4.19467500       4.19467500       0.00000000       0.00000000       0.00000000
Si       2.79645000       0.00000000       2.79645000       0.00000000      -0.00000000      -0.00000000
Si       4.19467500       1.39822500       4.19467500      -0.00000000       0.00000000       0.00000000
Si       2.79645000       2.79645000       0.00000000       0.00000000       0.00000000       0.00000000
Si       4.19467500       4.19467500       1.39822500      -0.00000000       0.00000000       0.00000000
