8
Lattice="5.62174 0.0 0.0 0.0 5.62174 0.0 0.0 0.0 5.62174" Properties=species:S:1:pos:R:3:forces:R:3 energy=-1.4273017651609028 free_energy=-1.4273017651609028 stress="0.007894409095064158 2.5249794712381148e-20 -5.3468223017194776e-20 2.5249794712381148e-20 0.007894409095064127 1.0288528307784156e-18 -5.3468223017194776e-20 1.0288528307784156e-18 0.00789440909506413" pbc="T T T"
Al       0.00000000       0.00000000       0.00000000      -0.00000000      -0.00000000      -0.00000000
P        1.40543500       1.40543500       1.40543500       0.00000000       0.00000000      -0.00000000
Al       0.00000000       2.81087000       2.81087000      -0.00000000       0.00000000       0.00000000
P        1.40543500       4.21630500       4.21630500       0.00000000      -0.00000000       0.00000000
Al       2.81087000       0.00000000       2.81087000       0.00000000      -0.00000000       0.00000000
P        4.21630500       1.40543500       4.21630500      -0.00000000       0.00000000       0.00000000
Al       2.81087000       2.81087000       0.00000000      -0.00000000       0.00000000      -0.00000000
P        4.21630500       4.21630500       1.40543500      -0.00000000      -0.00000000      -0.00000000
