8
Lattice="3.7152100000000003 0.0 0.0 0.0 3.7152100000000003 0.0 0.0 0.0 3.7152100000000003" Properties=species:S:1:pos:R:3:forces:R:3 energy=-1.7415596924334569 free_energy=-1.7415596924334569 stress="0.02971485360217854 3.284096518386143e-18 6.003101852836791e-19 3.284096518386143e-18 0.02971485327340633 8.998494187794773e-16 6.003101852836791e-19 8.998494187794773e-16 0.02971485294463189" pbc="T T T"
B        0.00000000       0.00000000       0.00000000      -0.00000000      -0.00000000      -0.00000000
N        0.92880250       0.92880250       0.92880250       0.00000000      -0.00000000       0.00000000
B        0.00000000       1.85760500       1.85760500      -0.00000000       0.00000000      -0.00000000
N        0.92880250       2.78640750       2.78640750      -0.00000000       0.00000000      -0.00000000
B        1.85760500       0.00000000       1.85760500      -0.00000000      -0.00000000       0.00000000
N        2.78640750       0.92880250       2.78640750      -0.00000000      -0.00000000       0.00000000
B        1.85760500       1.85760500       0.00000000       0.00000000       0.00000000      -0.00000000
N        2.78640750       2.78640750       0.92880250       0.00000000       0.00000000       0.00000000
