8
Lattice="4.538 0.0 0.0 0.0 4.538 0.0 0.0 0.0 4.538" Properties=species:S:1:pos:R:3:forces:R:3 energy=-2.065656523755851 free_energy=-2.065656523755851 stress="0.022036071956620357 -2.6625002348316183e-19 2.1043194725384617e-19 -2.6625002348316183e-19 0.022036071955296995 3.659926783298446e-18 2.1043194725384617e-19 3.659926783298446e-18 0.0220360719539738" pbc="T T T"
B        0.00000000       0.00000000       0.00000000      -0.00000000      -0.00000000      -0.00000000
P        1.13450000       1.13450000       1.13450000       0.00000000       0.00000000      -0.00000000
B        0.00000000       2.26900000       2.26900000       0.00000000       0.00000000       0.00000000
P        1.13450000       3.40350000       3.40350000      -0.00000000      -0.00000000       0.00000000
B        2.26900000       0.00000000       2.26900000      -0.00000000      -0.00000000      -0.00000000
P        3.40350000       1.13450000       3.40350000       0.00000000       0.00000000       0.00000000
B        2.26900000       2.26900000       0.00000000      -0.00000000       0.00000000      -0.00000000
P        3.40350000       3.40350000       1.13450000       0.00000000      -0.00000000      -0.00000000
