8
Lattice="4.469930000000001 0.0 0.0 0.0 4.469930000000001 0.0 0.0 0.0 4.469930000000001" Properties=species:S:1:pos:R:3:forces:R:3 energy=-2.1615813613272423 free_energy=-2.1615813613272423 stress="0.0242507436653191 6.881127867390099e-19 1.4555318228634077e-18 6.881127867390099e-19 0.02425074366237079 8.153820696471284e-20 1.4555318228634077e-18 8.153820696471284e-20 0.024250743659421942" pbc="T T T"
B        0.00000000       0.00000000       0.00000000      -0.00000000       0.00000000       0.00000000
P        1.11748250       1.11748250       1.11748250       0.00000000       0.00000000      -0.00000000
B        0.00000000       2.23496500       2.23496500       0.00000000      -0.00000000      -0.00000000
P        1.11748250       3.35244750       3.35244750       0.00000000      -0.00000000       0.00000000
B        2.23496500       0.00000000       2.23496500       0.00000000       0.00000000      -0.00000000
P        3.35244750       1.11748250       3.35244750      -0.00000000       0.00000000       0.00000000
B        2.23496500       2.23496500       0.00000000       0.00000000      -0.00000000       0.00000000
P        3.35244750       3.35244750       1.11748250      -0.00000000      -0.00000000      -0.00000000
