8
Lattice="3.5134950000000003 0.0 0.0 0.0 3.5134950000000003 0.0 0.0 0.0 3.5134950000000003" Properties=species:S:1:pos:R:3:forces:R:3 energy=-1.7698349941009364 free_energy=-1.7698349941009364 stress="0.03525749165311021 -1.192980627259267e-18 5.094965945576047e-19 -1.192980627259267e-18 0.03525749165311041 1.6158097511390057e-18 5.094965945576047e-19 1.6158097511390057e-18 0.03525749165310998" pbc="T T T"
C        0.00000000       0.00000000       0.00000000      -0.00000000      -0.00000000      -0.00000000
C        0.87837375       0.87837375       0.87837375      -0.00000000      -0.00000000      -0.00000000
C        0.00000000       1.75674750       1.75674750      -0.00000000      -0.00000000      -0.00000000
C        0.87837375       2.63512125       2.63512125      -0.00000000      -0.00000000      -0.00000000
C        1.75674750       0.00000000       1.75674750       0.00000000       0.00000000      -0.00000000
C        2.63512125       0.87837375       2.63512125      -0.00000000       0.00000000       0.00000000
C        1.75674750       1.75674750       0.00000000       0.00000000       0.00000000      -0.00000000
C        2.63512125       2.63512125       0.87837375       0.00000000      -0.00000000       0.00000000
