8
Lattice="5.0294099999999995 0.0 0.0 0.0 5.0294099999999995 0.0 0.0 0.0 5.0294099999999995" Properties=species:S:1:pos:R:3:forces:R:3 energy=-0.7917993160097638 free_energy=-0.7917993160097638 stress="0.006056114050910911 8.23437758960423e-20 -2.5189154404312387e-20 8.23437758960423e-20 0.006056114050910781 7.075151508834991e-20 -2.5189154404312387e-20 7.075151508834991e-20 0.006056114050910768" pbc="T T T"
Li       0.00000000       0.00000000       0.00000000      -0.00000000       0.00000000      -0.00000000
Cl       2.51470500       0.00000000       0.00000000      -0.00000000      -0.00000000      -0.00000000
Li       0.00000000       2.51470500       2.51470500      -0.00000000      -0.00000000       0.00000000
Cl       2.51470500       2.51470500       2.51470500      -0.00000000       0.00000000       0.00000000
Li       2.51470500       0.00000000       2.51470500      -0.00000000       0.00000000       0.00000000
Cl       0.00000000       0.00000000       2.51470500       0.00000000      -0.00000000       0.00000000
Li       2.51470500       2.51470500       0.00000000      -0.00000000       0.00000000      -0.00000000
Cl       0.00000000       2.51470500       0.00000000       0.00000000       0.00000000      -0.00000000
