8
Lattice="5.280030000000001 0.0 0.0 0.0 5.280030000000001 0.0 0.0 0.0 5.280030000000001" Properties=species:S:1:pos:R:3:forces:R:3 energy=-1.4384817605289115 free_energy=-1.4384817605289115 stress="0.009373764460999478 -2.141165971456172e-20 1.5506380481130125e-20 -2.141165971456172e-20 0.009373764460999497 1.351823685950544e-20 1.5506380481130125e-20 1.351823685950544e-20 0.00937376446099949" pbc="T T T"
Mg       0.00000000       0.00000000       0.00000000      -0.00000000      -0.00000000      -0.00000000
S        2.64001500       0.00000000       0.00000000       0.00000000      -0.00000000      -0.00000000
Mg       0.00000000       2.64001500       2.64001500      -0.00000000      -0.00000000      -0.00000000
S        2.64001500       2.64001500       2.64001500       0.00000000       0.00000000       0.00000000
Mg       2.64001500       0.00000000       2.64001500       0.00000000      -0.00000000       0.00000000
S        0.00000000       0.00000000       2.64001500      -0.00000000      -0.00000000       0.00000000
Mg       2.64001500       2.64001500       0.00000000       0.00000000       0.00000000      -0.00000000
S        0.00000000       2.64001500       0.00000000      -0.00000000       0.00000000      -0.00000000
