8
Lattice="5.511075 0.0 0.0 0.0 5.511075 0.0 0.0 0.0 5.511075" Properties=species:S:1:pos:R:3:forces:R:3 energy=-0.6069065627020616 free_energy=-0.6069065627020616 stress="0.004144020704886956 3.45653569274119e-20 -8.68052869872959e-22 3.45653569274119e-20 0.004144020704886876 -1.2206447837334948e-20 -8.68052869872959e-22 -1.2206447837334948e-20 0.004144020704886879" pbc="T T T"
Na       0.00000000       0.00000000       0.00000000      -0.00000000      -0.00000000       0.00000000
Cl       2.75553750       0.00000000       0.00000000       0.00000000       0.00000000      -0.00000000
Na       0.00000000       2.75553750       2.75553750      -0.00000000       0.00000000       0.00000000
Cl       2.75553750       2.75553750       2.75553750       0.00000000      -0.00000000       0.00000000
Na       2.75553750       0.00000000       2.75553750       0.00000000       0.00000000       0.00000000
Cl       0.00000000       0.00000000       2.75553750      -0.00000000       0.00000000      -0.00000000
Na       2.75553750       2.75553750       0.00000000      -0.00000000       0.00000000      -0.00000000
Cl       0.00000000       2.75553750       0.00000000      -0.00000000      -0.00000000       0.00000000
