8
Lattice="5.51145 0.0 0.0 0.0 5.51145 0.0 0.0 0.0 5.51145" Properties=species:S:1:pos:R:3:forces:R:3 energy=-1.4999500971840944 free_energy=-1.4999500971840944 stress="0.00762386046502806 -7.061245182922959e-19 -7.803310470421803e-19 -7.061245182922959e-19 0.0076238604650280175 -1.2917916301546968e-18 -7.803310470421803e-19 -1.2917916301546968e-18 0.007623860465028012" pbc="T T T"
Si       0.00000000       0.00000000       0.00000000      -0.00000000      -0.00000000       0.00000000
Si       1.37786250       1.37786250       1.37786250       0.00000000       0.00000000      -0.00000000
Si       0.00000000       2.75572500       2.75572500      -0.00000000       0.00000000      -0.00000000
Si       1.37786250       4.13358750       4.13358750       0.00000000      -0.00000000       0.00000000
Si       2.75572500       0.00000000       2.75572500       0.00000000      -0.00000000      -0.00000000
Si       4.13358750       1.37786250       4.13358750       0.00000000       0.00000000       0.00000000
Si       2.75572500       2.75572500       0.00000000       0.00000000       0.00000000       0.00000000
Si       4.13358750       4.13358750       1.37786250       0.00000000      -0.00000000      -0.00000000
