5
Properties=species:S:1:pos:R:3 calculation_type=covalent_refinement calculation_label=MgSH2/refinement_41/point_001_distance_2.09 point=1 distance_angstrom=2.09 source_output=Structures/Raw_Covalents/MgSH2_refinement_41_point_001_distance_2.090000_aims.out system=MgSH2 geometry_index=1 energy=-5.411653089132226 energy_units=eV energy_type=CCSD(T)_CBS_TQ_plus_delta_MP2_Q5_TQ_cohesive cohesive_energy_ev=-5.411653089132226 binding_energy_ev=-5.411653089132226 cohesive_energy_hartree=-0.19887458449511541 dissociation_energy_ev=5.411653089132226 ccsdt_cbs_tq_cohesive_energy_ev=-5.384795791162566 mp2_cbs_tq_cohesive_energy_ev=-5.761716495036028 mp2_cbs_q5_cohesive_energy_ev=-5.788573793005688 mp2_q5_cohesive_correction_mev=-26.857297969659992 fragment_expression="Mg + 2*SH_from_MgSH2" pbc="F F F"
Mg       0.00000000       0.00000000       0.00000000
S       -2.07968128      -0.20742654       0.00000000
S        2.07968128       0.20742654       0.00000000
H       -2.26399328       1.12147046      -0.00000000
H        2.26399328      -1.12147046      -0.00000000
5
Properties=species:S:1:pos:R:3 calculation_type=covalent_refinement calculation_label=MgSH2/refinement_41/point_002_distance_2.10 point=2 distance_angstrom=2.1 source_output=Structures/Raw_Covalents/MgSH2_refinement_41_point_002_distance_2.100000_aims.out system=MgSH2 geometry_index=2 energy=-5.468140697177369 energy_units=eV energy_type=CCSD(T)_CBS_TQ_plus_delta_MP2_Q5_TQ_cohesive cohesive_energy_ev=-5.468140697177369 binding_energy_ev=-5.468140697177369 cohesive_energy_hartree=-0.20095046581900533 dissociation_energy_ev=5.468140697177369 ccsdt_cbs_tq_cohesive_energy_ev=-5.441491857445356 mp2_cbs_tq_cohesive_energy_ev=-5.817789086281449 mp2_cbs_q5_cohesive_energy_ev=-5.8444379260134625 mp2_q5_cohesive_correction_mev=-26.648839732013705 fragment_expression="Mg + 2*SH_from_MgSH2" pbc="F F F"
Mg       0.00000000       0.00000000       0.00000000
S       -2.08963191      -0.20841901       0.00000000
S        2.08963191       0.20841901       0.00000000
H       -2.27394391       1.12047799      -0.00000000
H        2.27394391      -1.12047799      -0.00000000
5
Properties=species:S:1:pos:R:3 calculation_type=covalent_refinement calculation_label=MgSH2/refinement_41/point_003_distance_2.11 point=3 distance_angstrom=2.11 source_output=Structures/Raw_Covalents/MgSH2_refinement_41_point_003_distance_2.110000_aims.out system=MgSH2 geometry_index=3 energy=-5.520448938872317 energy_units=eV energy_type=CCSD(T)_CBS_TQ_plus_delta_MP2_Q5_TQ_cohesive cohesive_energy_ev=-5.520448938872317 binding_energy_ev=-5.520448938872317 cohesive_energy_hartree=-0.20287275826115092 dissociation_energy_ev=5.520448938872317 ccsdt_cbs_tq_cohesive_energy_ev=-5.494019699434827 mp2_cbs_tq_cohesive_energy_ev=-5.869700170059281 mp2_cbs_q5_cohesive_energy_ev=-5.89612940949677 mp2_q5_cohesive_correction_mev=-26.42923943748923 fragment_expression="Mg + 2*SH_from_MgSH2" pbc="F F F"
Mg       0.00000000       0.00000000       0.00000000
S       -2.09958254      -0.20941148       0.00000000
S        2.09958254       0.20941148       0.00000000
H       -2.28389454       1.11948552      -0.00000000
H        2.28389454      -1.11948552      -0.00000000
5
Properties=species:S:1:pos:R:3 calculation_type=covalent_refinement calculation_label=MgSH2/refinement_41/point_004_distance_2.12 point=4 distance_angstrom=2.12 source_output=Structures/Raw_Covalents/MgSH2_refinement_41_point_004_distance_2.120000_aims.out system=MgSH2 geometry_index=4 energy=-5.568725656336609 energy_units=eV energy_type=CCSD(T)_CBS_TQ_plus_delta_MP2_Q5_TQ_cohesive cohesive_energy_ev=-5.568725656336609 binding_energy_ev=-5.568725656336609 cohesive_energy_hartree=-0.20464689491927857 dissociation_energy_ev=5.568725656336609 ccsdt_cbs_tq_cohesive_energy_ev=-5.542524312887974 mp2_cbs_tq_cohesive_energy_ev=-5.917594112063995 mp2_cbs_q5_cohesive_energy_ev=-5.943795455512629 mp2_q5_cohesive_correction_mev=-26.201343448634244 fragment_expression="Mg + 2*SH_from_MgSH2" pbc="F F F"
Mg       0.00000000       0.00000000       0.00000000
S       -2.10953317      -0.21040395       0.00000000
S        2.10953317       0.21040395       0.00000000
H       -2.29384517       1.11849305      -0.00000000
H        2.29384517      -1.11849305      -0.00000000
5
Properties=species:S:1:pos:R:3 calculation_type=covalent_refinement calculation_label=MgSH2/refinement_41/point_005_distance_2.13 point=5 distance_angstrom=2.13 source_output=Structures/Raw_Covalents/MgSH2_refinement_41_point_005_distance_2.130000_aims.out system=MgSH2 geometry_index=5 energy=-5.613113632229067 energy_units=eV energy_type=CCSD(T)_CBS_TQ_plus_delta_MP2_Q5_TQ_cohesive cohesive_energy_ev=-5.613113632229067 binding_energy_ev=-5.613113632229067 cohesive_energy_hartree=-0.2062781229593611 dissociation_energy_ev=5.613113632229067 ccsdt_cbs_tq_cohesive_energy_ev=-5.587145952448646 mp2_cbs_tq_cohesive_energy_ev=-5.961610560143702 mp2_cbs_q5_cohesive_energy_ev=-5.987578239924123 mp2_q5_cohesive_correction_mev=-25.96767978042063 fragment_expression="Mg + 2*SH_from_MgSH2" pbc="F F F"
Mg       0.00000000       0.00000000       0.00000000
S       -2.11948379      -0.21139642       0.00000000
S        2.11948379       0.21139642       0.00000000
H       -2.30379579       1.11750058      -0.00000000
H        2.30379579      -1.11750058      -0.00000000
5
Properties=species:S:1:pos:R:3 calculation_type=covalent_refinement calculation_label=MgSH2/refinement_41/point_006_distance_2.14 point=6 distance_angstrom=2.14 source_output=Structures/Raw_Covalents/MgSH2_refinement_41_point_006_distance_2.140000_aims.out system=MgSH2 geometry_index=6 energy=-5.653752058191181 energy_units=eV energy_type=CCSD(T)_CBS_TQ_plus_delta_MP2_Q5_TQ_cohesive cohesive_energy_ev=-5.653752058191181 binding_energy_ev=-5.653752058191181 cohesive_energy_hartree=-0.2077715575799175 dissociation_energy_ev=5.653752058191181 ccsdt_cbs_tq_cohesive_energy_ev=-5.6280215964436096 mp2_cbs_tq_cohesive_energy_ev=-6.001884767439688 mp2_cbs_q5_cohesive_energy_ev=-6.027615229187259 mp2_q5_cohesive_correction_mev=-25.730461747571066 fragment_expression="Mg + 2*SH_from_MgSH2" pbc="F F F"
Mg       0.00000000       0.00000000       0.00000000
S       -2.12943442      -0.21238889       0.00000000
S        2.12943442       0.21238889       0.00000000
H       -2.31374642       1.11650811      -0.00000000
H        2.31374642      -1.11650811      -0.00000000
5
Properties=species:S:1:pos:R:3 calculation_type=covalent_refinement calculation_label=MgSH2/refinement_41/point_007_distance_2.15 point=7 distance_angstrom=2.15 source_output=Structures/Raw_Covalents/MgSH2_refinement_41_point_007_distance_2.150000_aims.out system=MgSH2 geometry_index=7 energy=-5.690771896669632 energy_units=eV energy_type=CCSD(T)_CBS_TQ_plus_delta_MP2_Q5_TQ_cohesive cohesive_energy_ev=-5.690771896669632 binding_energy_ev=-5.690771896669632 cohesive_energy_hartree=-0.2091320115621329 dissociation_energy_ev=5.690771896669632 ccsdt_cbs_tq_cohesive_energy_ev=-5.665280294097205 mp2_cbs_tq_cohesive_energy_ev=-6.0385474748305 mp2_cbs_q5_cohesive_energy_ev=-6.064039077402927 mp2_q5_cohesive_correction_mev=-25.49160257242691 fragment_expression="Mg + 2*SH_from_MgSH2" pbc="F F F"
Mg       0.00000000       0.00000000       0.00000000
S       -2.13938505      -0.21338136       0.00000000
S        2.13938505       0.21338136       0.00000000
H       -2.32369705       1.11551564      -0.00000000
H        2.32369705      -1.11551564      -0.00000000
5
Properties=species:S:1:pos:R:3 calculation_type=covalent_refinement calculation_label=MgSH2/refinement_41/point_008_distance_2.16 point=8 distance_angstrom=2.16 source_output=Structures/Raw_Covalents/MgSH2_refinement_41_point_008_distance_2.160000_aims.out system=MgSH2 geometry_index=8 energy=-5.724302994864423 energy_units=eV energy_type=CCSD(T)_CBS_TQ_plus_delta_MP2_Q5_TQ_cohesive cohesive_energy_ev=-5.724302994864423 binding_energy_ev=-5.724302994864423 cohesive_energy_hartree=-0.2103642567026327 dissociation_energy_ev=5.724302994864423 ccsdt_cbs_tq_cohesive_energy_ev=-5.6990502633186315 mp2_cbs_tq_cohesive_energy_ev=-6.071725234405584 mp2_cbs_q5_cohesive_energy_ev=-6.096977965951376 mp2_q5_cohesive_correction_mev=-25.25273154579146 fragment_expression="Mg + 2*SH_from_MgSH2" pbc="F F F"
Mg       0.00000000       0.00000000       0.00000000
S       -2.14933568      -0.21437384       0.00000000
S        2.14933568       0.21437384       0.00000000
H       -2.33364768       1.11452316      -0.00000000
H        2.33364768      -1.11452316      -0.00000000
5
Properties=species:S:1:pos:R:3 calculation_type=covalent_refinement calculation_label=MgSH2/refinement_41/point_009_distance_2.17 point=9 distance_angstrom=2.17 source_output=Structures/Raw_Covalents/MgSH2_refinement_41_point_009_distance_2.170000_aims.out system=MgSH2 geometry_index=9 energy=-5.754469688939298 energy_units=eV energy_type=CCSD(T)_CBS_TQ_plus_delta_MP2_Q5_TQ_cohesive cohesive_energy_ev=-5.754469688939298 binding_energy_ev=-5.754469688939298 cohesive_energy_hartree=-0.21147286227119366 dissociation_energy_ev=5.754469688939298 ccsdt_cbs_tq_cohesive_energy_ev=-5.729454472805671 mp2_cbs_tq_cohesive_energy_ev=-6.1015404868541925 mp2_cbs_q5_cohesive_energy_ev=-6.12655570298782 mp2_q5_cohesive_correction_mev=-25.015216133627106 fragment_expression="Mg + 2*SH_from_MgSH2" pbc="F F F"
Mg       0.00000000       0.00000000       0.00000000
S       -2.15928631      -0.21536631       0.00000000
S        2.15928631       0.21536631       0.00000000
H       -2.34359831       1.11353069      -0.00000000
H        2.34359831      -1.11353069      -0.00000000
5
Properties=species:S:1:pos:R:3 calculation_type=covalent_refinement calculation_label=MgSH2/refinement_41/point_010_distance_2.18 point=10 distance_angstrom=2.18 source_output=Structures/Raw_Covalents/MgSH2_refinement_41_point_010_distance_2.180000_aims.out system=MgSH2 geometry_index=10 energy=-5.781392073183129 energy_units=eV energy_type=CCSD(T)_CBS_TQ_plus_delta_MP2_Q5_TQ_cohesive cohesive_energy_ev=-5.781392073183129 binding_energy_ev=-5.781392073183129 cohesive_energy_hartree=-0.2124622416515649 dissociation_energy_ev=5.781392073183129 ccsdt_cbs_tq_cohesive_energy_ev=-5.756611887991877 mp2_cbs_tq_cohesive_energy_ev=-6.128111688119494 mp2_cbs_q5_cohesive_energy_ev=-6.152891873310748 mp2_q5_cohesive_correction_mev=-24.78018519125284 fragment_expression="Mg + 2*SH_from_MgSH2" pbc="F F F"
Mg       0.00000000       0.00000000       0.00000000
S       -2.16923693      -0.21635878       0.00000000
S        2.16923693       0.21635878       0.00000000
H       -2.35354893       1.11253822      -0.00000000
H        2.35354893      -1.11253822      -0.00000000
5
Properties=species:S:1:pos:R:3 calculation_type=covalent_refinement calculation_label=MgSH2/refinement_41/point_011_distance_2.19 point=11 distance_angstrom=2.19 source_output=Structures/Raw_Covalents/MgSH2_refinement_41_point_011_distance_2.190000_aims.out system=MgSH2 geometry_index=11 energy=-5.805186243239267 energy_units=eV energy_type=CCSD(T)_CBS_TQ_plus_delta_MP2_Q5_TQ_cohesive cohesive_energy_ev=-5.805186243239267 binding_energy_ev=-5.805186243239267 cohesive_energy_hartree=-0.21333666127998185 dissociation_energy_ev=5.805186243239267 ccsdt_cbs_tq_cohesive_energy_ev=-5.780637692302249 mp2_cbs_tq_cohesive_energy_ev=-6.151553527016212 mp2_cbs_q5_cohesive_energy_ev=-6.17610207795323 mp2_q5_cohesive_correction_mev=-24.548550937017616 fragment_expression="Mg + 2*SH_from_MgSH2" pbc="F F F"
Mg       0.00000000       0.00000000       0.00000000
S       -2.17918756      -0.21735125       0.00000000
S        2.17918756       0.21735125       0.00000000
H       -2.36349956       1.11154575      -0.00000000
H        2.36349956      -1.11154575      -0.00000000
5
Properties=species:S:1:pos:R:3 calculation_type=covalent_refinement calculation_label=MgSH2/refinement_41/point_012_distance_2.20 point=12 distance_angstrom=2.2 source_output=Structures/Raw_Covalents/MgSH2_refinement_41_point_012_distance_2.200000_aims.out system=MgSH2 geometry_index=12 energy=-5.825964287496116 energy_units=eV energy_type=CCSD(T)_CBS_TQ_plus_delta_MP2_Q5_TQ_cohesive cohesive_energy_ev=-5.825964287496116 binding_energy_ev=-5.825964287496116 cohesive_energy_hartree=-0.21410024032877573 dissociation_energy_ev=5.825964287496116 ccsdt_cbs_tq_cohesive_energy_ev=-5.801643251908122 mp2_cbs_tq_cohesive_energy_ev=-6.171976892806843 mp2_cbs_q5_cohesive_energy_ev=-6.196297928394836 mp2_q5_cohesive_correction_mev=-24.321035587993382 fragment_expression="Mg + 2*SH_from_MgSH2" pbc="F F F"
Mg       0.00000000       0.00000000       0.00000000
S       -2.18913819      -0.21834372       0.00000000
S        2.18913819       0.21834372       0.00000000
H       -2.37345019       1.11055328      -0.00000000
H        2.37345019      -1.11055328      -0.00000000
5
Properties=species:S:1:pos:R:3 calculation_type=covalent_refinement calculation_label=MgSH2/refinement_41/point_013_distance_2.21 point=13 distance_angstrom=2.21 source_output=Structures/Raw_Covalents/MgSH2_refinement_41_point_013_distance_2.210000_aims.out system=MgSH2 geometry_index=13 energy=-5.8438345400334155 energy_units=eV energy_type=CCSD(T)_CBS_TQ_plus_delta_MP2_Q5_TQ_cohesive cohesive_energy_ev=-5.8438345400334155 binding_energy_ev=-5.8438345400334155 cohesive_energy_hartree=-0.21475696000197786 dissociation_energy_ev=5.8438345400334155 ccsdt_cbs_tq_cohesive_energy_ev=-5.819736349576793 mp2_cbs_tq_cohesive_energy_ev=-6.189489105812317 mp2_cbs_q5_cohesive_energy_ev=-6.21358729626894 mp2_q5_cohesive_correction_mev=-24.098190456622362 fragment_expression="Mg + 2*SH_from_MgSH2" pbc="F F F"
Mg       0.00000000       0.00000000       0.00000000
S       -2.19908882      -0.21933619       0.00000000
S        2.19908882       0.21933619       0.00000000
H       -2.38340082       1.10956081      -0.00000000
H        2.38340082      -1.10956081      -0.00000000
5
Properties=species:S:1:pos:R:3 calculation_type=covalent_refinement calculation_label=MgSH2/refinement_41/point_014_distance_2.22 point=14 distance_angstrom=2.22 source_output=Structures/Raw_Covalents/MgSH2_refinement_41_point_014_distance_2.220000_aims.out system=MgSH2 geometry_index=14 energy=-5.858901690431825 energy_units=eV energy_type=CCSD(T)_CBS_TQ_plus_delta_MP2_Q5_TQ_cohesive cohesive_energy_ev=-5.858901690431825 binding_energy_ev=-5.858901690431825 cohesive_energy_hartree=-0.21531066757074768 dissociation_energy_ev=5.858901690431825 ccsdt_cbs_tq_cohesive_energy_ev=-5.835021270741002 mp2_cbs_tq_cohesive_energy_ev=-6.204194003500043 mp2_cbs_q5_cohesive_energy_ev=-6.228074423190865 mp2_q5_cohesive_correction_mev=-23.88041969082259 fragment_expression="Mg + 2*SH_from_MgSH2" pbc="F F F"
Mg       0.00000000       0.00000000       0.00000000
S       -2.20903945      -0.22032866       0.00000000
S        2.20903945       0.22032866       0.00000000
H       -2.39335145       1.10856834      -0.00000000
H        2.39335145      -1.10856834      -0.00000000
5
Properties=species:S:1:pos:R:3 calculation_type=covalent_refinement calculation_label=MgSH2/refinement_41/point_015_distance_2.23 point=15 distance_angstrom=2.23 source_output=Structures/Raw_Covalents/MgSH2_refinement_41_point_015_distance_2.230000_aims.out system=MgSH2 geometry_index=15 energy=-5.871266917836153 energy_units=eV energy_type=CCSD(T)_CBS_TQ_plus_delta_MP2_Q5_TQ_cohesive cohesive_energy_ev=-5.871266917836153 binding_energy_ev=-5.871266917836153 cohesive_energy_hartree=-0.21576508130010552 dissociation_energy_ev=5.871266917836153 ccsdt_cbs_tq_cohesive_energy_ev=-5.8475989196998555 mp2_cbs_tq_cohesive_energy_ev=-6.2161920558248065 mp2_cbs_q5_cohesive_energy_ev=-6.239860053961105 mp2_q5_cohesive_correction_mev=-23.667998136298138 fragment_expression="Mg + 2*SH_from_MgSH2" pbc="F F F"
Mg       0.00000000       0.00000000       0.00000000
S       -2.21899008      -0.22132114       0.00000000
S        2.21899008       0.22132114       0.00000000
H       -2.40330208       1.10757586      -0.00000000
H        2.40330208      -1.10757586      -0.00000000
5
Properties=species:S:1:pos:R:3 calculation_type=covalent_refinement calculation_label=MgSH2/refinement_41/point_016_distance_2.24 point=16 distance_angstrom=2.24 source_output=Structures/Raw_Covalents/MgSH2_refinement_41_point_016_distance_2.240000_aims.out system=MgSH2 geometry_index=16 energy=-5.881028005266102 energy_units=eV energy_type=CCSD(T)_CBS_TQ_plus_delta_MP2_Q5_TQ_cohesive cohesive_energy_ev=-5.881028005266102 binding_energy_ev=-5.881028005266102 cohesive_energy_hartree=-0.21612379464977494 dissociation_energy_ev=5.881028005266102 ccsdt_cbs_tq_cohesive_energy_ev=-5.857566915717678 mp2_cbs_tq_cohesive_energy_ev=-6.225580461018277 mp2_cbs_q5_cohesive_energy_ev=-6.249041550566701 mp2_q5_cohesive_correction_mev=-23.46108954842361 fragment_expression="Mg + 2*SH_from_MgSH2" pbc="F F F"
Mg       0.00000000       0.00000000       0.00000000
S       -2.22894070      -0.22231361       0.00000000
S        2.22894070       0.22231361       0.00000000
H       -2.41325270       1.10658339      -0.00000000
H        2.41325270      -1.10658339      -0.00000000
5
Properties=species:S:1:pos:R:3 calculation_type=covalent_refinement calculation_label=MgSH2/refinement_41/point_017_distance_2.25 point=17 distance_angstrom=2.25 source_output=Structures/Raw_Covalents/MgSH2_refinement_41_point_017_distance_2.250000_aims.out system=MgSH2 geometry_index=17 energy=-5.888279505354619 energy_units=eV energy_type=CCSD(T)_CBS_TQ_plus_delta_MP2_Q5_TQ_cohesive cohesive_energy_ev=-5.888279505354619 binding_energy_ev=-5.888279505354619 cohesive_energy_hartree=-0.21639028236495506 dissociation_energy_ev=5.888279505354619 ccsdt_cbs_tq_cohesive_energy_ev=-5.865019743266651 mp2_cbs_tq_cohesive_energy_ev=-6.232453293245405 mp2_cbs_q5_cohesive_energy_ev=-6.2557130553333735 mp2_q5_cohesive_correction_mev=-23.25976208796843 fragment_expression="Mg + 2*SH_from_MgSH2" pbc="F F F"
Mg       0.00000000       0.00000000       0.00000000
S       -2.23889133      -0.22330608       0.00000000
S        2.23889133       0.22330608       0.00000000
H       -2.42320333       1.10559092      -0.00000000
H        2.42320333      -1.10559092      -0.00000000
5
Properties=species:S:1:pos:R:3 calculation_type=covalent_refinement calculation_label=MgSH2/refinement_41/point_018_distance_2.26 point=18 distance_angstrom=2.26 source_output=Structures/Raw_Covalents/MgSH2_refinement_41_point_018_distance_2.260000_aims.out system=MgSH2 geometry_index=18 energy=-5.8931127945968615 energy_units=eV energy_type=CCSD(T)_CBS_TQ_plus_delta_MP2_Q5_TQ_cohesive cohesive_energy_ev=-5.8931127945968615 binding_energy_ev=-5.8931127945968615 cohesive_energy_hartree=-0.21656790246993296 dissociation_energy_ev=5.8931127945968615 ccsdt_cbs_tq_cohesive_energy_ev=-5.870048791377101 mp2_cbs_tq_cohesive_energy_ev=-6.236901544401738 mp2_cbs_q5_cohesive_energy_ev=-6.259965547621499 mp2_q5_cohesive_correction_mev=-23.06400321976091 fragment_expression="Mg + 2*SH_from_MgSH2" pbc="F F F"
Mg       0.00000000       0.00000000       0.00000000
S       -2.24884196      -0.22429855       0.00000000
S        2.24884196       0.22429855       0.00000000
H       -2.43315396       1.10459845      -0.00000000
H        2.43315396      -1.10459845      -0.00000000
5
Properties=species:S:1:pos:R:3 calculation_type=covalent_refinement calculation_label=MgSH2/refinement_41/point_019_distance_2.27 point=19 distance_angstrom=2.27 source_output=Structures/Raw_Covalents/MgSH2_refinement_41_point_019_distance_2.270000_aims.out system=MgSH2 geometry_index=19 energy=-5.895616228007356 energy_units=eV energy_type=CCSD(T)_CBS_TQ_plus_delta_MP2_Q5_TQ_cohesive cohesive_energy_ev=-5.895616228007356 binding_energy_ev=-5.895616228007356 cohesive_energy_hartree=-0.21665990195162976 dissociation_energy_ev=5.895616228007356 ccsdt_cbs_tq_cohesive_energy_ev=-5.872742496783469 mp2_cbs_tq_cohesive_energy_ev=-6.239013264654593 mp2_cbs_q5_cohesive_energy_ev=-6.26188699587848 mp2_q5_cohesive_correction_mev=-22.873731223886146 fragment_expression="Mg + 2*SH_from_MgSH2" pbc="F F F"
Mg       0.00000000       0.00000000       0.00000000
S       -2.25879259      -0.22529102       0.00000000
S        2.25879259       0.22529102       0.00000000
H       -2.44310459       1.10360598      -0.00000000
H        2.44310459      -1.10360598      -0.00000000
5
Properties=species:S:1:pos:R:3 calculation_type=covalent_refinement calculation_label=MgSH2/refinement_41/point_020_distance_2.28 point=20 distance_angstrom=2.28 source_output=Structures/Raw_Covalents/MgSH2_refinement_41_point_020_distance_2.280000_aims.out system=MgSH2 geometry_index=20 energy=-5.895875237022411 energy_units=eV energy_type=CCSD(T)_CBS_TQ_plus_delta_MP2_Q5_TQ_cohesive cohesive_energy_ev=-5.895875237022411 binding_energy_ev=-5.895875237022411 cohesive_energy_hartree=-0.21666942035744796 dissociation_energy_ev=5.895875237022411 ccsdt_cbs_tq_cohesive_energy_ev=-5.873186429065722 mp2_cbs_tq_cohesive_energy_ev=-6.238873647163746 mp2_cbs_q5_cohesive_energy_ev=-6.261562455120434 mp2_q5_cohesive_correction_mev=-22.68880795668879 fragment_expression="Mg + 2*SH_from_MgSH2" pbc="F F F"
Mg       0.00000000       0.00000000       0.00000000
S       -2.26874322      -0.22628349       0.00000000
S        2.26874322       0.22628349       0.00000000
H       -2.45305522       1.10261351      -0.00000000
H        2.45305522      -1.10261351      -0.00000000
5
Properties=species:S:1:pos:R:3 calculation_type=covalent_refinement calculation_label=MgSH2/refinement_41/point_021_distance_2.29 point=21 distance_angstrom=2.29 source_output=Structures/Raw_Covalents/MgSH2_refinement_41_point_021_distance_2.290000_aims.out system=MgSH2 geometry_index=21 energy=-5.8939724344744535 energy_units=eV energy_type=CCSD(T)_CBS_TQ_plus_delta_MP2_Q5_TQ_cohesive cohesive_energy_ev=-5.8939724344744535 binding_energy_ev=-5.8939724344744535 cohesive_energy_hartree=-0.2165994936530069 dissociation_energy_ev=5.8939724344744535 ccsdt_cbs_tq_cohesive_energy_ev=-5.871463387410235 mp2_cbs_tq_cohesive_energy_ev=-6.236565125507426 mp2_cbs_q5_cohesive_energy_ev=-6.259074172571645 mp2_q5_cohesive_correction_mev=-22.50904706421845 fragment_expression="Mg + 2*SH_from_MgSH2" pbc="F F F"
Mg       0.00000000       0.00000000       0.00000000
S       -2.27869384      -0.22727597       0.00000000
S        2.27869384       0.22727597       0.00000000
H       -2.46300584       1.10162103       0.00000000
H        2.46300584      -1.10162103       0.00000000
5
Properties=species:S:1:pos:R:3 calculation_type=covalent_refinement calculation_label=MgSH2/refinement_41/point_022_distance_2.30 point=22 distance_angstrom=2.3 source_output=Structures/Raw_Covalents/MgSH2_refinement_41_point_022_distance_2.300000_aims.out system=MgSH2 geometry_index=22 energy=-5.889987706904342 energy_units=eV energy_type=CCSD(T)_CBS_TQ_plus_delta_MP2_Q5_TQ_cohesive cohesive_energy_ev=-5.889987706904342 binding_energy_ev=-5.889987706904342 cohesive_energy_hartree=-0.21645305761455802 dissociation_energy_ev=5.889987706904342 ccsdt_cbs_tq_cohesive_energy_ev=-5.867653483557857 mp2_cbs_tq_cohesive_energy_ev=-6.232167452519029 mp2_cbs_q5_cohesive_energy_ev=-6.254501675865514 mp2_q5_cohesive_correction_mev=-22.334223346485533 fragment_expression="Mg + 2*SH_from_MgSH2" pbc="F F F"
Mg       0.00000000       0.00000000       0.00000000
S       -2.28864447      -0.22826844       0.00000000
S        2.28864447       0.22826844       0.00000000
H       -2.47295647       1.10062856       0.00000000
H        2.47295647      -1.10062856       0.00000000
5
Properties=species:S:1:pos:R:3 calculation_type=covalent_refinement calculation_label=MgSH2/refinement_41/point_023_distance_2.31 point=23 distance_angstrom=2.31 source_output=Structures/Raw_Covalents/MgSH2_refinement_41_point_023_distance_2.310000_aims.out system=MgSH2 geometry_index=23 energy=-5.883998319343896 energy_units=eV energy_type=CCSD(T)_CBS_TQ_plus_delta_MP2_Q5_TQ_cohesive cohesive_energy_ev=-5.883998319343896 binding_energy_ev=-5.883998319343896 cohesive_energy_hartree=-0.21623295167967171 dissociation_energy_ev=5.883998319343896 ccsdt_cbs_tq_cohesive_energy_ev=-5.861834237896579 mp2_cbs_tq_cohesive_energy_ev=-6.225757800692221 mp2_cbs_q5_cohesive_energy_ev=-6.247921882139538 mp2_q5_cohesive_correction_mev=-22.16408144731744 fragment_expression="Mg + 2*SH_from_MgSH2" pbc="F F F"
Mg       0.00000000       0.00000000       0.00000000
S       -2.29859510      -0.22926091       0.00000000
S        2.29859510       0.22926091       0.00000000
H       -2.48290710       1.09963609       0.00000000
H        2.48290710      -1.09963609       0.00000000
5
Properties=species:S:1:pos:R:3 calculation_type=covalent_refinement calculation_label=MgSH2/refinement_41/point_024_distance_2.32 point=24 distance_angstrom=2.32 source_output=Structures/Raw_Covalents/MgSH2_refinement_41_point_024_distance_2.320000_aims.out system=MgSH2 geometry_index=24 energy=-5.876079002505256 energy_units=eV energy_type=CCSD(T)_CBS_TQ_plus_delta_MP2_Q5_TQ_cohesive cohesive_energy_ev=-5.876079002505256 binding_energy_ev=-5.876079002505256 cohesive_energy_hartree=-0.2159419221513872 dissociation_energy_ev=5.876079002505256 ccsdt_cbs_tq_cohesive_energy_ev=-5.854080661299011 mp2_cbs_tq_cohesive_energy_ev=-6.217410840389653 mp2_cbs_q5_cohesive_energy_ev=-6.2394091815958985 mp2_q5_cohesive_correction_mev=-21.998341206245772 fragment_expression="Mg + 2*SH_from_MgSH2" pbc="F F F"
Mg       0.00000000       0.00000000       0.00000000
S       -2.30854573      -0.23025338       0.00000000
S        2.30854573       0.23025338       0.00000000
H       -2.49285773       1.09864362       0.00000000
H        2.49285773      -1.09864362       0.00000000
5
Properties=species:S:1:pos:R:3 calculation_type=covalent_refinement calculation_label=MgSH2/refinement_41/point_025_distance_2.33 point=25 distance_angstrom=2.33 source_output=Structures/Raw_Covalents/MgSH2_refinement_41_point_025_distance_2.330000_aims.out system=MgSH2 geometry_index=25 energy=-5.866302042315171 energy_units=eV energy_type=CCSD(T)_CBS_TQ_plus_delta_MP2_Q5_TQ_cohesive cohesive_energy_ev=-5.866302042315171 binding_energy_ev=-5.866302042315171 cohesive_energy_hartree=-0.2155826254885369 dissociation_energy_ev=5.866302042315171 ccsdt_cbs_tq_cohesive_energy_ev=-5.844465337365104 mp2_cbs_tq_cohesive_energy_ev=-6.207198822357922 mp2_cbs_q5_cohesive_energy_ev=-6.229035527307989 mp2_q5_cohesive_correction_mev=-21.836704950065982 fragment_expression="Mg + 2*SH_from_MgSH2" pbc="F F F"
Mg       0.00000000       0.00000000       0.00000000
S       -2.31849636      -0.23124585       0.00000000
S        2.31849636       0.23124585       0.00000000
H       -2.50280836       1.09765115       0.00000000
H        2.50280836      -1.09765115       0.00000000
5
Properties=species:S:1:pos:R:3 calculation_type=covalent_refinement calculation_label=MgSH2/refinement_41/point_026_distance_2.34 point=26 distance_angstrom=2.34 source_output=Structures/Raw_Covalents/MgSH2_refinement_41_point_026_distance_2.340000_aims.out system=MgSH2 geometry_index=26 energy=-5.854737376852212 energy_units=eV energy_type=CCSD(T)_CBS_TQ_plus_delta_MP2_Q5_TQ_cohesive cohesive_energy_ev=-5.854737376852212 binding_energy_ev=-5.854737376852212 cohesive_energy_hartree=-0.21515763186812364 dissociation_energy_ev=5.854737376852212 ccsdt_cbs_tq_cohesive_energy_ev=-5.833058514867502 mp2_cbs_tq_cohesive_energy_ev=-6.195191670141981 mp2_cbs_q5_cohesive_energy_ev=-6.216870532126691 mp2_q5_cohesive_correction_mev=-21.67886198471035 fragment_expression="Mg + 2*SH_from_MgSH2" pbc="F F F"
Mg       0.00000000       0.00000000       0.00000000
S       -2.32844698      -0.23223832       0.00000000
S        2.32844698       0.23223832       0.00000000
H       -2.51275898       1.09665868       0.00000000
H        2.51275898      -1.09665868       0.00000000
5
Properties=species:S:1:pos:R:3 calculation_type=covalent_refinement calculation_label=MgSH2/refinement_41/point_027_distance_2.35 point=27 distance_angstrom=2.35 source_output=Structures/Raw_Covalents/MgSH2_refinement_41_point_027_distance_2.350000_aims.out system=MgSH2 geometry_index=27 energy=-5.841452630444179 energy_units=eV energy_type=CCSD(T)_CBS_TQ_plus_delta_MP2_Q5_TQ_cohesive cohesive_energy_ev=-5.841452630444179 binding_energy_ev=-5.841452630444179 cohesive_energy_hartree=-0.21466942643837683 dissociation_energy_ev=5.841452630444179 ccsdt_cbs_tq_cohesive_energy_ev=-5.819928137152882 mp2_cbs_tq_cohesive_energy_ev=-6.181457006590898 mp2_cbs_q5_cohesive_energy_ev=-6.202981499882195 mp2_q5_cohesive_correction_mev=-21.524493291296967 fragment_expression="Mg + 2*SH_from_MgSH2" pbc="F F F"
Mg       0.00000000       0.00000000       0.00000000
S       -2.33839761      -0.23323079       0.00000000
S        2.33839761       0.23323079       0.00000000
H       -2.52270961       1.09566621       0.00000000
H        2.52270961      -1.09566621       0.00000000
5
Properties=species:S:1:pos:R:3 calculation_type=covalent_refinement calculation_label=MgSH2/refinement_41/point_028_distance_2.36 point=28 distance_angstrom=2.36 source_output=Structures/Raw_Covalents/MgSH2_refinement_41_point_028_distance_2.360000_aims.out system=MgSH2 geometry_index=28 energy=-5.826513260096349 energy_units=eV energy_type=CCSD(T)_CBS_TQ_plus_delta_MP2_Q5_TQ_cohesive cohesive_energy_ev=-5.826513260096349 binding_energy_ev=-5.826513260096349 cohesive_energy_hartree=-0.21412041469989163 dissociation_energy_ev=5.826513260096349 ccsdt_cbs_tq_cohesive_energy_ev=-5.805139983926762 mp2_cbs_tq_cohesive_energy_ev=-6.166060298921844 mp2_cbs_q5_cohesive_energy_ev=-6.187433575091432 mp2_q5_cohesive_correction_mev=-21.373276169587996 fragment_expression="Mg + 2*SH_from_MgSH2" pbc="F F F"
Mg       0.00000000       0.00000000       0.00000000
S       -2.34834824      -0.23422327       0.00000000
S        2.34834824       0.23422327       0.00000000
H       -2.53266024       1.09467373       0.00000000
H        2.53266024      -1.09467373       0.00000000
5
Properties=species:S:1:pos:R:3 calculation_type=covalent_refinement calculation_label=MgSH2/refinement_41/point_029_distance_2.37 point=29 distance_angstrom=2.37 source_output=Structures/Raw_Covalents/MgSH2_refinement_41_point_029_distance_2.370000_aims.out system=MgSH2 geometry_index=29 energy=-5.8099825927443245 energy_units=eV energy_type=CCSD(T)_CBS_TQ_plus_delta_MP2_Q5_TQ_cohesive cohesive_energy_ev=-5.8099825927443245 binding_energy_ev=-5.8099825927443245 cohesive_energy_hartree=-0.21351292387464582 dissociation_energy_ev=5.8099825927443245 ccsdt_cbs_tq_cohesive_energy_ev=-5.788757705341606 mp2_cbs_tq_cohesive_energy_ev=-6.149064889365065 mp2_cbs_q5_cohesive_energy_ev=-6.170289776767784 mp2_q5_cohesive_correction_mev=-21.224887402718334 fragment_expression="Mg + 2*SH_from_MgSH2" pbc="F F F"
Mg       0.00000000       0.00000000       0.00000000
S       -2.35829887      -0.23521574       0.00000000
S        2.35829887       0.23521574       0.00000000
H       -2.54261087       1.09368126       0.00000000
H        2.54261087      -1.09368126       0.00000000
5
Properties=species:S:1:pos:R:3 calculation_type=covalent_refinement calculation_label=MgSH2/refinement_41/point_030_distance_2.38 point=30 distance_angstrom=2.38 source_output=Structures/Raw_Covalents/MgSH2_refinement_41_point_030_distance_2.380000_aims.out system=MgSH2 geometry_index=30 energy=-5.79192190018664 energy_units=eV energy_type=CCSD(T)_CBS_TQ_plus_delta_MP2_Q5_TQ_cohesive cohesive_energy_ev=-5.79192190018664 binding_energy_ev=-5.79192190018664 cohesive_energy_hartree=-0.21284920565972243 dissociation_energy_ev=5.79192190018664 ccsdt_cbs_tq_cohesive_energy_ev=-5.770842893888459 mp2_cbs_tq_cohesive_energy_ev=-6.130532067831987 mp2_cbs_q5_cohesive_energy_ev=-6.151611074130168 mp2_q5_cohesive_correction_mev=-21.079006298181234 fragment_expression="Mg + 2*SH_from_MgSH2" pbc="F F F"
Mg       0.00000000       0.00000000       0.00000000
S       -2.36824950      -0.23620821       0.00000000
S        2.36824950       0.23620821       0.00000000
H       -2.55256150       1.09268879       0.00000000
H        2.55256150      -1.09268879       0.00000000
5
Properties=species:S:1:pos:R:3 calculation_type=covalent_refinement calculation_label=MgSH2/refinement_41/point_031_distance_2.39 point=31 distance_angstrom=2.39 source_output=Structures/Raw_Covalents/MgSH2_refinement_41_point_031_distance_2.390000_aims.out system=MgSH2 geometry_index=31 energy=-5.772390474951634 energy_units=eV energy_type=CCSD(T)_CBS_TQ_plus_delta_MP2_Q5_TQ_cohesive cohesive_energy_ev=-5.772390474951634 binding_energy_ev=-5.772390474951634 cohesive_energy_hartree=-0.21213143901536569 dissociation_energy_ev=5.772390474951634 ccsdt_cbs_tq_cohesive_energy_ev=-5.751455157659015 mp2_cbs_tq_cohesive_energy_ev=-6.1105211443234655 mp2_cbs_q5_cohesive_energy_ev=-6.131456461616085 mp2_q5_cohesive_correction_mev=-20.93531729261967 fragment_expression="Mg + 2*SH_from_MgSH2" pbc="F F F"
Mg       0.00000000       0.00000000       0.00000000
S       -2.37820013      -0.23720068       0.00000000
S        2.37820013       0.23720068       0.00000000
H       -2.56251213       1.09169632       0.00000000
H        2.56251213      -1.09169632       0.00000000
5
Properties=species:S:1:pos:R:3 calculation_type=covalent_refinement calculation_label=MgSH2/refinement_41/point_032_distance_2.40 point=32 distance_angstrom=2.4 source_output=Structures/Raw_Covalents/MgSH2_refinement_41_point_032_distance_2.400000_aims.out system=MgSH2 geometry_index=32 energy=-5.751445718318976 energy_units=eV energy_type=CCSD(T)_CBS_TQ_plus_delta_MP2_Q5_TQ_cohesive cohesive_energy_ev=-5.751445718318976 binding_energy_ev=-5.751445718318976 cohesive_energy_hartree=-0.21136173339971265 dissociation_energy_ev=5.751445718318976 ccsdt_cbs_tq_cohesive_energy_ev=-5.730652205258106 mp2_cbs_tq_cohesive_energy_ev=-6.089089534040266 mp2_cbs_q5_cohesive_energy_ev=-6.109883047101136 mp2_q5_cohesive_correction_mev=-20.79351306087064 fragment_expression="Mg + 2*SH_from_MgSH2" pbc="F F F"
Mg       0.00000000       0.00000000       0.00000000
S       -2.38815075      -0.23819315       0.00000000
S        2.38815075       0.23819315       0.00000000
H       -2.57246275       1.09070385       0.00000000
H        2.57246275      -1.09070385       0.00000000
5
Properties=species:S:1:pos:R:3 calculation_type=covalent_refinement calculation_label=MgSH2/refinement_41/point_033_distance_2.41 point=33 distance_angstrom=2.41 source_output=Structures/Raw_Covalents/MgSH2_refinement_41_point_033_distance_2.410000_aims.out system=MgSH2 geometry_index=33 energy=-5.72914312075589 energy_units=eV energy_type=CCSD(T)_CBS_TQ_plus_delta_MP2_Q5_TQ_cohesive cohesive_energy_ev=-5.72914312075589 binding_energy_ev=-5.72914312075589 cohesive_energy_hartree=-0.21054212804983763 dissociation_energy_ev=5.72914312075589 ccsdt_cbs_tq_cohesive_energy_ev=-5.7084898253335075 mp2_cbs_tq_cohesive_energy_ev=-6.066292733878063 mp2_cbs_q5_cohesive_energy_ev=-6.086946029300446 mp2_q5_cohesive_correction_mev=-20.653295422383067 fragment_expression="Mg + 2*SH_from_MgSH2" pbc="F F F"
Mg       0.00000000       0.00000000       0.00000000
S       -2.39810138      -0.23918562       0.00000000
S        2.39810138       0.23918562       0.00000000
H       -2.58241338       1.08971138       0.00000000
H        2.58241338      -1.08971138       0.00000000
5
Properties=species:S:1:pos:R:3 calculation_type=covalent_refinement calculation_label=MgSH2/refinement_41/point_034_distance_2.42 point=34 distance_angstrom=2.42 source_output=Structures/Raw_Covalents/MgSH2_refinement_41_point_034_distance_2.420000_aims.out system=MgSH2 geometry_index=34 energy=-5.705536450028258 energy_units=eV energy_type=CCSD(T)_CBS_TQ_plus_delta_MP2_Q5_TQ_cohesive cohesive_energy_ev=-5.705536450028258 binding_energy_ev=-5.705536450028258 cohesive_energy_hartree=-0.20967459889470774 dissociation_energy_ev=5.705536450028258 ccsdt_cbs_tq_cohesive_energy_ev=-5.685022071887353 mp2_cbs_tq_cohesive_energy_ev=-6.042184511070643 mp2_cbs_q5_cohesive_energy_ev=-6.062698889211548 mp2_q5_cohesive_correction_mev=-20.51437814090445 fragment_expression="Mg + 2*SH_from_MgSH2" pbc="F F F"
Mg       0.00000000       0.00000000       0.00000000
S       -2.40805201      -0.24017809       0.00000000
S        2.40805201       0.24017809       0.00000000
H       -2.59236401       1.08871891       0.00000000
H        2.59236401      -1.08871891       0.00000000
5
Properties=species:S:1:pos:R:3 calculation_type=covalent_refinement calculation_label=MgSH2/refinement_41/point_035_distance_2.43 point=35 distance_angstrom=2.43 source_output=Structures/Raw_Covalents/MgSH2_refinement_41_point_035_distance_2.430000_aims.out system=MgSH2 geometry_index=35 energy=-5.6806777278162714 energy_units=eV energy_type=CCSD(T)_CBS_TQ_plus_delta_MP2_Q5_TQ_cohesive cohesive_energy_ev=-5.6806777278162714 binding_energy_ev=-5.6806777278162714 cohesive_energy_hartree=-0.2087610576958241 dissociation_energy_ev=5.6806777278162714 ccsdt_cbs_tq_cohesive_energy_ev=-5.660301239703857 mp2_cbs_tq_cohesive_energy_ev=-6.016816875688008 mp2_cbs_q5_cohesive_energy_ev=-6.037193363800422 mp2_q5_cohesive_correction_mev=-20.37648811241423 fragment_expression="Mg + 2*SH_from_MgSH2" pbc="F F F"
Mg       0.00000000       0.00000000       0.00000000
S       -2.41800264      -0.24117057       0.00000000
S        2.41800264       0.24117057       0.00000000
H       -2.60231464       1.08772643       0.00000000
H        2.60231464      -1.08772643       0.00000000
5
Properties=species:S:1:pos:R:3 calculation_type=covalent_refinement calculation_label=MgSH2/refinement_41/point_036_distance_2.44 point=36 distance_angstrom=2.44 source_output=Structures/Raw_Covalents/MgSH2_refinement_41_point_036_distance_2.440000_aims.out system=MgSH2 geometry_index=36 energy=-5.654617318203097 energy_units=eV energy_type=CCSD(T)_CBS_TQ_plus_delta_MP2_Q5_TQ_cohesive cohesive_energy_ev=-5.654617318203097 binding_energy_ev=-5.654617318203097 cohesive_energy_hartree=-0.20780335529912008 dissociation_energy_ev=5.654617318203097 ccsdt_cbs_tq_cohesive_energy_ev=-5.634377951393273 mp2_cbs_tq_cohesive_energy_ev=-5.990240167219389 mp2_cbs_q5_cohesive_energy_ev=-6.010479534029212 mp2_q5_cohesive_correction_mev=-20.23936680982396 fragment_expression="Mg + 2*SH_from_MgSH2" pbc="F F F"
Mg       0.00000000       0.00000000       0.00000000
S       -2.42795327      -0.24216304       0.00000000
S        2.42795327       0.24216304       0.00000000
H       -2.61226527       1.08673396       0.00000000
H        2.61226527      -1.08673396       0.00000000
5
Properties=species:S:1:pos:R:3 calculation_type=covalent_refinement calculation_label=MgSH2/refinement_41/point_037_distance_2.45 point=37 distance_angstrom=2.45 source_output=Structures/Raw_Covalents/MgSH2_refinement_41_point_037_distance_2.450000_aims.out system=MgSH2 geometry_index=37 energy=-5.627403997629916 energy_units=eV energy_type=CCSD(T)_CBS_TQ_plus_delta_MP2_Q5_TQ_cohesive cohesive_energy_ev=-5.627403997629916 binding_energy_ev=-5.627403997629916 cohesive_energy_hartree=-0.20680328420576188 dissociation_energy_ev=5.627403997629916 ccsdt_cbs_tq_cohesive_energy_ev=-5.607301225636191 mp2_cbs_tq_cohesive_energy_ev=-5.962503124107568 mp2_cbs_q5_cohesive_energy_ev=-5.982605896101293 mp2_q5_cohesive_correction_mev=-20.102771993725096 fragment_expression="Mg + 2*SH_from_MgSH2" pbc="F F F"
Mg       0.00000000       0.00000000       0.00000000
S       -2.43790389      -0.24315551       0.00000000
S        2.43790389       0.24315551       0.00000000
H       -2.62221589       1.08574149       0.00000000
H        2.62221589      -1.08574149       0.00000000
5
Properties=species:S:1:pos:R:3 calculation_type=covalent_refinement calculation_label=MgSH2/refinement_41/point_038_distance_2.46 point=38 distance_angstrom=2.46 source_output=Structures/Raw_Covalents/MgSH2_refinement_41_point_038_distance_2.460000_aims.out system=MgSH2 geometry_index=38 energy=-5.599084909692587 energy_units=eV energy_type=CCSD(T)_CBS_TQ_plus_delta_MP2_Q5_TQ_cohesive cohesive_energy_ev=-5.599084909692587 binding_energy_ev=-5.599084909692587 cohesive_energy_hartree=-0.20576257691095634 dissociation_energy_ev=5.599084909692587 ccsdt_cbs_tq_cohesive_energy_ev=-5.579118431856456 mp2_cbs_tq_cohesive_energy_ev=-5.933652834455832 mp2_cbs_q5_cohesive_energy_ev=-5.953619312291964 mp2_q5_cohesive_correction_mev=-19.966477836132032 fragment_expression="Mg + 2*SH_from_MgSH2" pbc="F F F"
Mg       0.00000000       0.00000000       0.00000000
S       -2.44785452      -0.24414798       0.00000000
S        2.44785452       0.24414798       0.00000000
H       -2.63216652       1.08474902       0.00000000
H        2.63216652      -1.08474902       0.00000000
5
Properties=species:S:1:pos:R:3 calculation_type=covalent_refinement calculation_label=MgSH2/refinement_41/point_039_distance_2.47 point=39 distance_angstrom=2.47 source_output=Structures/Raw_Covalents/MgSH2_refinement_41_point_039_distance_2.470000_aims.out system=MgSH2 geometry_index=39 energy=-5.569705778347841 energy_units=eV energy_type=CCSD(T)_CBS_TQ_plus_delta_MP2_Q5_TQ_cohesive cohesive_energy_ev=-5.569705778347841 binding_energy_ev=-5.569705778347841 cohesive_energy_hartree=-0.20468291373913416 dissociation_energy_ev=5.569705778347841 ccsdt_cbs_tq_cohesive_energy_ev=-5.549875500773071 mp2_cbs_tq_cohesive_energy_ev=-5.903734950446844 mp2_cbs_q5_cohesive_energy_ev=-5.923565228021614 mp2_q5_cohesive_correction_mev=-19.830277574770687 fragment_expression="Mg + 2*SH_from_MgSH2" pbc="F F F"
Mg       0.00000000       0.00000000       0.00000000
S       -2.45780515      -0.24514045       0.00000000
S        2.45780515       0.24514045       0.00000000
H       -2.64211715       1.08375655       0.00000000
H        2.64211715      -1.08375655       0.00000000
5
Properties=species:S:1:pos:R:3 calculation_type=covalent_refinement calculation_label=MgSH2/refinement_41/point_040_distance_2.48 point=40 distance_angstrom=2.48 source_output=Structures/Raw_Covalents/MgSH2_refinement_41_point_040_distance_2.480000_aims.out system=MgSH2 geometry_index=40 energy=-5.539310852306243 energy_units=eV energy_type=CCSD(T)_CBS_TQ_plus_delta_MP2_Q5_TQ_cohesive cohesive_energy_ev=-5.539310852306243 binding_energy_ev=-5.539310852306243 cohesive_energy_hartree=-0.203565920800429 dissociation_energy_ev=5.539310852306243 ccsdt_cbs_tq_cohesive_energy_ev=-5.519616869164394 mp2_cbs_tq_cohesive_energy_ev=-5.872793629929735 mp2_cbs_q5_cohesive_energy_ev=-5.892487613071584 mp2_q5_cohesive_correction_mev=-19.69398314184932 fragment_expression="Mg + 2*SH_from_MgSH2" pbc="F F F"
Mg       0.00000000       0.00000000       0.00000000
S       -2.46775578      -0.24613292       0.00000000
S        2.46775578       0.24613292       0.00000000
H       -2.65206778       1.08276408       0.00000000
H        2.65206778      -1.08276408       0.00000000
5
Properties=species:S:1:pos:R:3 calculation_type=covalent_refinement calculation_label=MgSH2/refinement_41/point_041_distance_2.49 point=41 distance_angstrom=2.49 source_output=Structures/Raw_Covalents/MgSH2_refinement_41_point_041_distance_2.490000_aims.out system=MgSH2 geometry_index=41 energy=-5.507942980246316 energy_units=eV energy_type=CCSD(T)_CBS_TQ_plus_delta_MP2_Q5_TQ_cohesive cohesive_energy_ev=-5.507942980246316 binding_energy_ev=-5.507942980246316 cohesive_energy_hartree=-0.20241317275474557 dissociation_energy_ev=5.507942980246316 ccsdt_cbs_tq_cohesive_energy_ev=-5.488385553702522 mp2_cbs_tq_cohesive_energy_ev=-5.840871610523635 mp2_cbs_q5_cohesive_energy_ev=-5.860429037067428 mp2_q5_cohesive_correction_mev=-19.55742654379364 fragment_expression="Mg + 2*SH_from_MgSH2" pbc="F F F"
Mg       0.00000000       0.00000000       0.00000000
S       -2.47770641      -0.24712539       0.00000000
S        2.47770641       0.24712539       0.00000000
H       -2.66201841       1.08177161       0.00000000
H        2.66201841      -1.08177161       0.00000000
