8
Properties=species:S:1:pos:R:3 calculation_type=covalent_refinement calculation_label=Si2H6/refinement_41/point_001_distance_2.13 point=1 distance_angstrom=2.13 source_output=Structures/Raw_Covalents/Si2H6_refinement_41_point_001_distance_2.130000_aims.out system=Si2H6 geometry_index=1 energy=-3.228457138002465 energy_units=eV energy_type=CCSD(T)_CBS_TQ_plus_delta_MP2_Q5_TQ_cohesive cohesive_energy_ev=-3.228457138002465 binding_energy_ev=-3.228457138002465 cohesive_energy_hartree=-0.11864361246102817 dissociation_energy_ev=3.228457138002465 ccsdt_cbs_tq_cohesive_energy_ev=-3.228074552426608 mp2_cbs_tq_cohesive_energy_ev=-3.264575092650934 mp2_cbs_q5_cohesive_energy_ev=-3.2649576782267915 mp2_q5_cohesive_correction_mev=-0.38258557585757424 fragment_expression="SiH3_from_Si2H6 + SiH3_from_Si2H6" pbc="F F F"
Si       0.00000000      -0.00000639       1.06500000
Si       0.00000000       0.00000639      -1.06500000
H       -0.00000200       1.38690961       1.57662100
H       -1.20110300      -0.69345839       1.57663300
H        1.20110400      -0.69345539       1.57663300
H       -0.00000200      -1.38690961      -1.57662100
H       -1.20110300       0.69345839      -1.57663200
H        1.20110500       0.69345539      -1.57663300
8
Properties=species:S:1:pos:R:3 calculation_type=covalent_refinement calculation_label=Si2H6/refinement_41/point_002_distance_2.14 point=2 distance_angstrom=2.14 source_output=Structures/Raw_Covalents/Si2H6_refinement_41_point_002_distance_2.140000_aims.out system=Si2H6 geometry_index=2 energy=-3.2592962361310804 energy_units=eV energy_type=CCSD(T)_CBS_TQ_plus_delta_MP2_Q5_TQ_cohesive cohesive_energy_ev=-3.2592962361310804 binding_energy_ev=-3.2592962361310804 cohesive_energy_hartree=-0.11977692842299348 dissociation_energy_ev=3.2592962361310804 ccsdt_cbs_tq_cohesive_energy_ev=-3.258743066911902 mp2_cbs_tq_cohesive_energy_ev=-3.2949968065524073 mp2_cbs_q5_cohesive_energy_ev=-3.295549975771585 mp2_q5_cohesive_correction_mev=-0.5531692191780058 fragment_expression="SiH3_from_Si2H6 + SiH3_from_Si2H6" pbc="F F F"
Si       0.00000000      -0.00000642       1.07000000
Si       0.00000000       0.00000642      -1.07000000
H       -0.00000200       1.38690958       1.58162100
H       -1.20110300      -0.69345842       1.58163300
H        1.20110400      -0.69345542       1.58163300
H       -0.00000200      -1.38690958      -1.58162100
H       -1.20110300       0.69345842      -1.58163200
H        1.20110500       0.69345542      -1.58163300
8
Properties=species:S:1:pos:R:3 calculation_type=covalent_refinement calculation_label=Si2H6/refinement_41/point_003_distance_2.15 point=3 distance_angstrom=2.15 source_output=Structures/Raw_Covalents/Si2H6_refinement_41_point_003_distance_2.150000_aims.out system=Si2H6 geometry_index=3 energy=-3.2879717023991897 energy_units=eV energy_type=CCSD(T)_CBS_TQ_plus_delta_MP2_Q5_TQ_cohesive cohesive_energy_ev=-3.2879717023991897 binding_energy_ev=-3.2879717023991897 cohesive_energy_hartree=-0.12083073237999997 dissociation_energy_ev=3.2879717023991897 ccsdt_cbs_tq_cohesive_energy_ev=-3.2872476375092923 mp2_cbs_tq_cohesive_energy_ev=-3.3232478354525776 mp2_cbs_q5_cohesive_energy_ev=-3.323971900342475 mp2_q5_cohesive_correction_mev=-0.7240648898976072 fragment_expression="SiH3_from_Si2H6 + SiH3_from_Si2H6" pbc="F F F"
Si       0.00000000      -0.00000645       1.07500000
Si       0.00000000       0.00000645      -1.07500000
H       -0.00000200       1.38690955       1.58662100
H       -1.20110300      -0.69345845       1.58663300
H        1.20110400      -0.69345545       1.58663300
H       -0.00000200      -1.38690955      -1.58662100
H       -1.20110300       0.69345845      -1.58663200
H        1.20110500       0.69345545      -1.58663300
8
Properties=species:S:1:pos:R:3 calculation_type=covalent_refinement calculation_label=Si2H6/refinement_41/point_004_distance_2.16 point=4 distance_angstrom=2.16 source_output=Structures/Raw_Covalents/Si2H6_refinement_41_point_004_distance_2.160000_aims.out system=Si2H6 geometry_index=4 energy=-3.3145562862440974 energy_units=eV energy_type=CCSD(T)_CBS_TQ_plus_delta_MP2_Q5_TQ_cohesive cohesive_energy_ev=-3.3145562862440974 binding_energy_ev=-3.3145562862440974 cohesive_energy_hartree=-0.12180769782457901 dissociation_energy_ev=3.3145562862440974 ccsdt_cbs_tq_cohesive_energy_ev=-3.313661198225038 mp2_cbs_tq_cohesive_energy_ev=-3.3494008198670167 mp2_cbs_q5_cohesive_energy_ev=-3.350295907886076 mp2_q5_cohesive_correction_mev=-0.8950880190595828 fragment_expression="SiH3_from_Si2H6 + SiH3_from_Si2H6" pbc="F F F"
Si       0.00000000      -0.00000648       1.08000000
Si       0.00000000       0.00000648      -1.08000000
H       -0.00000200       1.38690952       1.59162100
H       -1.20110300      -0.69345848       1.59163300
H        1.20110400      -0.69345548       1.59163300
H       -0.00000200      -1.38690952      -1.59162100
H       -1.20110300       0.69345848      -1.59163200
H        1.20110500       0.69345548      -1.59163300
8
Properties=species:S:1:pos:R:3 calculation_type=covalent_refinement calculation_label=Si2H6/refinement_41/point_005_distance_2.17 point=5 distance_angstrom=2.17 source_output=Structures/Raw_Covalents/Si2H6_refinement_41_point_005_distance_2.170000_aims.out system=Si2H6 geometry_index=5 energy=-3.339120438145815 energy_units=eV energy_type=CCSD(T)_CBS_TQ_plus_delta_MP2_Q5_TQ_cohesive cohesive_energy_ev=-3.339120438145815 binding_energy_ev=-3.339120438145815 cohesive_energy_hartree=-0.12271041376413905 dissociation_energy_ev=3.339120438145815 ccsdt_cbs_tq_cohesive_energy_ev=-3.338054382632472 mp2_cbs_tq_cohesive_energy_ev=-3.3735261089982314 mp2_cbs_q5_cohesive_energy_ev=-3.3745921645115744 mp2_q5_cohesive_correction_mev=-1.0660555133430931 fragment_expression="SiH3_from_Si2H6 + SiH3_from_Si2H6" pbc="F F F"
Si       0.00000000      -0.00000651       1.08500000
Si       0.00000000       0.00000651      -1.08500000
H       -0.00000200       1.38690949       1.59662100
H       -1.20110300      -0.69345851       1.59663300
H        1.20110400      -0.69345551       1.59663300
H       -0.00000200      -1.38690949      -1.59662100
H       -1.20110300       0.69345851      -1.59663200
H        1.20110500       0.69345551      -1.59663300
8
Properties=species:S:1:pos:R:3 calculation_type=covalent_refinement calculation_label=Si2H6/refinement_41/point_006_distance_2.18 point=6 distance_angstrom=2.18 source_output=Structures/Raw_Covalents/Si2H6_refinement_41_point_006_distance_2.180000_aims.out system=Si2H6 geometry_index=6 energy=-3.361732383637784 energy_units=eV energy_type=CCSD(T)_CBS_TQ_plus_delta_MP2_Q5_TQ_cohesive cohesive_energy_ev=-3.361732383637784 binding_energy_ev=-3.361732383637784 cohesive_energy_hartree=-0.12354138744080956 dissociation_energy_ev=3.361732383637784 ccsdt_cbs_tq_cohesive_energy_ev=-3.360495598405535 mp2_cbs_tq_cohesive_energy_ev=-3.395691834548396 mp2_cbs_q5_cohesive_energy_ev=-3.3969286197806445 mp2_q5_cohesive_correction_mev=-1.2367852322488373 fragment_expression="SiH3_from_Si2H6 + SiH3_from_Si2H6" pbc="F F F"
Si       0.00000000      -0.00000654       1.09000000
Si       0.00000000       0.00000654      -1.09000000
H       -0.00000200       1.38690946       1.60162100
H       -1.20110300      -0.69345854       1.60163300
H        1.20110400      -0.69345554       1.60163300
H       -0.00000200      -1.38690946      -1.60162100
H       -1.20110300       0.69345854      -1.60163200
H        1.20110500       0.69345554      -1.60163300
8
Properties=species:S:1:pos:R:3 calculation_type=covalent_refinement calculation_label=Si2H6/refinement_41/point_007_distance_2.19 point=7 distance_angstrom=2.19 source_output=Structures/Raw_Covalents/Si2H6_refinement_41_point_007_distance_2.190000_aims.out system=Si2H6 geometry_index=7 energy=-3.382458194443666 energy_units=eV energy_type=CCSD(T)_CBS_TQ_plus_delta_MP2_Q5_TQ_cohesive cohesive_energy_ev=-3.382458194443666 binding_energy_ev=-3.382458194443666 cohesive_energy_hartree=-0.12430304694566985 dissociation_energy_ev=3.382458194443666 ccsdt_cbs_tq_cohesive_energy_ev=-3.3810510975831782 mp2_cbs_tq_cohesive_energy_ev=-3.4159639806063393 mp2_cbs_q5_cohesive_energy_ev=-3.417371077466827 mp2_q5_cohesive_correction_mev=-1.4070968604876075 fragment_expression="SiH3_from_Si2H6 + SiH3_from_Si2H6" pbc="F F F"
Si       0.00000000      -0.00000657       1.09500000
Si       0.00000000       0.00000657      -1.09500000
H       -0.00000200       1.38690943       1.60662100
H       -1.20110300      -0.69345857       1.60663300
H        1.20110400      -0.69345557       1.60663300
H       -0.00000200      -1.38690943      -1.60662100
H       -1.20110300       0.69345857      -1.60663200
H        1.20110500       0.69345557      -1.60663300
8
Properties=species:S:1:pos:R:3 calculation_type=covalent_refinement calculation_label=Si2H6/refinement_41/point_008_distance_2.20 point=8 distance_angstrom=2.2 source_output=Structures/Raw_Covalents/Si2H6_refinement_41_point_008_distance_2.200000_aims.out system=Si2H6 geometry_index=8 energy=-3.4013618589582935 energy_units=eV energy_type=CCSD(T)_CBS_TQ_plus_delta_MP2_Q5_TQ_cohesive cohesive_energy_ev=-3.4013618589582935 binding_energy_ev=-3.4013618589582935 cohesive_energy_hartree=-0.1249977438088763 dissociation_energy_ev=3.4013618589582935 ccsdt_cbs_tq_cohesive_energy_ev=-3.3997850453735947 mp2_cbs_tq_cohesive_energy_ev=-3.4344064517247856 mp2_cbs_q5_cohesive_energy_ev=-3.4359832653094844 mp2_q5_cohesive_correction_mev=-1.5768135846987108 fragment_expression="SiH3_from_Si2H6 + SiH3_from_Si2H6" pbc="F F F"
Si       0.00000000      -0.00000660       1.10000000
Si       0.00000000       0.00000660      -1.10000000
H       -0.00000200       1.38690940       1.61162100
H       -1.20110300      -0.69345860       1.61163300
H        1.20110400      -0.69345560       1.61163300
H       -0.00000200      -1.38690940      -1.61162100
H       -1.20110300       0.69345860      -1.61163200
H        1.20110500       0.69345560      -1.61163300
8
Properties=species:S:1:pos:R:3 calculation_type=covalent_refinement calculation_label=Si2H6/refinement_41/point_009_distance_2.21 point=9 distance_angstrom=2.21 source_output=Structures/Raw_Covalents/Si2H6_refinement_41_point_009_distance_2.210000_aims.out system=Si2H6 geometry_index=9 energy=-3.4185053482584054 energy_units=eV energy_type=CCSD(T)_CBS_TQ_plus_delta_MP2_Q5_TQ_cohesive cohesive_energy_ev=-3.4185053482584054 binding_energy_ev=-3.4185053482584054 cohesive_energy_hartree=-0.12562775542551208 dissociation_energy_ev=3.4185053482584054 ccsdt_cbs_tq_cohesive_energy_ev=-3.416759587359076 mp2_cbs_tq_cohesive_energy_ev=-3.4510811399890935 mp2_cbs_q5_cohesive_energy_ev=-3.452826900888423 mp2_q5_cohesive_correction_mev=-1.7457608993294693 fragment_expression="SiH3_from_Si2H6 + SiH3_from_Si2H6" pbc="F F F"
Si       0.00000000      -0.00000663       1.10500000
Si       0.00000000       0.00000663      -1.10500000
H       -0.00000200       1.38690937       1.61662100
H       -1.20110300      -0.69345863       1.61663300
H        1.20110400      -0.69345563       1.61663300
H       -0.00000200      -1.38690937      -1.61662100
H       -1.20110300       0.69345863      -1.61663200
H        1.20110500       0.69345563      -1.61663300
8
Properties=species:S:1:pos:R:3 calculation_type=covalent_refinement calculation_label=Si2H6/refinement_41/point_010_distance_2.22 point=10 distance_angstrom=2.22 source_output=Structures/Raw_Covalents/Si2H6_refinement_41_point_010_distance_2.220000_aims.out system=Si2H6 geometry_index=10 energy=-3.4339486823392105 energy_units=eV energy_type=CCSD(T)_CBS_TQ_plus_delta_MP2_Q5_TQ_cohesive cohesive_energy_ev=-3.4339486823392105 binding_energy_ev=-3.4339486823392105 cohesive_energy_hartree=-0.12619528748973607 dissociation_energy_ev=3.4339486823392105 ccsdt_cbs_tq_cohesive_energy_ev=-3.4320349138424002 mp2_cbs_tq_cohesive_energy_ev=-3.4660479885840623 mp2_cbs_q5_cohesive_energy_ev=-3.467961757080873 mp2_q5_cohesive_correction_mev=-1.913768496810416 fragment_expression="SiH3_from_Si2H6 + SiH3_from_Si2H6" pbc="F F F"
Si       0.00000000      -0.00000666       1.11000000
Si       0.00000000       0.00000666      -1.11000000
H       -0.00000200       1.38690934       1.62162100
H       -1.20110300      -0.69345866       1.62163300
H        1.20110400      -0.69345566       1.62163300
H       -0.00000200      -1.38690934      -1.62162100
H       -1.20110300       0.69345866      -1.62163200
H        1.20110500       0.69345566      -1.62163300
8
Properties=species:S:1:pos:R:3 calculation_type=covalent_refinement calculation_label=Si2H6/refinement_41/point_011_distance_2.23 point=11 distance_angstrom=2.23 source_output=Structures/Raw_Covalents/Si2H6_refinement_41_point_011_distance_2.230000_aims.out system=Si2H6 geometry_index=11 energy=-3.447749992579883 energy_units=eV energy_type=CCSD(T)_CBS_TQ_plus_delta_MP2_Q5_TQ_cohesive cohesive_energy_ev=-3.447749992579883 binding_energy_ev=-3.447749992579883 cohesive_energy_hartree=-0.12670247629034748 dissociation_energy_ev=3.447749992579883 ccsdt_cbs_tq_cohesive_energy_ev=-3.4456693229929147 mp2_cbs_tq_cohesive_energy_ev=-3.4793650547110913 mp2_cbs_q5_cohesive_energy_ev=-3.4814457242980597 mp2_q5_cohesive_correction_mev=-2.0806695869684826 fragment_expression="SiH3_from_Si2H6 + SiH3_from_Si2H6" pbc="F F F"
Si       0.00000000      -0.00000669       1.11500000
Si       0.00000000       0.00000669      -1.11500000
H       -0.00000200       1.38690931       1.62662100
H       -1.20110300      -0.69345869       1.62663300
H        1.20110400      -0.69345569       1.62663300
H       -0.00000200      -1.38690931      -1.62662100
H       -1.20110300       0.69345869      -1.62663200
H        1.20110500       0.69345569      -1.62663300
8
Properties=species:S:1:pos:R:3 calculation_type=covalent_refinement calculation_label=Si2H6/refinement_41/point_012_distance_2.24 point=12 distance_angstrom=2.24 source_output=Structures/Raw_Covalents/Si2H6_refinement_41_point_012_distance_2.240000_aims.out system=Si2H6 geometry_index=12 energy=-3.459965582105427 energy_units=eV energy_type=CCSD(T)_CBS_TQ_plus_delta_MP2_Q5_TQ_cohesive cohesive_energy_ev=-3.459965582105427 binding_energy_ev=-3.459965582105427 cohesive_energy_hartree=-0.12715139092904337 dissociation_energy_ev=3.459965582105427 ccsdt_cbs_tq_cohesive_energy_ev=-3.457719281613658 mp2_cbs_tq_cohesive_energy_ev=-3.491088569999538 mp2_cbs_q5_cohesive_energy_ev=-3.4933348704913065 mp2_q5_cohesive_correction_mev=-2.2463004917684857 fragment_expression="SiH3_from_Si2H6 + SiH3_from_Si2H6" pbc="F F F"
Si       0.00000000      -0.00000672       1.12000000
Si       0.00000000       0.00000672      -1.12000000
H       -0.00000200       1.38690928       1.63162100
H       -1.20110300      -0.69345872       1.63163300
H        1.20110400      -0.69345572       1.63163300
H       -0.00000200      -1.38690928      -1.63162100
H       -1.20110300       0.69345872      -1.63163200
H        1.20110500       0.69345572      -1.63163300
8
Properties=species:S:1:pos:R:3 calculation_type=covalent_refinement calculation_label=Si2H6/refinement_41/point_013_distance_2.25 point=13 distance_angstrom=2.25 source_output=Structures/Raw_Covalents/Si2H6_refinement_41_point_013_distance_2.250000_aims.out system=Si2H6 geometry_index=13 energy=-3.470649986241343 energy_units=eV energy_type=CCSD(T)_CBS_TQ_plus_delta_MP2_Q5_TQ_cohesive cohesive_energy_ev=-3.470649986241343 binding_energy_ev=-3.470649986241343 cohesive_energy_hartree=-0.12754403554208693 dissociation_energy_ev=3.470649986241343 ccsdt_cbs_tq_cohesive_energy_ev=-3.4682394833872165 mp2_cbs_tq_cohesive_energy_ev=-3.501272998189547 mp2_cbs_q5_cohesive_energy_ev=-3.5036835010436738 mp2_q5_cohesive_correction_mev=-2.410502854126697 fragment_expression="SiH3_from_Si2H6 + SiH3_from_Si2H6" pbc="F F F"
Si       0.00000000      -0.00000675       1.12500000
Si       0.00000000       0.00000675      -1.12500000
H       -0.00000200       1.38690925       1.63662100
H       -1.20110300      -0.69345875       1.63663300
H        1.20110400      -0.69345575       1.63663300
H       -0.00000200      -1.38690925      -1.63662100
H       -1.20110300       0.69345875      -1.63663200
H        1.20110500       0.69345575      -1.63663300
8
Properties=species:S:1:pos:R:3 calculation_type=covalent_refinement calculation_label=Si2H6/refinement_41/point_014_distance_2.26 point=14 distance_angstrom=2.26 source_output=Structures/Raw_Covalents/Si2H6_refinement_41_point_014_distance_2.260000_aims.out system=Si2H6 geometry_index=14 energy=-3.4798560283650635 energy_units=eV energy_type=CCSD(T)_CBS_TQ_plus_delta_MP2_Q5_TQ_cohesive cohesive_energy_ev=-3.4798560283650635 binding_energy_ev=-3.4798560283650635 cohesive_energy_hartree=-0.12788235135280956 dissociation_energy_ev=3.4798560283650635 ccsdt_cbs_tq_cohesive_energy_ev=-3.4772829064533686 mp2_cbs_tq_cohesive_energy_ev=-3.5099710926045105 mp2_cbs_q5_cohesive_energy_ev=-3.512544214516206 mp2_q5_cohesive_correction_mev=-2.5731219116951958 fragment_expression="SiH3_from_Si2H6 + SiH3_from_Si2H6" pbc="F F F"
Si       0.00000000      -0.00000678       1.13000000
Si       0.00000000       0.00000678      -1.13000000
H       -0.00000200       1.38690922       1.64162100
H       -1.20110300      -0.69345878       1.64163300
H        1.20110400      -0.69345578       1.64163300
H       -0.00000200      -1.38690922      -1.64162100
H       -1.20110300       0.69345878      -1.64163200
H        1.20110500       0.69345578      -1.64163300
8
Properties=species:S:1:pos:R:3 calculation_type=covalent_refinement calculation_label=Si2H6/refinement_41/point_015_distance_2.27 point=15 distance_angstrom=2.27 source_output=Structures/Raw_Covalents/Si2H6_refinement_41_point_015_distance_2.270000_aims.out system=Si2H6 geometry_index=15 energy=-3.4876348747798054 energy_units=eV energy_type=CCSD(T)_CBS_TQ_plus_delta_MP2_Q5_TQ_cohesive cohesive_energy_ev=-3.4876348747798054 binding_energy_ev=-3.4876348747798054 cohesive_energy_hartree=-0.12816821868818806 dissociation_energy_ev=3.4876348747798054 ccsdt_cbs_tq_cohesive_energy_ev=-3.484900868700576 mp2_cbs_tq_cohesive_energy_ev=-3.517233951003273 mp2_cbs_q5_cohesive_energy_ev=-3.519967957082502 mp2_q5_cohesive_correction_mev=-2.734006079229053 fragment_expression="SiH3_from_Si2H6 + SiH3_from_Si2H6" pbc="F F F"
Si       0.00000000      -0.00000681       1.13500000
Si       0.00000000       0.00000681      -1.13500000
H       -0.00000200       1.38690919       1.64662100
H       -1.20110300      -0.69345881       1.64663300
H        1.20110400      -0.69345581       1.64663300
H       -0.00000200      -1.38690919      -1.64662100
H       -1.20110300       0.69345881      -1.64663200
H        1.20110500       0.69345581      -1.64663300
8
Properties=species:S:1:pos:R:3 calculation_type=covalent_refinement calculation_label=Si2H6/refinement_41/point_016_distance_2.28 point=16 distance_angstrom=2.28 source_output=Structures/Raw_Covalents/Si2H6_refinement_41_point_016_distance_2.280000_aims.out system=Si2H6 geometry_index=16 energy=-3.4940360894213778 energy_units=eV energy_type=CCSD(T)_CBS_TQ_plus_delta_MP2_Q5_TQ_cohesive cohesive_energy_ev=-3.4940360894213778 binding_energy_ev=-3.4940360894213778 cohesive_energy_hartree=-0.12840345898928263 dissociation_energy_ev=3.4940360894213778 ccsdt_cbs_tq_cohesive_energy_ev=-3.491143080409376 mp2_cbs_tq_cohesive_energy_ev=-3.5231110678956026 mp2_cbs_q5_cohesive_energy_ev=-3.526004076907604 mp2_q5_cohesive_correction_mev=-2.8930090120018073 fragment_expression="SiH3_from_Si2H6 + SiH3_from_Si2H6" pbc="F F F"
Si       0.00000000      -0.00000685       1.14000000
Si       0.00000000       0.00000685      -1.14000000
H       -0.00000200       1.38690915       1.65162100
H       -1.20110300      -0.69345885       1.65163300
H        1.20110400      -0.69345585       1.65163300
H       -0.00000200      -1.38690915      -1.65162100
H       -1.20110300       0.69345885      -1.65163200
H        1.20110500       0.69345585      -1.65163300
8
Properties=species:S:1:pos:R:3 calculation_type=covalent_refinement calculation_label=Si2H6/refinement_41/point_017_distance_2.29 point=17 distance_angstrom=2.29 source_output=Structures/Raw_Covalents/Si2H6_refinement_41_point_017_distance_2.290000_aims.out system=Si2H6 geometry_index=17 energy=-3.4991076837916006 energy_units=eV energy_type=CCSD(T)_CBS_TQ_plus_delta_MP2_Q5_TQ_cohesive cohesive_energy_ev=-3.4991076837916006 binding_energy_ev=-3.4991076837916006 cohesive_energy_hartree=-0.12858983664625612 dissociation_energy_ev=3.4991076837916006 ccsdt_cbs_tq_cohesive_energy_ev=-3.4960576968895807 mp2_cbs_tq_cohesive_energy_ev=-3.527650387111333 mp2_cbs_q5_cohesive_energy_ev=-3.530700374013353 mp2_q5_cohesive_correction_mev=-3.0499869020196657 fragment_expression="SiH3_from_Si2H6 + SiH3_from_Si2H6" pbc="F F F"
Si       0.00000000      -0.00000688       1.14500000
Si       0.00000000       0.00000688      -1.14500000
H       -0.00000200       1.38690912       1.65662100
H       -1.20110300      -0.69345888       1.65663300
H        1.20110400      -0.69345588       1.65663300
H       -0.00000200      -1.38690912      -1.65662100
H       -1.20110300       0.69345888      -1.65663200
H        1.20110500       0.69345588      -1.65663300
8
Properties=species:S:1:pos:R:3 calculation_type=covalent_refinement calculation_label=Si2H6/refinement_41/point_018_distance_2.30 point=18 distance_angstrom=2.3 source_output=Structures/Raw_Covalents/Si2H6_refinement_41_point_018_distance_2.300000_aims.out system=Si2H6 geometry_index=18 energy=-3.5028961681662727 energy_units=eV energy_type=CCSD(T)_CBS_TQ_plus_delta_MP2_Q5_TQ_cohesive cohesive_energy_ev=-3.5028961681662727 binding_energy_ev=-3.5028961681662727 cohesive_energy_hartree=-0.12872906088023228 dissociation_energy_ev=3.5028961681662727 ccsdt_cbs_tq_cohesive_energy_ev=-3.4996913676124617 mp2_cbs_tq_cohesive_energy_ev=-3.530898350316927 mp2_cbs_q5_cohesive_energy_ev=-3.534103150870738 mp2_q5_cohesive_correction_mev=-3.2048005538112907 fragment_expression="SiH3_from_Si2H6 + SiH3_from_Si2H6" pbc="F F F"
Si       0.00000000      -0.00000691       1.15000000
Si       0.00000000       0.00000691      -1.15000000
H       -0.00000200       1.38690909       1.66162100
H       -1.20110300      -0.69345891       1.66163300
H        1.20110400      -0.69345591       1.66163300
H       -0.00000200      -1.38690909      -1.66162100
H       -1.20110300       0.69345891      -1.66163200
H        1.20110500       0.69345591      -1.66163300
8
Properties=species:S:1:pos:R:3 calculation_type=covalent_refinement calculation_label=Si2H6/refinement_41/point_019_distance_2.31 point=19 distance_angstrom=2.31 source_output=Structures/Raw_Covalents/Si2H6_refinement_41_point_019_distance_2.310000_aims.out system=Si2H6 geometry_index=19 energy=-3.5054465992733737 energy_units=eV energy_type=CCSD(T)_CBS_TQ_plus_delta_MP2_Q5_TQ_cohesive cohesive_energy_ev=-3.5054465992733737 binding_energy_ev=-3.5054465992733737 cohesive_energy_hartree=-0.1288227874954373 dissociation_energy_ev=3.5054465992733737 ccsdt_cbs_tq_cohesive_energy_ev=-3.502089285670846 mp2_cbs_tq_cohesive_energy_ev=-3.532899946308518 mp2_cbs_q5_cohesive_energy_ev=-3.5362572599110456 mp2_q5_cohesive_correction_mev=-3.3573136025277726 fragment_expression="SiH3_from_Si2H6 + SiH3_from_Si2H6" pbc="F F F"
Si       0.00000000      -0.00000694       1.15500000
Si       0.00000000       0.00000694      -1.15500000
H       -0.00000200       1.38690906       1.66662100
H       -1.20110300      -0.69345894       1.66663300
H        1.20110400      -0.69345594       1.66663300
H       -0.00000200      -1.38690906      -1.66662100
H       -1.20110300       0.69345894      -1.66663200
H        1.20110500       0.69345594      -1.66663300
8
Properties=species:S:1:pos:R:3 calculation_type=covalent_refinement calculation_label=Si2H6/refinement_41/point_020_distance_2.32 point=20 distance_angstrom=2.32 source_output=Structures/Raw_Covalents/Si2H6_refinement_41_point_020_distance_2.320000_aims.out system=Si2H6 geometry_index=20 energy=-3.506802626647212 energy_units=eV energy_type=CCSD(T)_CBS_TQ_plus_delta_MP2_Q5_TQ_cohesive cohesive_energy_ev=-3.506802626647212 binding_energy_ev=-3.506802626647212 cohesive_energy_hartree=-0.12887262058268334 dissociation_energy_ev=3.506802626647212 ccsdt_cbs_tq_cohesive_energy_ev=-3.5032952335826124 mp2_cbs_tq_cohesive_energy_ev=-3.533698757028863 mp2_cbs_q5_cohesive_energy_ev=-3.5372061500934624 mp2_q5_cohesive_correction_mev=-3.50739306459924 fragment_expression="SiH3_from_Si2H6 + SiH3_from_Si2H6" pbc="F F F"
Si       0.00000000      -0.00000697       1.16000000
Si       0.00000000       0.00000697      -1.16000000
H       -0.00000200       1.38690903       1.67162100
H       -1.20110300      -0.69345897       1.67163300
H        1.20110400      -0.69345597       1.67163300
H       -0.00000200      -1.38690903      -1.67162100
H       -1.20110300       0.69345897      -1.67163200
H        1.20110500       0.69345597      -1.67163300
8
Properties=species:S:1:pos:R:3 calculation_type=covalent_refinement calculation_label=Si2H6/refinement_41/point_021_distance_2.33 point=21 distance_angstrom=2.33 source_output=Structures/Raw_Covalents/Si2H6_refinement_41_point_021_distance_2.330000_aims.out system=Si2H6 geometry_index=21 energy=-3.5070065376183064 energy_units=eV energy_type=CCSD(T)_CBS_TQ_plus_delta_MP2_Q5_TQ_cohesive cohesive_energy_ev=-3.5070065376183064 binding_energy_ev=-3.5070065376183064 cohesive_energy_hartree=-0.12888011417271628 dissociation_energy_ev=3.5070065376183064 ccsdt_cbs_tq_cohesive_energy_ev=-3.503351629075621 mp2_cbs_tq_cohesive_energy_ev=-3.5333370026562188 mp2_cbs_q5_cohesive_energy_ev=-3.5369919111989043 mp2_q5_cohesive_correction_mev=-3.6549085426857126 fragment_expression="SiH3_from_Si2H6 + SiH3_from_Si2H6" pbc="F F F"
Si       0.00000000      -0.00000700       1.16500000
Si       0.00000000       0.00000700      -1.16500000
H       -0.00000200       1.38690900       1.67662100
H       -1.20110300      -0.69345900       1.67663300
H        1.20110400      -0.69345600       1.67663300
H       -0.00000200      -1.38690900      -1.67662100
H       -1.20110300       0.69345900      -1.67663200
H        1.20110500       0.69345600      -1.67663300
8
Properties=species:S:1:pos:R:3 calculation_type=covalent_refinement calculation_label=Si2H6/refinement_41/point_022_distance_2.34 point=22 distance_angstrom=2.34 source_output=Structures/Raw_Covalents/Si2H6_refinement_41_point_022_distance_2.340000_aims.out system=Si2H6 geometry_index=22 energy=-3.5060993016443383 energy_units=eV energy_type=CCSD(T)_CBS_TQ_plus_delta_MP2_Q5_TQ_cohesive cohesive_energy_ev=-3.5060993016443383 binding_energy_ev=-3.5060993016443383 cohesive_energy_hartree=-0.12884677386534804 dissociation_energy_ev=3.5060993016443383 ccsdt_cbs_tq_cohesive_energy_ev=-3.5022995686669223 mp2_cbs_tq_cohesive_energy_ev=-3.5318555850505264 mp2_cbs_q5_cohesive_energy_ev=-3.535655318027943 mp2_q5_cohesive_correction_mev=-3.7997329774161743 fragment_expression="SiH3_from_Si2H6 + SiH3_from_Si2H6" pbc="F F F"
Si      -0.00000000      -0.00000703       1.17000000
Si       0.00000000       0.00000703      -1.17000000
H       -0.00000200       1.38690897       1.68162100
H       -1.20110300      -0.69345903       1.68163300
H        1.20110400      -0.69345603       1.68163300
H       -0.00000200      -1.38690897      -1.68162100
H       -1.20110300       0.69345903      -1.68163200
H        1.20110500       0.69345603      -1.68163300
8
Properties=species:S:1:pos:R:3 calculation_type=covalent_refinement calculation_label=Si2H6/refinement_41/point_023_distance_2.35 point=23 distance_angstrom=2.35 source_output=Structures/Raw_Covalents/Si2H6_refinement_41_point_023_distance_2.350000_aims.out system=Si2H6 geometry_index=23 energy=-3.5041206115846464 energy_units=eV energy_type=CCSD(T)_CBS_TQ_plus_delta_MP2_Q5_TQ_cohesive cohesive_energy_ev=-3.5041206115846464 binding_energy_ev=-3.5041206115846464 cohesive_energy_hartree=-0.12877405834626643 dissociation_energy_ev=3.5041206115846464 ccsdt_cbs_tq_cohesive_energy_ev=-3.5001788706510992 mp2_cbs_tq_cohesive_energy_ev=-3.5292941306829757 mp2_cbs_q5_cohesive_energy_ev=-3.5332358716165233 mp2_q5_cohesive_correction_mev=-3.9417409335472344 fragment_expression="SiH3_from_Si2H6 + SiH3_from_Si2H6" pbc="F F F"
Si      -0.00000000      -0.00000706       1.17500000
Si       0.00000000       0.00000706      -1.17500000
H       -0.00000200       1.38690894       1.68662100
H       -1.20110300      -0.69345906       1.68663300
H        1.20110400      -0.69345606       1.68663300
H       -0.00000200      -1.38690894      -1.68662100
H       -1.20110300       0.69345906      -1.68663200
H        1.20110500       0.69345606      -1.68663300
8
Properties=species:S:1:pos:R:3 calculation_type=covalent_refinement calculation_label=Si2H6/refinement_41/point_024_distance_2.36 point=24 distance_angstrom=2.36 source_output=Structures/Raw_Covalents/Si2H6_refinement_41_point_024_distance_2.360000_aims.out system=Si2H6 geometry_index=24 energy=-3.5011089253057364 energy_units=eV energy_type=CCSD(T)_CBS_TQ_plus_delta_MP2_Q5_TQ_cohesive cohesive_energy_ev=-3.5011089253057364 binding_energy_ev=-3.5011089253057364 cohesive_energy_hartree=-0.12866338091600937 dissociation_energy_ev=3.5011089253057364 ccsdt_cbs_tq_cohesive_energy_ev=-3.4970281149919322 mp2_cbs_tq_cohesive_energy_ev=-3.525691030128598 mp2_cbs_q5_cohesive_energy_ev=-3.5297718404424026 mp2_q5_cohesive_correction_mev=-4.080810313804467 fragment_expression="SiH3_from_Si2H6 + SiH3_from_Si2H6" pbc="F F F"
Si      -0.00000000      -0.00000709       1.18000000
Si       0.00000000       0.00000709      -1.18000000
H       -0.00000200       1.38690891       1.69162100
H       -1.20110300      -0.69345909       1.69163300
H        1.20110400      -0.69345609       1.69163300
H       -0.00000200      -1.38690891      -1.69162100
H       -1.20110300       0.69345909      -1.69163200
H        1.20110500       0.69345609      -1.69163300
8
Properties=species:S:1:pos:R:3 calculation_type=covalent_refinement calculation_label=Si2H6/refinement_41/point_025_distance_2.37 point=25 distance_angstrom=2.37 source_output=Structures/Raw_Covalents/Si2H6_refinement_41_point_025_distance_2.370000_aims.out system=Si2H6 geometry_index=25 energy=-3.4971015041746543 energy_units=eV energy_type=CCSD(T)_CBS_TQ_plus_delta_MP2_Q5_TQ_cohesive cohesive_energy_ev=-3.4971015041746543 binding_energy_ev=-3.4971015041746543 cohesive_energy_hartree=-0.12851611090457027 dissociation_energy_ev=3.4971015041746543 ccsdt_cbs_tq_cohesive_energy_ev=-3.492884683885374 mp2_cbs_tq_cohesive_energy_ev=-3.5210834786849263 mp2_cbs_q5_cohesive_energy_ev=-3.525300298974206 mp2_q5_cohesive_correction_mev=-4.216820289279782 fragment_expression="SiH3_from_Si2H6 + SiH3_from_Si2H6" pbc="F F F"
Si      -0.00000000      -0.00000712       1.18500000
Si       0.00000000       0.00000712      -1.18500000
H       -0.00000200       1.38690888       1.69662100
H       -1.20110300      -0.69345912       1.69663300
H        1.20110400      -0.69345612       1.69663300
H       -0.00000200      -1.38690888      -1.69662100
H       -1.20110300       0.69345912      -1.69663200
H        1.20110500       0.69345612      -1.69663300
8
Properties=species:S:1:pos:R:3 calculation_type=covalent_refinement calculation_label=Si2H6/refinement_41/point_026_distance_2.38 point=26 distance_angstrom=2.38 source_output=Structures/Raw_Covalents/Si2H6_refinement_41_point_026_distance_2.380000_aims.out system=Si2H6 geometry_index=26 energy=-3.492134451948332 energy_units=eV energy_type=CCSD(T)_CBS_TQ_plus_delta_MP2_Q5_TQ_cohesive cohesive_energy_ev=-3.492134451948332 binding_energy_ev=-3.492134451948332 cohesive_energy_hartree=-0.1283335751005552 dissociation_energy_ev=3.492134451948332 ccsdt_cbs_tq_cohesive_energy_ev=-3.4877847996187397 mp2_cbs_tq_cohesive_energy_ev=-3.5155075138321124 mp2_cbs_q5_cohesive_energy_ev=-3.519857166161705 mp2_q5_cohesive_correction_mev=-4.349652329592372 fragment_expression="SiH3_from_Si2H6 + SiH3_from_Si2H6" pbc="F F F"
Si      -0.00000000      -0.00000715       1.19000000
Si       0.00000000       0.00000715      -1.19000000
H       -0.00000200       1.38690885       1.70162100
H       -1.20110300      -0.69345915       1.70163300
H        1.20110400      -0.69345615       1.70163300
H       -0.00000200      -1.38690885      -1.70162100
H       -1.20110300       0.69345915      -1.70163200
H        1.20110500       0.69345615      -1.70163300
8
Properties=species:S:1:pos:R:3 calculation_type=covalent_refinement calculation_label=Si2H6/refinement_41/point_027_distance_2.39 point=27 distance_angstrom=2.39 source_output=Structures/Raw_Covalents/Si2H6_refinement_41_point_027_distance_2.390000_aims.out system=Si2H6 geometry_index=27 energy=-3.486242751293261 energy_units=eV energy_type=CCSD(T)_CBS_TQ_plus_delta_MP2_Q5_TQ_cohesive cohesive_energy_ev=-3.486242751293261 binding_energy_ev=-3.486242751293261 cohesive_energy_hartree=-0.1281170590932561 dissociation_energy_ev=3.486242751293261 ccsdt_cbs_tq_cohesive_energy_ev=-3.481763561272894 mp2_cbs_tq_cohesive_energy_ev=-3.5089980519598662 mp2_cbs_q5_cohesive_energy_ev=-3.5134772419802336 mp2_q5_cohesive_correction_mev=-4.479190020367709 fragment_expression="SiH3_from_Si2H6 + SiH3_from_Si2H6" pbc="F F F"
Si      -0.00000000      -0.00000718       1.19500000
Si       0.00000000       0.00000718      -1.19500000
H       -0.00000200       1.38690882       1.70662100
H       -1.20110300      -0.69345918       1.70663300
H        1.20110400      -0.69345618       1.70663300
H       -0.00000200      -1.38690882      -1.70662100
H       -1.20110300       0.69345918      -1.70663200
H        1.20110500       0.69345618      -1.70663300
8
Properties=species:S:1:pos:R:3 calculation_type=covalent_refinement calculation_label=Si2H6/refinement_41/point_028_distance_2.40 point=28 distance_angstrom=2.4 source_output=Structures/Raw_Covalents/Si2H6_refinement_41_point_028_distance_2.400000_aims.out system=Si2H6 geometry_index=28 energy=-3.4794602995101114 energy_units=eV energy_type=CCSD(T)_CBS_TQ_plus_delta_MP2_Q5_TQ_cohesive cohesive_energy_ev=-3.4794602995101114 binding_energy_ev=-3.4794602995101114 cohesive_energy_hartree=-0.12786780858550628 dissociation_energy_ev=3.4794602995101114 ccsdt_cbs_tq_cohesive_energy_ev=-3.4748549809170974 mp2_cbs_tq_cohesive_energy_ev=-3.5015889242807834 mp2_cbs_q5_cohesive_energy_ev=-3.5061942428737973 mp2_q5_cohesive_correction_mev=-4.605318593013923 fragment_expression="SiH3_from_Si2H6 + SiH3_from_Si2H6" pbc="F F F"
Si      -0.00000000      -0.00000721       1.20000000
Si       0.00000000       0.00000721      -1.20000000
H       -0.00000200       1.38690879       1.71162100
H       -1.20110300      -0.69345921       1.71163300
H        1.20110400      -0.69345621       1.71163300
H       -0.00000200      -1.38690879      -1.71162100
H       -1.20110300       0.69345921      -1.71163200
H        1.20110500       0.69345621      -1.71163300
8
Properties=species:S:1:pos:R:3 calculation_type=covalent_refinement calculation_label=Si2H6/refinement_41/point_029_distance_2.41 point=29 distance_angstrom=2.41 source_output=Structures/Raw_Covalents/Si2H6_refinement_41_point_029_distance_2.410000_aims.out system=Si2H6 geometry_index=29 energy=-3.4718199430456687 energy_units=eV energy_type=CCSD(T)_CBS_TQ_plus_delta_MP2_Q5_TQ_cohesive cohesive_energy_ev=-3.4718199430456687 binding_energy_ev=-3.4718199430456687 cohesive_energy_hartree=-0.12758703066197086 dissociation_energy_ev=3.4718199430456687 ccsdt_cbs_tq_cohesive_energy_ev=-3.467092018195193 mp2_cbs_tq_cohesive_energy_ev=-3.4933129113391925 mp2_cbs_q5_cohesive_energy_ev=-3.498040836189668 mp2_q5_cohesive_correction_mev=-4.727924850475968 fragment_expression="SiH3_from_Si2H6 + SiH3_from_Si2H6" pbc="F F F"
Si      -0.00000000      -0.00000724       1.20500000
Si       0.00000000       0.00000724      -1.20500000
H       -0.00000200       1.38690876       1.71662100
H       -1.20110300      -0.69345924       1.71663300
H        1.20110400      -0.69345624       1.71663300
H       -0.00000200      -1.38690876      -1.71662100
H       -1.20110300       0.69345924      -1.71663200
H        1.20110500       0.69345624      -1.71663300
8
Properties=species:S:1:pos:R:3 calculation_type=covalent_refinement calculation_label=Si2H6/refinement_41/point_030_distance_2.42 point=30 distance_angstrom=2.42 source_output=Structures/Raw_Covalents/Si2H6_refinement_41_point_030_distance_2.420000_aims.out system=Si2H6 geometry_index=30 energy=-3.463353511154042 energy_units=eV energy_type=CCSD(T)_CBS_TQ_plus_delta_MP2_Q5_TQ_cohesive cohesive_energy_ev=-3.463353511154042 binding_energy_ev=-3.463353511154042 cohesive_energy_hartree=-0.1272758950261732 dissociation_energy_ev=3.463353511154042 ccsdt_cbs_tq_cohesive_energy_ev=-3.458506613309313 mp2_cbs_tq_cohesive_energy_ev=-3.4842017756236348 mp2_cbs_q5_cohesive_energy_ev=-3.4890486734683637 mp2_q5_cohesive_correction_mev=-4.84689784472886 fragment_expression="SiH3_from_Si2H6 + SiH3_from_Si2H6" pbc="F F F"
Si      -0.00000000      -0.00000727       1.21000000
Si       0.00000000       0.00000727      -1.21000000
H       -0.00000200       1.38690873       1.72162100
H       -1.20110300      -0.69345927       1.72163300
H        1.20110400      -0.69345627       1.72163300
H       -0.00000200      -1.38690873      -1.72162100
H       -1.20110300       0.69345927      -1.72163200
H        1.20110500       0.69345627      -1.72163300
8
Properties=species:S:1:pos:R:3 calculation_type=covalent_refinement calculation_label=Si2H6/refinement_41/point_031_distance_2.43 point=31 distance_angstrom=2.43 source_output=Structures/Raw_Covalents/Si2H6_refinement_41_point_031_distance_2.430000_aims.out system=Si2H6 geometry_index=31 energy=-3.4540918482430967 energy_units=eV energy_type=CCSD(T)_CBS_TQ_plus_delta_MP2_Q5_TQ_cohesive cohesive_energy_ev=-3.4540918482430967 binding_energy_ev=-3.4540918482430967 cohesive_energy_hartree=-0.12693553518920453 dissociation_energy_ev=3.4540918482430967 ccsdt_cbs_tq_cohesive_energy_ev=-3.449129719564308 mp2_cbs_tq_cohesive_energy_ev=-3.4742862941329467 mp2_cbs_q5_cohesive_energy_ev=-3.479248422811735 mp2_q5_cohesive_correction_mev=-4.962128678788791 fragment_expression="SiH3_from_Si2H6 + SiH3_from_Si2H6" pbc="F F F"
Si      -0.00000000      -0.00000730       1.21500000
Si       0.00000000       0.00000730      -1.21500000
H       -0.00000200       1.38690870       1.72662100
H       -1.20110300      -0.69345930       1.72663300
H        1.20110400      -0.69345630       1.72663300
H       -0.00000200      -1.38690870      -1.72662100
H       -1.20110300       0.69345930      -1.72663200
H        1.20110500       0.69345630      -1.72663300
8
Properties=species:S:1:pos:R:3 calculation_type=covalent_refinement calculation_label=Si2H6/refinement_41/point_032_distance_2.44 point=32 distance_angstrom=2.44 source_output=Structures/Raw_Covalents/Si2H6_refinement_41_point_032_distance_2.440000_aims.out system=Si2H6 geometry_index=32 energy=-3.4440648450298643 energy_units=eV energy_type=CCSD(T)_CBS_TQ_plus_delta_MP2_Q5_TQ_cohesive cohesive_energy_ev=-3.4440648450298643 binding_energy_ev=-3.4440648450298643 cohesive_energy_hartree=-0.12656704961466403 dissociation_energy_ev=3.4440648450298643 ccsdt_cbs_tq_cohesive_energy_ev=-3.438991334575742 mp2_cbs_tq_cohesive_energy_ev=-3.4635962894326697 mp2_cbs_q5_cohesive_energy_ev=-3.468669799886792 mp2_q5_cohesive_correction_mev=-5.073510454122319 fragment_expression="SiH3_from_Si2H6 + SiH3_from_Si2H6" pbc="F F F"
Si      -0.00000000      -0.00000733       1.22000000
Si       0.00000000       0.00000733      -1.22000000
H       -0.00000200       1.38690867       1.73162100
H       -1.20110300      -0.69345933       1.73163300
H        1.20110400      -0.69345633       1.73163300
H       -0.00000200      -1.38690867      -1.73162100
H       -1.20110300       0.69345933      -1.73163200
H        1.20110500       0.69345633      -1.73163300
8
Properties=species:S:1:pos:R:3 calculation_type=covalent_refinement calculation_label=Si2H6/refinement_41/point_033_distance_2.45 point=33 distance_angstrom=2.45 source_output=Structures/Raw_Covalents/Si2H6_refinement_41_point_033_distance_2.450000_aims.out system=Si2H6 geometry_index=33 energy=-3.433301469241194 energy_units=eV energy_type=CCSD(T)_CBS_TQ_plus_delta_MP2_Q5_TQ_cohesive cohesive_energy_ev=-3.433301469241194 binding_energy_ev=-3.433301469241194 cohesive_energy_hartree=-0.12617150284688705 dissociation_energy_ev=3.433301469241194 ccsdt_cbs_tq_cohesive_energy_ev=-3.4281205302064346 mp2_cbs_tq_cohesive_energy_ev=-3.452160659248207 mp2_cbs_q5_cohesive_energy_ev=-3.4573415982829667 mp2_q5_cohesive_correction_mev=-5.180939034759754 fragment_expression="SiH3_from_Si2H6 + SiH3_from_Si2H6" pbc="F F F"
Si      -0.00000000      -0.00000736       1.22500000
Si       0.00000000       0.00000736      -1.22500000
H       -0.00000200       1.38690864       1.73662100
H       -1.20110300      -0.69345936       1.73663300
H        1.20110400      -0.69345636       1.73663300
H       -0.00000200      -1.38690864      -1.73662100
H       -1.20110300       0.69345936      -1.73663200
H        1.20110500       0.69345636      -1.73663300
8
Properties=species:S:1:pos:R:3 calculation_type=covalent_refinement calculation_label=Si2H6/refinement_41/point_034_distance_2.46 point=34 distance_angstrom=2.46 source_output=Structures/Raw_Covalents/Si2H6_refinement_41_point_034_distance_2.460000_aims.out system=Si2H6 geometry_index=34 energy=-3.4218297946655296 energy_units=eV energy_type=CCSD(T)_CBS_TQ_plus_delta_MP2_Q5_TQ_cohesive cohesive_energy_ev=-3.4218297946655296 binding_energy_ev=-3.4218297946655296 cohesive_energy_hartree=-0.1257499265785782 dissociation_energy_ev=3.4218297946655296 ccsdt_cbs_tq_cohesive_energy_ev=-3.4165454822616983 mp2_cbs_tq_cohesive_energy_ev=-3.440007405968257 mp2_cbs_q5_cohesive_energy_ev=-3.445291718372088 mp2_q5_cohesive_correction_mev=-5.28431240383126 fragment_expression="SiH3_from_Si2H6 + SiH3_from_Si2H6" pbc="F F F"
Si      -0.00000000      -0.00000739       1.23000000
Si       0.00000000       0.00000739      -1.23000000
H       -0.00000200       1.38690861       1.74162100
H       -1.20110300      -0.69345939       1.74163300
H        1.20110400      -0.69345639       1.74163300
H       -0.00000200      -1.38690861      -1.74162100
H       -1.20110300       0.69345939      -1.74163200
H        1.20110500       0.69345639      -1.74163300
8
Properties=species:S:1:pos:R:3 calculation_type=covalent_refinement calculation_label=Si2H6/refinement_41/point_035_distance_2.47 point=35 distance_angstrom=2.47 source_output=Structures/Raw_Covalents/Si2H6_refinement_41_point_035_distance_2.470000_aims.out system=Si2H6 geometry_index=35 energy=-3.40967703035627 energy_units=eV energy_type=CCSD(T)_CBS_TQ_plus_delta_MP2_Q5_TQ_cohesive cohesive_energy_ev=-3.40967703035627 binding_energy_ev=-3.40967703035627 cohesive_energy_hartree=-0.12530332072401507 dissociation_energy_ev=3.40967703035627 ccsdt_cbs_tq_cohesive_energy_ev=-3.4042934982046926 mp2_cbs_tq_cohesive_energy_ev=-3.4271636643539813 mp2_cbs_q5_cohesive_energy_ev=-3.4325471965055585 mp2_q5_cohesive_correction_mev=-5.383532151577111 fragment_expression="SiH3_from_Si2H6 + SiH3_from_Si2H6" pbc="F F F"
Si      -0.00000000      -0.00000742       1.23500000
Si       0.00000000       0.00000742      -1.23500000
H       -0.00000200       1.38690858       1.74662100
H       -1.20110300      -0.69345942       1.74663300
H        1.20110400      -0.69345642       1.74663300
H       -0.00000200      -1.38690858      -1.74662100
H       -1.20110300       0.69345942      -1.74663200
H        1.20110500       0.69345642      -1.74663300
8
Properties=species:S:1:pos:R:3 calculation_type=covalent_refinement calculation_label=Si2H6/refinement_41/point_036_distance_2.48 point=36 distance_angstrom=2.48 source_output=Structures/Raw_Covalents/Si2H6_refinement_41_point_036_distance_2.480000_aims.out system=Si2H6 geometry_index=36 energy=-3.3968695477005633 energy_units=eV energy_type=CCSD(T)_CBS_TQ_plus_delta_MP2_Q5_TQ_cohesive cohesive_energy_ev=-3.3968695477005633 binding_energy_ev=-3.3968695477005633 cohesive_energy_hartree=-0.12483265441380809 dissociation_energy_ev=3.3968695477005633 ccsdt_cbs_tq_cohesive_energy_ev=-3.391391044361333 mp2_cbs_tq_cohesive_energy_ev=-3.413655728335562 mp2_cbs_q5_cohesive_energy_ev=-3.4191342316747924 mp2_q5_cohesive_correction_mev=-5.478503339230335 fragment_expression="SiH3_from_Si2H6 + SiH3_from_Si2H6" pbc="F F F"
Si      -0.00000000      -0.00000745       1.24000000
Si       0.00000000       0.00000745      -1.24000000
H       -0.00000200       1.38690855       1.75162100
H       -1.20110300      -0.69345945       1.75163300
H        1.20110400      -0.69345645       1.75163300
H       -0.00000200      -1.38690855      -1.75162100
H       -1.20110300       0.69345945      -1.75163200
H        1.20110500       0.69345645      -1.75163300
8
Properties=species:S:1:pos:R:3 calculation_type=covalent_refinement calculation_label=Si2H6/refinement_41/point_037_distance_2.49 point=37 distance_angstrom=2.49 source_output=Structures/Raw_Covalents/Si2H6_refinement_41_point_037_distance_2.490000_aims.out system=Si2H6 geometry_index=37 energy=-3.383432906971474 energy_units=eV energy_type=CCSD(T)_CBS_TQ_plus_delta_MP2_Q5_TQ_cohesive cohesive_energy_ev=-3.383432906971474 binding_energy_ev=-3.383432906971474 cohesive_energy_hartree=-0.12433886697067464 dissociation_energy_ev=3.383432906971474 ccsdt_cbs_tq_cohesive_energy_ev=-3.3778637724941123 mp2_cbs_tq_cohesive_energy_ev=-3.39950907772214 mp2_cbs_q5_cohesive_energy_ev=-3.4050782121995016 mp2_q5_cohesive_correction_mev=-5.56913447736168 fragment_expression="SiH3_from_Si2H6 + SiH3_from_Si2H6" pbc="F F F"
Si      -0.00000000      -0.00000748       1.24500000
Si       0.00000000       0.00000748      -1.24500000
H       -0.00000200       1.38690852       1.75662100
H       -1.20110300      -0.69345948       1.75663300
H        1.20110400      -0.69345648       1.75663300
H       -0.00000200      -1.38690852      -1.75662100
H       -1.20110300       0.69345948      -1.75663200
H        1.20110500       0.69345648      -1.75663300
8
Properties=species:S:1:pos:R:3 calculation_type=covalent_refinement calculation_label=Si2H6/refinement_41/point_038_distance_2.50 point=38 distance_angstrom=2.5 source_output=Structures/Raw_Covalents/Si2H6_refinement_41_point_038_distance_2.500000_aims.out system=Si2H6 geometry_index=38 energy=-3.3693918842018804 energy_units=eV energy_type=CCSD(T)_CBS_TQ_plus_delta_MP2_Q5_TQ_cohesive cohesive_energy_ev=-3.3693918842018804 binding_energy_ev=-3.3693918842018804 cohesive_energy_hartree=-0.12382286889703664 dissociation_energy_ev=3.3693918842018804 ccsdt_cbs_tq_cohesive_energy_ev=-3.3637365453179204 mp2_cbs_tq_cohesive_energy_ev=-3.3847484031484165 mp2_cbs_q5_cohesive_energy_ev=-3.390403742032376 mp2_q5_cohesive_correction_mev=-5.655338883959653 fragment_expression="SiH3_from_Si2H6 + SiH3_from_Si2H6" pbc="F F F"
Si      -0.00000000      -0.00000751       1.25000000
Si       0.00000000       0.00000751      -1.25000000
H       -0.00000200       1.38690849       1.76162100
H       -1.20110300      -0.69345951       1.76163300
H        1.20110400      -0.69345651       1.76163300
H       -0.00000200      -1.38690849      -1.76162100
H       -1.20110300       0.69345951      -1.76163200
H        1.20110500       0.69345651      -1.76163300
8
Properties=species:S:1:pos:R:3 calculation_type=covalent_refinement calculation_label=Si2H6/refinement_41/point_039_distance_2.51 point=39 distance_angstrom=2.51 source_output=Structures/Raw_Covalents/Si2H6_refinement_41_point_039_distance_2.510000_aims.out system=Si2H6 geometry_index=39 energy=-3.354770495385524 energy_units=eV energy_type=CCSD(T)_CBS_TQ_plus_delta_MP2_Q5_TQ_cohesive cohesive_energy_ev=-3.354770495385524 binding_energy_ev=-3.354770495385524 cohesive_energy_hartree=-0.12328554276439263 dissociation_energy_ev=3.354770495385524 ccsdt_cbs_tq_cohesive_energy_ev=-3.3490334610506673 mp2_cbs_tq_cohesive_energy_ev=-3.3693976307026148 mp2_cbs_q5_cohesive_energy_ev=-3.375134665037471 mp2_q5_cohesive_correction_mev=-5.737034334856398 fragment_expression="SiH3_from_Si2H6 + SiH3_from_Si2H6" pbc="F F F"
Si      -0.00000000      -0.00000754       1.25500000
Si       0.00000000       0.00000754      -1.25500000
H       -0.00000200       1.38690846       1.76662100
H       -1.20110300      -0.69345954       1.76663300
H        1.20110400      -0.69345654       1.76663300
H       -0.00000200      -1.38690846      -1.76662100
H       -1.20110300       0.69345954      -1.76663200
H        1.20110500       0.69345654      -1.76663300
8
Properties=species:S:1:pos:R:3 calculation_type=covalent_refinement calculation_label=Si2H6/refinement_41/point_040_distance_2.52 point=40 distance_angstrom=2.52 source_output=Structures/Raw_Covalents/Si2H6_refinement_41_point_040_distance_2.520000_aims.out system=Si2H6 geometry_index=40 energy=-3.339592021556632 energy_units=eV energy_type=CCSD(T)_CBS_TQ_plus_delta_MP2_Q5_TQ_cohesive cohesive_energy_ev=-3.339592021556632 binding_energy_ev=-3.339592021556632 cohesive_energy_hartree=-0.122727744134977 dissociation_energy_ev=3.339592021556632 ccsdt_cbs_tq_cohesive_energy_ev=-3.333777877218351 mp2_cbs_tq_cohesive_energy_ev=-3.353479945403631 mp2_cbs_q5_cohesive_energy_ev=-3.3592940897419123 mp2_q5_cohesive_correction_mev=-5.814144338281181 fragment_expression="SiH3_from_Si2H6 + SiH3_from_Si2H6" pbc="F F F"
Si      -0.00000000      -0.00000757       1.26000000
Si       0.00000000       0.00000757      -1.26000000
H       -0.00000200       1.38690843       1.77162100
H       -1.20110300      -0.69345957       1.77163300
H        1.20110400      -0.69345657       1.77163300
H       -0.00000200      -1.38690843      -1.77162100
H       -1.20110300       0.69345957      -1.77163200
H        1.20110500       0.69345657      -1.77163300
8
Properties=species:S:1:pos:R:3 calculation_type=covalent_refinement calculation_label=Si2H6/refinement_41/point_041_distance_2.53 point=41 distance_angstrom=2.53 source_output=Structures/Raw_Covalents/Si2H6_refinement_41_point_041_distance_2.530000_aims.out system=Si2H6 geometry_index=41 energy=-3.3238790320536147 energy_units=eV energy_type=CCSD(T)_CBS_TQ_plus_delta_MP2_Q5_TQ_cohesive cohesive_energy_ev=-3.3238790320536147 binding_energy_ev=-3.3238790320536147 cohesive_energy_hartree=-0.12215030241668501 dissociation_energy_ev=3.3238790320536147 ccsdt_cbs_tq_cohesive_energy_ev=-3.3179924342126443 mp2_cbs_tq_cohesive_energy_ev=-3.3370178145173206 mp2_cbs_q5_cohesive_energy_ev=-3.3429044123582914 mp2_q5_cohesive_correction_mev=-5.886597840970619 fragment_expression="SiH3_from_Si2H6 + SiH3_from_Si2H6" pbc="F F F"
Si      -0.00000000      -0.00000760       1.26500000
Si       0.00000000       0.00000760      -1.26500000
H       -0.00000200       1.38690840       1.77662100
H       -1.20110300      -0.69345960       1.77663300
H        1.20110400      -0.69345660       1.77663300
H       -0.00000200      -1.38690840      -1.77662100
H       -1.20110300       0.69345960      -1.77663200
H        1.20110500       0.69345660      -1.77663300
