------------------------------------------------------------
          Invoking FHI-aims ...

          When using FHI-aims, please cite the following reference:

            Volker Blum, Ralf Gehrke, Felix Hanke, Paula Havu,
            Ville Havu, Xinguo Ren, Karsten Reuter, and Matthias Scheffler,
            'Ab Initio Molecular Simulations with Numeric Atom-Centered Orbitals',
            Computer Physics Communications 180, 2175-2196 (2009)

          In addition, many other developments in FHI-aims are likely important for
          your particular application. If so, please cite them. A partial list of references
          is written at the end of this file. Thank you for giving credit to the authors
          of these developments.

          For general information about FHI-aims please find us at

            https://fhi-aims.org

          Online tutorials can be found at

            https://fhi-aims-club.gitlab.io/tutorials/tutorials-overview/

          For any questions about FHI-aims, please visit our slack channel at

            https://fhi-aims.slack.com

          and our main development and support site at

            https://aims-git.rz-berlin.mpg.de .

          The latter site, in particular, has a wiki to collect information, as well
          as an issue tracker to log discussions, suggest improvements, and report issues
          or bugs. https://aims-git.rz-berlin.mpg.de is also the main development site
          of the project and all new and updated code versions can be obtained there.
          Please send an email to aims-coordinators@ms1p.org and we will add
          you to these sites. They are for you and everyone is welcome there.

------------------------------------------------------------



  Date     :  20260722, Time     :  122542.103
  Time zero on CPU 1             :   0.204496000000000E+00  s.
  Internal wall clock time zero  :           553955142.103  s.

  FHI-aims created a unique identifier for this run for later identification
  aims_uuid : 42CE3B2B-B081-4D13-AF23-0CC3F04600B1

  Build configuration of the current instance of FHI-aims
  -------------------------------------------------------
  FHI-aims version      : 260331
  Commit number         : GITDIR-NOTFOUND
  CMake host system     : Linux-4.18.0-553.97.1.el8_10.x86_64
  CMake version         : 3.31.6
  OS Distribution       : Rocky Linux 8.10 (Green Obsidian)
  Built on              : Intel(R) Xeon(R) w5-3435X
  Fortran compiler      : /mnt/sw/nix/store/pa59vldasm7gxpr7dkijhk09q5qq63q1-openmpi-4.1.8/bin/mpifort (GNU) version 13.3.0
  Fortran compiler flags: -O2 -fallow-argument-mismatch -ffree-line-length-none
  C compiler            : /mnt/sw/nix/store/pa59vldasm7gxpr7dkijhk09q5qq63q1-openmpi-4.1.8/bin/mpicc (GNU) version 13.3.0
  C compiler flags      : -O2
  C++ compiler          : /mnt/sw/nix/store/pa59vldasm7gxpr7dkijhk09q5qq63q1-openmpi-4.1.8/bin/mpicxx (GNU) version 13.3.0
  C++ compiler flags    : -O2
  HIP compiler          :
  HIP compiler flags    :
  HIP GPU arch          :
  Using MPI
  Using ScaLAPACK
  Using LibXC
  Using i-PI
  Using RLSY
  Using GREENX
  Linking against: /mnt/sw/nix/store/dwd607jzx9m5bdd100br72s3b6g05zrf-intel-oneapi-mkl-2024.2.2/mkl/2024.2/lib/libmkl_intel_lp64.so
                   /mnt/sw/nix/store/dwd607jzx9m5bdd100br72s3b6g05zrf-intel-oneapi-mkl-2024.2.2/mkl/2024.2/lib/libmkl_sequential.so
                   /mnt/sw/nix/store/dwd607jzx9m5bdd100br72s3b6g05zrf-intel-oneapi-mkl-2024.2.2/mkl/2024.2/lib/libmkl_core.so
                   /mnt/sw/nix/store/dwd607jzx9m5bdd100br72s3b6g05zrf-intel-oneapi-mkl-2024.2.2/mkl/2024.2/lib/libmkl_blacs_openmpi_lp64.so
                   /mnt/sw/nix/store/dwd607jzx9m5bdd100br72s3b6g05zrf-intel-oneapi-mkl-2024.2.2/mkl/2024.2/lib/libmkl_scalapack_lp64.so

  Using        4 parallel tasks.
  Task        0 on host worker6100 reporting.
  Task        1 on host worker6100 reporting.
  Task        2 on host worker6100 reporting.
  Task        3 on host worker6100 reporting.

  Obtaining array dimensions for all initial allocations:
  
  -----------------------------------------------------------------------
  Parsing control.in (first pass over file, find array dimensions only).
  The contents of control.in will be repeated verbatim below
  unless switched off by setting 'verbatim_writeout .false.' .
  in the first line of control.in .
  -----------------------------------------------------------------------
  
  override_warning_libxc             True
  xc                                 pbe
  spin                               collinear
  charge                             0
  relativistic                       atomic_zora scalar
  atomic_solver_xc                   pbe
  ionic_solver_xc                    pbe
  
  occupation_type                    gaussian 0.0000001
  
  sc_accuracy_rho                    1e-05
  sc_accuracy_eev                    1e-03
  sc_accuracy_etot                   1e-06
  
  charge_mix_param                   0.1
  n_max_pulay                        8
  occupation_acc                     1e-9
  max_zeroin                         20000
  
  default_initial_moment             3.0
  
  
  # ============================================================
  # Tight species defaults for N: 07_N_default
  # ============================================================
  ################################################################################
  #
  #  FHI-aims code project
  #  Volker Blum, 2017
  #
  #  Suggested "intermediate" defaults for N atom (to be pasted into control.in file)
  #
  ################################################################################
    species        N
  #     global species definitions
      nucleus             7
      mass                14.0067
  #
      l_hartree           6
  #
      cut_pot             4.0  2.0  1.0
      basis_dep_cutoff    1e-4
  #
      radial_base         35 7.0
      radial_multiplier   2
      angular_grids       specified
        division   0.1841   50
        division   0.3514  110
        division   0.5126  194
        division   0.6292  302
        division   0.6939  434
  #      division   0.7396  590
  #      division   0.7632  770
  #      division   0.8122  974
  #      division   1.1604 1202
  #      outer_grid  974
        outer_grid  434
  ################################################################################
  #
  #  Definition of "minimal" basis
  #
  ################################################################################
  #     valence basis states
      valence      2  s   2.
      valence      2  p   3.
  #     ion occupancy
      ion_occ      2  s   1.
      ion_occ      2  p   2.
  ################################################################################
  #
  #  Suggested additional basis functions. For production calculations,
  #  uncomment them one after another (the most important basis functions are
  #  listed first).
  #
  #  Constructed for dimers: 1.0 A, 1.1 A, 1.5 A, 2.0 A, 3.0 A
  #
  ################################################################################
  #  "First tier" - improvements: -1193.42 meV to -220.60 meV
       hydro 2 p 1.8
       hydro 3 d 6.8
       hydro 3 s 5.8
  #  "Second tier" - improvements: -80.21 meV to -6.86 meV
       hydro 4 f 10.8
  #     hydro 3 p 5.8
  #     hydro 1 s 0.8
    for_aux    hydro 5 g 16
  #     hydro 3 d 4.9
  #  "Third tier" - improvements: -4.29 meV to -0.53 meV
  #     hydro 3 s 16
  #     ionic 2 p auto
  #     hydro 3 d 6.6
  #     hydro 4 f 11.6
  #  "Fourth tier" - improvements: -0.75 meV to -0.25 meV
  #     hydro 2 p 4.5
  #     hydro 2 s 2.4
  #     hydro 5 g 14.4
  #     hydro 4 d 14.4
  #     hydro 4 f 16.8
  # Further basis functions - -0.21 meV and below
  #     hydro 3 p 14.8
  #     hydro 3 s 4.4
  #     hydro 3 d 19.6
  #     hydro 5 g 12.8
  
  -----------------------------------------------------------------------
  Completed first pass over input file control.in .
  -----------------------------------------------------------------------
  
  
  -----------------------------------------------------------------------
  Parsing geometry.in (first pass over file, find array dimensions only).
  The contents of geometry.in will be repeated verbatim below
  unless switched off by setting 'verbatim_writeout .false.' .
  in the first line of geometry.in .
  -----------------------------------------------------------------------
  
  atom 0.0000000000 0.0000000000 0.0000000000 N
  
  -----------------------------------------------------------------------
  Completed first pass over input file geometry.in .
  -----------------------------------------------------------------------
  

  Basic array size parameters:
  | Number of species                 :        1
  | Number of atoms                   :        1
  | Max. basis fn. angular momentum   :        4
  | Max. atomic/ionic basis occupied n:        2
  | Max. number of basis fn. types    :        2
  | Max. radial fns per species/type  :        5
  | Max. logarithmic grid size        :     1290
  | Max. radial integration grid size :       71
  | Max. angular integration grid size:      434
  | Max. angular grid division number :        8
  | Radial grid for Hartree potential :     1290
  | Number of spin channels           :        2

  Definition of standardized fundamental physical constants in this FHI-aims run:
  | Using the set of values used in FHI-aims up to 2024, which combines values from
  | different CODATA sets - see constants.f90.
  | Use the 'codata' keyword in control.in to change this selection.

  Memory overcommitment is allowed on your operating system.

------------------------------------------------------------
          Reading file control.in.
------------------------------------------------------------
  XC: Using PBE gradient-corrected functionals.
  Spin treatment: Spin density functional theory - collinear spins.
  Charge =   0.000000E+00: Neutral system requested explicitly.
  Scalar relativistic treatment of kinetic energy: on-site free-atom approximation to ZORA.
  Atomic Solver XC: Using user-defined functional for generating the minimal NAO basis functions.
  Note that only the following functionals are available: kli, pz-lda, pw-lda, vwn, vwn-gauss, pw91_gga, pbe, rpbe, revpbe, pbeint, pbesol, blyp.
  Ionic Solver XC: Using user-defined functional for generating the minimal NAO basis functions.
  Note that only the following functionals are available: kli, pz-lda, pw-lda, vwn, vwn-gauss, pw91_gga, pbe, rpbe, revpbe, pbeint, pbesol, blyp.
  Occupation type: Gaussian broadening, width =   0.100000E-06 eV.
  Convergence accuracy of self-consistent charge density:  0.1000E-04
  Convergence accuracy of sum of eigenvalues:  0.1000E-02
  Convergence accuracy of total energy:  0.1000E-05
  Charge density mixing - mixing parameter:     0.1000
  Pulay mixing - number of memorized iterations:    8
  Accuracy of occupation numbers  :  0.1000E-08
  Maximum # of zeroin steps  : ****
  Initial spin moment per atom:   3.0000

  Reading configuration options for species N                   .
  | Found nuclear charge :   7.0000
  | Found atomic mass :    14.006700000000000      amu
  | Found l_max for Hartree potential  :   6
  | Found cutoff potl. onset [A], width [A], scale factor :    4.00000    2.00000    1.00000
  | Threshold for basis-dependent cutoff potential is   0.100000E-03
  | Found data for basic radial integration grid :    35 points, outermost radius =    7.000 A
  | Found multiplier for basic radial grid :   2
  | Found angular grid specification: user-specified.
  | Specified grid contains     6 separate shells.
  | Check grid settings after all constraints further below.
  | Found free-atom valence shell :  2 s   2.000
  | Found free-atom valence shell :  2 p   3.000
  | No ionic wave fns used. Skipping ion_occ.
  | No ionic wave fns used. Skipping ion_occ.
  | Found hydrogenic basis function :  2 p   1.800
  | Found hydrogenic basis function :  3 d   6.800
  | Found hydrogenic basis function :  3 s   5.800
  | Found hydrogenic basis function :  4 f  10.800
  | Found hydrogenic extended basis function :  5 g  16.000
  Species N                   : Missing cutoff potential type.
  Defaulting to exp(1/x)/(1-x)^2 type cutoff potential.
  Species N : No 'logarithmic' tag. Using default grid for free atom:
  | Default logarithmic grid data [bohr] : 0.1000E-03 0.1000E+03 0.1012E+01
  Species N : On-site basis accuracy parameter (for Gram-Schmidt orthonormalisation) not specified.
  Using default value basis_acc =  0.1000000E-03.
  Species N                   : Using default innermost maximum threshold i_radial=  2 for radial functions.
  Species N                   : Default cutoff onset for free atom density etc. : 0.40000000E+01 AA.
  Species N                   : Basic radial grid will be enhanced according to radial_multiplier =   2, to contain    71 grid points.

  Finished reading input file 'control.in'.

------------------------------------------------------------


------------------------------------------------------------
          Reading geometry description geometry.in.
------------------------------------------------------------
  | Isolated single atom, no quantum-mechanical atoms close by.
  Input structure read successfully.
  The structure contains        1 atoms,  and a total of          7.000 electrons.

  Input geometry:
  | No unit cell requested.
  | Atomic structure:
  |       Atom                x [A]            y [A]            z [A]
  |    1: Species N             0.00000000        0.00000000        0.00000000

  Initial moments and charges:
  |  Atom   Moment         Charge        Species
  |     1   0.300000E+01   0.000000E+00   N

  Slab Identifier: This is not a periodic structure.

  Finished reading input file 'geometry.in'.



  Consistency checks for stacksize environment parameter are next.

  | Maximum stacksize for task 0: unlimited
  | Maximum stacksize for task 1: unlimited
  | Maximum stacksize for task 2: unlimited
  | Maximum stacksize for task 3: unlimited
  | Current stacksize for task 0: unlimited
  | Current stacksize for task 1: unlimited
  | Current stacksize for task 2: unlimited
  | Current stacksize for task 3: unlimited

  Consistency checks for the contents of control.in are next.

  MPI_IN_PLACE appears to work with this MPI implementation.
  | Keeping use_mpi_in_place .true. (see manual).
  Target number of points in a grid batch is not set. Defaulting to  100
  Method for grid partitioning is not set. Defaulting to parallel hash+maxmin partitioning.
  Batch size limit is not set. Defaulting to    200
  By default, will store active basis functions for each batch.
  If in need of memory, prune_basis_once .false. can be used to disable this option.
  communication_type for Hartree potential was not specified.
  Defaulting to calc_hartree .
  Defaulting to Pulay charge density mixer.
  Pulay mixer: Number of initial linear mixing iterations not set.
  Defaulting to    0 iterations.
  Work space size for distributed Hartree potential not set.
  Defaulting to   0.200000E+03 MB.
  Mixing parameter for spin density mixing has not been set.
  Using charge_mix_param as default:     0.1000.
  Algorithm-dependent basis array size parameters:
  | n_max_pulay                         :        8
  Maximum number of self-consistency iterations not provided.
  Presetting  1000 iterations.
  Presetting      1001 iterations before the initial mixing cycle
  is restarted anyway using the sc_init_iter criterion / keyword.
  Presetting a factor      1.000 between actual scf density residual
  and density convergence criterion sc_accuracy_rho below which sc_init_iter
  takes no effect.
  Calculation of forces was not defined in control.in. No forces will be calculated.
  Geometry relaxation not requested: no relaxation will be performed.
  No accuracy limit for integral partition fn. given. Defaulting to  0.1000E-14.
  No threshold value for u(r) in integrations given. Defaulting to  0.1000E-05.
  No threshold value for occupation numbers given. Defaulting to  0.0000E+00.
  No accuracy for fermi level given. Defaulting to  0.1000E-19.
  Preferred method for the eigenvalue solver ('KS_method') not specified in 'control.in'.
  Calling BLACS routine to test compilation state
  Since ScaLAPACK support is enabled, defaulting to ELPA (via ELSI).
  Threshold for basis singularities not set.
  Default threshold for basis singularities:  0.1000E-04
  partition_type (choice of integration weights) for integrals was not specified.
  | Using a version of the partition function of Stratmann and coworkers ('stratmann_sparse').
  | At each grid point, the set of atoms used to build the partition table is smoothly restricted to
  | only those atoms whose free-atom density would be non-zero at that grid point.
  Partitioning for Hartree potential was not defined. Using partition_type for integrals.
  | Adjusted default value of keyword multip_moments_threshold to:       0.10000000E-11
  | This value may affect high angular momentum components of the Hartree potential in periodic systems.
  No q(lm)/r^(l+1) cutoff set for long-range Hartree potential.
  | Using default value of  0.100000E-09 .
  | Verify using the multipole_threshold keyword.
  Defaulting to new monopole extrapolation.
  Density update method: automatic selection selected.
  Charge integration errors on the 3D integration grid will be compensated
  by explicit normalization and distribution of residual charges.
  Use the "compensate_multipole_errors" flag to change this behaviour.
  Set 'collect_eigenvectors' to be '.true.' for use_density_matrix .false.
  Found potential conflicts with setting 'use_local_index' for this calculation. Will not set it.

  Consistency checks for the contents of geometry.in are next.

  Number of empty states per atom not set in control.in - providing a guess from actual geometry.
  | Total number of empty states used during s.c.f. cycle:        3
  If you use a very high smearing, use empty_states (per atom!) in control.in to increase this value.

  Structure-dependent array size parameters: 
  | Number of distinct atom types in initial rho :        1
  | Maximum number of distinct radial functions  :        8
  | Maximum number of basis functions            :       30
  | Number of Kohn-Sham states (occupied + empty):        7
------------------------------------------------------------
  After read_input_data [GB]:   1006.00

  Performing system and environment tests:
  | Environment variable OMP_NUM_THREADS correctly set to 1.
  | Checking for ScaLAPACK...
  | Testing pdtran()...
  | All pdtran() tests passed.
  | Testing CPU compatibility for run-time vs. build-time.
  | Reading /proc/cpuinfo for CPU information ...
  | Built for  : Intel(R) Xeon(R) w5-3435X
  *** WARNING: CPU mismatch detected for Node worker6100 : Intel(R) Xeon(R) Platinum 8362 CPU @ 2.80GHz                                                 
** WARNING:
  | WARNING: This FHI-aims executable was built on a different
  CPU type than the CPUs used in this run.

  | Running on different hardware than that on which a code was compiled
  | can produce incorrect results (wrong numbers) due to architecture-specific
  | optimizations made by the compiler. Those wrong numbers may occur only spuriously.
  | They are therefore very difficult to rule out even by tests ahead of time.

** END OF WARNING
  | Running on : Intel(R) Xeon(R) Platinum 8362 CPU @ 2.80GHz
  | Runtime CPU compatibility verified.
  
  After prepare_system [GB]:   1005.97

------------------------------------------------------------
          Preparing all fixed parts of the calculation.
------------------------------------------------------------
  Determining machine precision:
     2.2250738585072014E-308
  Setting up grids for atomic and cluster calculations.

  Creating wave function, potential, and density for free atoms.
  Runtime choices for atomic solver:
  | atomic solver xc        : PBE
  | compute density gradient: 1
  | compute kinetic density : F

  Species: N

  List of occupied orbitals and eigenvalues:
    n    l              occ      energy [Ha]    energy [eV]
    1    0           2.0000       -14.144983      -384.9046
    2    0           2.0000        -0.682735       -18.5782
    2    1           3.0000        -0.260361        -7.0848

  Spin-polarized or charged system:
  Charge density initialized according to selected moments and charges.

  Creating spin-polarized density from free atoms.

  Species: N
  Charge:   0.000000
  Moment:   3.000000

  List of occupied orbitals and eigenvalues:
    n    l      energy [Ha]    energy [eV]    occupation
  Spin-up
    1    0       -14.125055      -384.3623     1.00000000
    2    0        -0.730383       -19.8747     1.00000000
    2    1        -0.304890        -8.2965     3.00000000
  Spin-down
    1    0       -14.069170      -382.8416     1.00000000
    2    0        -0.562311       -15.3013     1.00000000
    2    1        -0.151597        -4.1252     0.00000000


  Adding cutoff potential to free-atom effective potential.
  Creating fixed part of basis set: Ionic, confined, hydrogenic.

  N                    hydrogenic:

  List of hydrogenic basis orbitals: 
    n    l      effective z      eigenvalue [eV]  inner max. [A]     outer max. [A]     outer radius [A]   
    2    1         1.800000       -11.0118           1.177451           1.177451           5.427479
    3    2         6.800000       -69.9029           0.704619           0.704619           3.854246
    3    0         5.800000       -50.8549           0.067388           1.191934           4.629968
    4    3        10.800000       -99.1854           0.786571           0.786571           3.761152

  List of extra hydrogenic orbitals for auxiliary basis: 
    n    l      effective z      eigenvalue [eV]  inner max. [A]     outer max. [A]     outer radius [A]   
    5    4        16.000000      -139.3222           0.825990           0.825990           3.625711

  Creating atomic-like basis functions for current effective potential.

  Species N                   :

  List of atomic basis orbitals and eigenvalues:
    n    l      energy [Ha]    energy [eV]    outer radius [A]
    1    0       -14.144983      -384.9046       1.637919
    2    0        -0.682735       -18.5782       5.168461
    2    1        -0.260361        -7.0848       5.361532

  Assembling full basis from fixed parts.
  | Species N :   atomic orbital   1 s accepted.
  | Species N :    hydro orbital   3 s accepted.
  | Species N :   atomic orbital   2 s accepted.
  | Species N :   atomic orbital   2 p accepted.
  | Species N :    hydro orbital   2 p accepted.
  | Species N :    hydro orbital   3 d accepted.
  | Species N :    hydro orbital   4 f accepted.

  Basis size parameters after reduction:
  | Total number of radial functions:        7
  | Total number of basis functions :       21

  Assembling extended basis for auxiliary basis.
  | Species N :   atomic orbital   1 s accepted.
  | Species N :    hydro orbital   3 s accepted.
  | Species N :   atomic orbital   2 s accepted.
  | Species N :   atomic orbital   2 p accepted.
  | Species N :    hydro orbital   2 p accepted.
  | Species N :    hydro orbital   3 d accepted.
  | Species N :    hydro orbital   4 f accepted.
  | Species N :    hydro orbital   5 g accepted.
  Per-task memory consumption for arrays in subroutine allocate_ext:
  |           2.643052MB.

  Extended basis size parameters after reduction:
  | Total number of radial functions:        8
  | Total number of basis functions :       30

  Testing on-site integration grid accuracy.
  |  Species  Function  <phi|h_atom|phi> (log., in eV)  <phi|h_atom|phi> (rad., in eV)
           1        1               -384.9045837902               -384.9045810034
           1        2                 12.5603464975                 12.5603454947
           1        3                -15.7898975009                -15.7898975784
           1        4                 -7.0848925884                 -7.0848895890
           1        5                  8.3497070581                  8.3498831619
           1        6                 35.9434723765                 35.9434722970
           1        7                 72.9994981060                 72.9994982100

  Preparing densities etc. for the partition functions (integrals / Hartree potential).

  Preparations completed.
  max(cpu_time)          :      0.104 s.
  Wall clock time (cpu1) :      0.104 s.
------------------------------------------------------------
  After prepare_scf [GB]:   1005.92

  Initializing index lists of integration centers etc. from given atomic structure:
  | Number of centers in hartree potential                       :         1
  | Number of centers in hartree multipole                       :         1
  | Number of centers in electron density summation              :         1
  | Number of centers in basis integrals                         :         1
  | Number of centers in integrals                               :         1
  | Number of centers in hamiltonian                             :         1
  | Number of centers in partition table from touching 0-cell    :         1
  | Number of centers in partition table total                   :         1
  After initialize_bc_dependent_lists [GB]:   1005.92

------------------------------------------------------------
          Begin self-consistency loop: Initialization.

          Date     :  20260722, Time     :  122542.318
------------------------------------------------------------
  Available memory per node after initialize_hartree_non_periodic_ewald [GB]:   1005.92
  Available memory per node after initialize_recip_hartree_potential [GB]:   1005.92
  * Using 4 tasks for Scalapack Eigenvalue solver.
  Detailed listing of tasks and assigned k-points:
  (for non-periodic systems, the "k-point" denotes an internal label only)
   Task     0 k-point     1 on worker6100
   Task     1 k-point     1 on worker6100
   Task     2 k-point     1 on worker6100
   Task     3 k-point     1 on worker6100
  Tasks:     4 split into      2 X      2 BLACS grid
  Calculating block size based on n_basis =           21  max_nprow =            2  max_npcol =            2
  ScaLAPACK block size set to:            8
  Allocating        0.001 MB for ovlp
  Allocating        0.003 MB for ham
  Allocating        0.003 MB for eigenvec
  Required Scalapack workspace - INTEGER:            1  REAL:             1
  Available memory per node after initialize_scalapack [GB]:   1005.92
  Available memory per node after aims_elsi_init_scf [GB]:   1005.92
  Available memory per node after initialize_fixed_grids [GB]:   1005.92
  Partitioning the integration grid into batches with parallel hashing+maxmin method.
  | Number of batches:      254
  | Maximal batch size:     150
  | Minimal batch size:      65
  | Average batch size:      77.378
  | Standard deviation of batch sizes:       9.194

  Integration load balanced across     4 MPI tasks.
  Work distribution over tasks is as follows:
  Task     0 has       4950 integration points.
  Task     1 has       4912 integration points.
  Task     2 has       4912 integration points.
  Task     3 has       4880 integration points.
  Available memory per node after partition_grid [GB]:   1005.92
  Initializing partition tables, free-atom densities, potentials, etc. across the integration grid (initialize_grid_storage).
  | initialize_grid_storage: Actual outermost partition radius vs. multipole_radius_free
  | (-- VB: in principle, multipole_radius_free should be larger, hence this output)
  | Species        1: Confinement radius =              6.000000000000000 AA, multipole_radius_free =              6.058726835495003 AA.
  | Species        1: outer_partition_radius set to              6.058726835495003 AA .
  | The sparse table of interatomic distances needs          0.01 kbyte instead of         0.01 kbyte of memory.
  | Net number of integration points:    19654
  | of which are non-zero points    :    19654
  Available memory per node after initialize_grid_storage_p1 [GB]:   1005.92
  Renormalizing the initial density to the exact electron count on the 3D integration grid.
  | Initial density: Formal number of electrons (from input files) :       7.0000000000
  | Integrated number of electrons on 3D grid     :       6.9999999923
  | Charge integration error                      :      -0.0000000077
  | Normalization factor for density and gradient :       1.0000000011
  Renormalizing the free-atom superposition density to the exact electron count on the 3D integration grid.
  | Formal number of electrons (from input files) :       7.0000000000
  | Integrated number of electrons on 3D grid     :       7.0000000208
  | Charge integration error                      :       0.0000000208
  | Normalization factor for density and gradient :       0.9999999970
  Obtaining max. number of non-zero basis functions in each batch (get_n_compute_maxes).
  | Maximal number of non-zero basis functions:       21 in task     0
  | Maximal number of non-zero basis functions:       21 in task     1
  | Maximal number of non-zero basis functions:       21 in task     2
  | Maximal number of non-zero basis functions:       21 in task     3
  Selecting the method for density update.
  Loop over occupied states selected for charge density update.
  Available memory per node after get_n_compute_maxes_p1 [GB]:   1005.92
  Initialize hartree_potential_storage
  Max. number of atoms included in rho_multipole:            1

  Evaluating partitioned Hartree potential by multipole expansion.
  | Original multipole sum: apparent total charge =  -0.200002E-14
  | Sum of charges compensated after spline to logarithmic grids =   0.862726E-07
  | Analytical far-field extrapolation by fixed multipoles:
  | Hartree multipole sum: apparent total charge =  -0.198877E-14
  Summing up the Hartree potential.
  Time summed over all CPUs for potential: real work        0.001 s, elapsed        0.002 s
  | RMS charge density error from multipole expansion :   0.156817E-15

  Allocating        0.002 MB for KS_eigenvector
  Available memory per node after allocate_matrices [GB]:   1005.91
  Available memory per node after init_comm_sparse_local_matrix_scalapack [GB]:   1005.91
  Integrating Hamiltonian matrix: batch-based integration.
  Time summed over all CPUs for integration: real work        0.030 s, elapsed        0.031 s
  Available memory per node after integrate hamiltonian matrix [GB]:   1005.91
  Integrating overlap matrix.
  Time summed over all CPUs for integration: real work        0.006 s, elapsed        0.007 s
  Available memory per node after integrate ovlp matrix [GB]:   1005.91
  Deallocating overlap matrix.
  Available memory per node after save_overlap_scalapack [GB]:   1005.91

  Updating Kohn-Sham eigenvalues and eigenvectors using ELSI and the ELPA eigensolver.
  Overlap matrix is not singular
  | Lowest and highest eigenvalues :  0.1000E+01,  0.1000E+01
  Finished singularity check of overlap matrix
  | Time :     0.001 s
  Starting ELPA eigensolver
  Finished Cholesky decomposition
  | Time :     0.000 s
  Finished transformation to standard eigenproblem
  | Time :     0.000 s
  Finished solving standard eigenproblem
  | Time :     0.001 s
  Finished back-transformation of eigenvectors
  | Time :     0.000 s
  Starting ELPA eigensolver
  Finished transformation to standard eigenproblem
  | Time :     0.000 s
  Finished solving standard eigenproblem
  | Time :     0.000 s
  Finished back-transformation of eigenvectors
  | Time :     0.000 s

  Obtaining occupation numbers and electronic chemical potential using ELSI.
  | Note that, for insulating systems, the printed 'chemical potential' value is not uniquely defined.
  | It can be anywhere in the energy gap, as long as it correctly separates occupied and unoccupied states.
  | In systems with a gap, the physically relevant chemical potential is the VBM or HOMO.

  | Chemical potential (Fermi level):    -6.20381249 eV
  Available memory per node after advance_KS_solution [GB]:   1005.90
  Writing Kohn-Sham eigenvalues.

  Spin-up eigenvalues:

  State    Occupation    Eigenvalue [Ha]    Eigenvalue [eV]
      1       1.00000         -14.125043         -384.36198
      2       1.00000          -0.730360          -19.87411
      3       1.00000          -0.304823           -8.29465
      4       1.00000          -0.304823           -8.29465
      5       1.00000          -0.304823           -8.29465
      6       0.00000           0.285159            7.75956
      7       0.00000           0.285159            7.75956

  Spin-down eigenvalues:

  State    Occupation    Eigenvalue [Ha]    Eigenvalue [eV]
      1       1.00000         -14.069192         -382.84221
      2       1.00000          -0.562154          -15.29699
      3       0.00000          -0.151149           -4.11297
      4       0.00000          -0.151149           -4.11297
      5       0.00000          -0.151149           -4.11297
      6       0.00000           0.373920           10.17489
      7       0.00000           0.373920           10.17489

  Current spin moment of the entire structure :
  | N = N_up - N_down :    3.00
  | S                 :    1.50
  | J                 :    4.00

  Highest occupied state (VBM) at     -8.29465085 eV
  | Occupation number:      1.00000000
  | Spin channel:        1

  Lowest unoccupied state (CBM) at    -4.11297412 eV
  | Occupation number:      0.00000000
  | Spin channel:        2

  Overall HOMO-LUMO gap:      4.18167673 eV.
  Calculating total energy contributions from superposition of free atom densities.

  Total energy components:
  | Sum of eigenvalues            :         -30.40121803 Ha        -827.25923301 eV
  | XC energy correction          :          -6.71513998 Ha        -182.72825609 eV
  | XC potential correction       :           8.62481481 Ha         234.69315214 eV
  | Free-atom electrostatic energy:         -25.88607749 Ha        -704.39600783 eV
  | Hartree energy correction     :          -0.20644475 Ha          -5.61764734 eV
  | Entropy correction            :          -0.00000000 Ha          -0.00000000 eV
  | ---------------------------
  | Total energy                  :         -54.58406544 Ha       -1485.30799213 eV
  | Total energy, T -> 0          :         -54.58406544 Ha       -1485.30799213 eV  <-- do not rely on this value for anything but (periodic) metals
  | Electronic free energy        :         -54.58406544 Ha       -1485.30799213 eV

  Derived energy quantities:
  | Kinetic energy                :          54.49111327 Ha        1482.77863505 eV
  | Electrostatic energy          :        -102.36003872 Ha       -2785.35837109 eV
  | Energy correction for multipole
  | error in Hartree potential    :          -0.00000000 Ha          -0.00000000 eV
  | Sum of eigenvalues per atom                           :        -827.25923301 eV
  | Total energy (T->0) per atom                          :       -1485.30799213 eV  <-- do not rely on this value for anything but (periodic) metals
  | Electronic free energy per atom                       :       -1485.30799213 eV

  End scf initialization - timings             :  max(cpu_time)    wall_clock(cpu1)
  | Time for scf. initialization                :        0.028 s           0.028 s
  | Boundary condition initialization           :        0.001 s           0.000 s
  | Integration                                 :        0.010 s           0.009 s
  | Solution of K.-S. eqns.                     :        0.002 s           0.003 s
  | Grid partitioning                           :        0.005 s           0.005 s
  | Preloading free-atom quantities on grid     :        0.007 s           0.007 s
  | Free-atom superposition energy              :        0.004 s           0.004 s
  | Total energy evaluation                     :        0.000 s           0.000 s

  Partial memory accounting:
  | Current value for overall tracked memory usage:
  |   Minimum:        0.008 MB (on task 3)
  |   Maximum:        0.013 MB (on task 0)
  |   Average:        0.010 MB
  | Peak value for overall tracked memory usage:
  |   Minimum:        0.151 MB (on task 3 after allocating grid_partition)
  |   Maximum:        0.198 MB (on task 0 after allocating grid_partition)
  |   Average:        0.173 MB
  | Largest tracked array allocation so far:
  |   Minimum:        0.099 MB (all_coords on task 3)
  |   Maximum:        0.128 MB (all_coords on task 0)
  |   Average:        0.112 MB
  Note:  These values currently only include a subset of arrays which are explicitly tracked.
  The "true" memory usage will be greater.
------------------------------------------------------------
  Available memory after initialize_scf [GB]:   1005.90
  Available memory after allocating mixing [GB]:   1005.90
  Evaluating new KS density.
  Integration grid: deviation in total charge (<rho> - N_e) =  -1.953993E-14
  | <rho_up-rho_dn> = N_up-N_dn =      3.0000; <|rho_up-rho_dn|> =      3.0000

  Time for density update prior                :  max(cpu_time)    wall_clock(cpu1)
  | self-consistency iterative process          :        0.004 s           0.004 s
  Available memory before start of SCF loop [GB]:   1005.90

------------------------------------------------------------
          Begin self-consistency iteration #    1

  Date     :  20260722, Time     :  122542.350
------------------------------------------------------------
  Pulay mixing of updated and previous charge densities.
  Available memory per node after mixing [GB]:   1005.90
  Renormalizing the density to the exact electron count on the 3D integration grid.
  | Formal number of electrons (from input files) :       7.0000000000
  | Integrated number of electrons on 3D grid     :       7.0000000000
  | Charge integration error                      :      -0.0000000000
  | Normalization factor for density and gradient :       1.0000000000

  Evaluating partitioned Hartree potential by multipole expansion.
  | Original multipole sum: apparent total charge =  -0.244079E-13
  | Sum of charges compensated after spline to logarithmic grids =   0.849100E-07
  | Analytical far-field extrapolation by fixed multipoles:
  | Hartree multipole sum: apparent total charge =  -0.244228E-13
  Summing up the Hartree potential.
  Time summed over all CPUs for potential: real work        0.001 s, elapsed        0.001 s
  | RMS charge density error from multipole expansion :   0.415593E-15

  Integrating Hamiltonian matrix: batch-based integration.
  Time summed over all CPUs for integration: real work        0.029 s, elapsed        0.030 s

  Updating Kohn-Sham eigenvalues and eigenvectors using ELSI and the ELPA eigensolver.
  Starting ELPA eigensolver
  Finished transformation to standard eigenproblem
  | Time :     0.000 s
  Finished solving standard eigenproblem
  | Time :     0.001 s
  Finished back-transformation of eigenvectors
  | Time :     0.000 s
  Starting ELPA eigensolver
  Finished transformation to standard eigenproblem
  | Time :     0.000 s
  Finished solving standard eigenproblem
  | Time :     0.000 s
  Finished back-transformation of eigenvectors
  | Time :     0.000 s

  Obtaining occupation numbers and electronic chemical potential using ELSI.
  | Note that, for insulating systems, the printed 'chemical potential' value is not uniquely defined.
  | It can be anywhere in the energy gap, as long as it correctly separates occupied and unoccupied states.
  | In systems with a gap, the physically relevant chemical potential is the VBM or HOMO.

  | Chemical potential (Fermi level):    -6.20564304 eV
  Writing Kohn-Sham eigenvalues.

  Spin-up eigenvalues:

  State    Occupation    Eigenvalue [Ha]    Eigenvalue [eV]
      1       1.00000         -14.124804         -384.35547
      2       1.00000          -0.730395          -19.87507
      3       1.00000          -0.304865           -8.29580
      4       1.00000          -0.304865           -8.29580
      5       1.00000          -0.304865           -8.29580
      6       0.00000           0.285098            7.75791
      7       0.00000           0.285098            7.75791

  Spin-down eigenvalues:

  State    Occupation    Eigenvalue [Ha]    Eigenvalue [eV]
      1       1.00000         -14.068737         -382.82983
      2       1.00000          -0.562280          -15.30041
      3       0.00000          -0.151241           -4.11549
      4       0.00000          -0.151241           -4.11549
      5       0.00000          -0.151241           -4.11549
      6       0.00000           0.374016           10.17750
      7       0.00000           0.374016           10.17750

  Current spin moment of the entire structure :
  | N = N_up - N_down :    3.00
  | S                 :    1.50
  | J                 :    4.00

  Highest occupied state (VBM) at     -8.29580042 eV
  | Occupation number:      1.00000000
  | Spin channel:        1

  Lowest unoccupied state (CBM) at    -4.11548565 eV
  | Occupation number:      0.00000000
  | Spin channel:        2

  Overall HOMO-LUMO gap:      4.18031477 eV.

  Total energy components:
  | Sum of eigenvalues            :         -30.40081162 Ha        -827.24817421 eV
  | XC energy correction          :          -6.71511488 Ha        -182.72757296 eV
  | XC potential correction       :           8.62478101 Ha         234.69223241 eV
  | Free-atom electrostatic energy:         -25.88607749 Ha        -704.39600783 eV
  | Hartree energy correction     :          -0.20684389 Ha          -5.62850860 eV
  | Entropy correction            :          -0.00000000 Ha          -0.00000000 eV
  | ---------------------------
  | Total energy                  :         -54.58406687 Ha       -1485.30803119 eV
  | Total energy, T -> 0          :         -54.58406687 Ha       -1485.30803119 eV  <-- do not rely on this value for anything but (periodic) metals
  | Electronic free energy        :         -54.58406687 Ha       -1485.30803119 eV

  Derived energy quantities:
  | Kinetic energy                :          54.49401685 Ha        1482.85764534 eV
  | Electrostatic energy          :        -102.36296884 Ha       -2785.43810357 eV
  | Energy correction for multipole
  | error in Hartree potential    :           0.00000000 Ha           0.00000000 eV
  | Sum of eigenvalues per atom                           :        -827.24817421 eV
  | Total energy (T->0) per atom                          :       -1485.30803119 eV  <-- do not rely on this value for anything but (periodic) metals
  | Electronic free energy per atom                       :       -1485.30803119 eV
  Evaluating new KS density.
  Integration grid: deviation in total charge (<rho> - N_e) =   8.881784E-15
  | <rho_up-rho_dn> = N_up-N_dn =      3.0000; <|rho_up-rho_dn|> =      3.0000

  Self-consistency convergence accuracy:
  | Change of charge/spin density :  0.4305E-02  0.1145E-01
  | Change of unmixed KS charge/spin density :  0.7263E+01  0.6152E+00
  | Change of sum of eigenvalues  :  0.1106E-01 eV
  | Change of total energy        : -0.3906E-04 eV


------------------------------------------------------------
  End self-consistency iteration #     1       :  max(cpu_time)    wall_clock(cpu1)
  | Time for this iteration                     :        0.015 s           0.016 s
  | Charge density update                       :        0.003 s           0.004 s
  | Density mixing                              :        0.000 s           0.001 s
  | Hartree multipole update                    :        0.001 s           0.001 s
  | Hartree multipole summation                 :        0.002 s           0.002 s
  | Integration                                 :        0.007 s           0.007 s
  | Solution of K.-S. eqns.                     :        0.001 s           0.001 s
  | Total energy evaluation                     :        0.000 s           0.000 s

  Partial memory accounting:
  | Current value for overall tracked memory usage:
  |   Minimum:        5.444 MB (on task 3)
  |   Maximum:        5.526 MB (on task 0)
  |   Average:        5.483 MB
  | Peak value for overall tracked memory usage:
  |   Minimum:        5.568 MB (on task 3 after allocating wave)
  |   Maximum:        5.650 MB (on task 0 after allocating wave)
  |   Average:        5.607 MB
  | Largest tracked array allocation so far:
  |   Minimum:        1.787 MB (previous_rho_gradient_diff on task 3)
  |   Maximum:        1.813 MB (previous_rho_gradient_diff on task 0)
  |   Average:        1.799 MB
  Note:  These values currently only include a subset of arrays which are explicitly tracked.
  The "true" memory usage will be greater.
------------------------------------------------------------

------------------------------------------------------------
          Begin self-consistency iteration #    2

  Date     :  20260722, Time     :  122542.831
------------------------------------------------------------
  Pulay mixing of updated and previous charge densities.
  Available memory per node after mixing [GB]:   1005.89
  Renormalizing the density to the exact electron count on the 3D integration grid.
  | Formal number of electrons (from input files) :       7.0000000000
  | Integrated number of electrons on 3D grid     :       7.0000000000
  | Charge integration error                      :       0.0000000000
  | Normalization factor for density and gradient :       1.0000000000

  Evaluating partitioned Hartree potential by multipole expansion.
  | Original multipole sum: apparent total charge =   0.862215E-15
  | Sum of charges compensated after spline to logarithmic grids =   0.779484E-07
  | Analytical far-field extrapolation by fixed multipoles:
  | Hartree multipole sum: apparent total charge =   0.839063E-15
  Summing up the Hartree potential.
  Time summed over all CPUs for potential: real work        0.001 s, elapsed        0.001 s
  | RMS charge density error from multipole expansion :   0.650776E-14

  Integrating Hamiltonian matrix: batch-based integration.
  Time summed over all CPUs for integration: real work        0.029 s, elapsed        0.030 s

  Updating Kohn-Sham eigenvalues and eigenvectors using ELSI and the ELPA eigensolver.
  Starting ELPA eigensolver
  Finished transformation to standard eigenproblem
  | Time :     0.000 s
  Finished solving standard eigenproblem
  | Time :     0.000 s
  Finished back-transformation of eigenvectors
  | Time :     0.000 s
  Starting ELPA eigensolver
  Finished transformation to standard eigenproblem
  | Time :     0.000 s
  Finished solving standard eigenproblem
  | Time :     0.000 s
  Finished back-transformation of eigenvectors
  | Time :     0.000 s

  Obtaining occupation numbers and electronic chemical potential using ELSI.
  | Note that, for insulating systems, the printed 'chemical potential' value is not uniquely defined.
  | It can be anywhere in the energy gap, as long as it correctly separates occupied and unoccupied states.
  | In systems with a gap, the physically relevant chemical potential is the VBM or HOMO.

  | Chemical potential (Fermi level):    -6.22289538 eV
  Current spin moment of the entire structure :
  | N = N_up - N_down :    3.00
  | S                 :    1.50
  | J                 :    4.00

  Highest occupied state (VBM) at     -8.30723234 eV
  | Occupation number:      1.00000000
  | Spin channel:        1

  Lowest unoccupied state (CBM) at    -4.13855842 eV
  | Occupation number:      0.00000000
  | Spin channel:        2

  Overall HOMO-LUMO gap:      4.16867392 eV.

  Checking to see if s.c.f. parameters should be adjusted.

  Total energy components:
  | Sum of eigenvalues            :         -30.39767437 Ha        -827.16280530 eV
  | XC energy correction          :          -6.71482084 Ha        -182.71957163 eV
  | XC potential correction       :           8.62438798 Ha         234.68153744 eV
  | Free-atom electrostatic energy:         -25.88607749 Ha        -704.39600783 eV
  | Hartree energy correction     :          -0.20988875 Ha          -5.71136357 eV
  | Entropy correction            :          -0.00000000 Ha          -0.00000000 eV
  | ---------------------------
  | Total energy                  :         -54.58407347 Ha       -1485.30821089 eV
  | Total energy, T -> 0          :         -54.58407347 Ha       -1485.30821089 eV  <-- do not rely on this value for anything but (periodic) metals
  | Electronic free energy        :         -54.58407347 Ha       -1485.30821089 eV

  Derived energy quantities:
  | Kinetic energy                :          54.51923776 Ha        1483.54394137 eV
  | Electrostatic energy          :        -102.38849040 Ha       -2786.13258063 eV
  | Energy correction for multipole
  | error in Hartree potential    :           0.00000000 Ha           0.00000000 eV
  | Sum of eigenvalues per atom                           :        -827.16280530 eV
  | Total energy (T->0) per atom                          :       -1485.30821089 eV  <-- do not rely on this value for anything but (periodic) metals
  | Electronic free energy per atom                       :       -1485.30821089 eV
  Evaluating new KS density.
  Integration grid: deviation in total charge (<rho> - N_e) =  -3.463896E-14
  | <rho_up-rho_dn> = N_up-N_dn =      3.0000; <|rho_up-rho_dn|> =      3.0000

  Self-consistency convergence accuracy:
  | Change of charge/spin density :  0.3855E-02  0.1030E-01
  | Change of unmixed KS charge/spin density :  0.5042E-04  0.3762E-04
  | Change of sum of eigenvalues  :  0.8537E-01 eV
  | Change of total energy        : -0.1797E-03 eV


------------------------------------------------------------
  End self-consistency iteration #     2       :  max(cpu_time)    wall_clock(cpu1)
  | Time for this iteration                     :        0.656 s           0.581 s
  | Charge density update                       :        0.003 s           0.003 s
  | Density mixing                              :        0.642 s           0.567 s
  | Hartree multipole update                    :        0.001 s           0.001 s
  | Hartree multipole summation                 :        0.001 s           0.001 s
  | Integration                                 :        0.007 s           0.008 s
  | Solution of K.-S. eqns.                     :        0.001 s           0.000 s
  | Total energy evaluation                     :        0.000 s           0.000 s

  Partial memory accounting:
  | Current value for overall tracked memory usage:
  |   Minimum:        5.445 MB (on task 3)
  |   Maximum:        5.527 MB (on task 0)
  |   Average:        5.484 MB
  | Peak value for overall tracked memory usage:
  |   Minimum:        5.569 MB (on task 3 after allocating wave)
  |   Maximum:        5.651 MB (on task 0 after allocating wave)
  |   Average:        5.608 MB
  | Largest tracked array allocation so far:
  |   Minimum:        1.787 MB (previous_rho_gradient_diff on task 3)
  |   Maximum:        1.813 MB (previous_rho_gradient_diff on task 0)
  |   Average:        1.799 MB
  Note:  These values currently only include a subset of arrays which are explicitly tracked.
  The "true" memory usage will be greater.
------------------------------------------------------------

------------------------------------------------------------
          Begin self-consistency iteration #    3

  Date     :  20260722, Time     :  122543.914
------------------------------------------------------------
  Pulay mixing of updated and previous charge densities.
  Available memory per node after mixing [GB]:   1005.89
  Renormalizing the density to the exact electron count on the 3D integration grid.
  | Formal number of electrons (from input files) :       7.0000000000
  | Integrated number of electrons on 3D grid     :       7.0000000000
  | Charge integration error                      :      -0.0000000000
  | Normalization factor for density and gradient :       1.0000000000

  Evaluating partitioned Hartree potential by multipole expansion.
  | Original multipole sum: apparent total charge =  -0.199171E-13
  | Sum of charges compensated after spline to logarithmic grids =   0.777091E-07
  | Analytical far-field extrapolation by fixed multipoles:
  | Hartree multipole sum: apparent total charge =  -0.199109E-13
  Summing up the Hartree potential.
  Time summed over all CPUs for potential: real work        0.001 s, elapsed        0.001 s
  | RMS charge density error from multipole expansion :   0.607220E-14

  Integrating Hamiltonian matrix: batch-based integration.
  Time summed over all CPUs for integration: real work        0.029 s, elapsed        0.030 s

  Updating Kohn-Sham eigenvalues and eigenvectors using ELSI and the ELPA eigensolver.
  Starting ELPA eigensolver
  Finished transformation to standard eigenproblem
  | Time :     0.001 s
  Finished solving standard eigenproblem
  | Time :     0.000 s
  Finished back-transformation of eigenvectors
  | Time :     0.000 s
  Starting ELPA eigensolver
  Finished transformation to standard eigenproblem
  | Time :     0.000 s
  Finished solving standard eigenproblem
  | Time :     0.000 s
  Finished back-transformation of eigenvectors
  | Time :     0.000 s

  Obtaining occupation numbers and electronic chemical potential using ELSI.
  | Note that, for insulating systems, the printed 'chemical potential' value is not uniquely defined.
  | It can be anywhere in the energy gap, as long as it correctly separates occupied and unoccupied states.
  | In systems with a gap, the physically relevant chemical potential is the VBM or HOMO.

  | Chemical potential (Fermi level):    -6.22828616 eV
  Current spin moment of the entire structure :
  | N = N_up - N_down :    3.00
  | S                 :    1.50
  | J                 :    4.00

  Highest occupied state (VBM) at     -8.31264909 eV
  | Occupation number:      1.00000000
  | Spin channel:        1

  Lowest unoccupied state (CBM) at    -4.14392323 eV
  | Occupation number:      0.00000000
  | Spin channel:        2

  Overall HOMO-LUMO gap:      4.16872587 eV.

  Total energy components:
  | Sum of eigenvalues            :         -30.39969541 Ha        -827.21780051 eV
  | XC energy correction          :          -6.71445112 Ha        -182.70951119 eV
  | XC potential correction       :           8.62390319 Ha         234.66834552 eV
  | Free-atom electrostatic energy:         -25.88607749 Ha        -704.39600783 eV
  | Hartree energy correction     :          -0.20775253 Ha          -5.65323404 eV
  | Entropy correction            :          -0.00000000 Ha          -0.00000000 eV
  | ---------------------------
  | Total energy                  :         -54.58407337 Ha       -1485.30820806 eV
  | Total energy, T -> 0          :         -54.58407337 Ha       -1485.30820806 eV  <-- do not rely on this value for anything but (periodic) metals
  | Electronic free energy        :         -54.58407337 Ha       -1485.30820806 eV

  Derived energy quantities:
  | Kinetic energy                :          54.51694569 Ha        1483.48157105 eV
  | Electrostatic energy          :        -102.38656794 Ha       -2786.08026792 eV
  | Energy correction for multipole
  | error in Hartree potential    :          -0.00000000 Ha          -0.00000000 eV
  | Sum of eigenvalues per atom                           :        -827.21780051 eV
  | Total energy (T->0) per atom                          :       -1485.30820806 eV  <-- do not rely on this value for anything but (periodic) metals
  | Electronic free energy per atom                       :       -1485.30820806 eV
  Evaluating new KS density.
  Integration grid: deviation in total charge (<rho> - N_e) =   2.664535E-15
  | <rho_up-rho_dn> = N_up-N_dn =      3.0000; <|rho_up-rho_dn|> =      3.0000

  Self-consistency convergence accuracy:
  | Change of charge/spin density :  0.3861E-03  0.3107E-03
  | Change of unmixed KS charge/spin density :  0.4013E-03  0.3042E-03
  | Change of sum of eigenvalues  : -0.5500E-01 eV
  | Change of total energy        :  0.2834E-05 eV


------------------------------------------------------------
  End self-consistency iteration #     3       :  max(cpu_time)    wall_clock(cpu1)
  | Time for this iteration                     :        0.333 s           0.109 s
  | Charge density update                       :        0.003 s           0.004 s
  | Density mixing                              :        0.319 s           0.095 s
  | Hartree multipole update                    :        0.001 s           0.001 s
  | Hartree multipole summation                 :        0.001 s           0.001 s
  | Integration                                 :        0.008 s           0.007 s
  | Solution of K.-S. eqns.                     :        0.001 s           0.001 s
  | Total energy evaluation                     :        0.000 s           0.000 s

  Partial memory accounting:
  | Current value for overall tracked memory usage:
  |   Minimum:        5.445 MB (on task 3)
  |   Maximum:        5.527 MB (on task 0)
  |   Average:        5.484 MB
  | Peak value for overall tracked memory usage:
  |   Minimum:        5.569 MB (on task 3 after allocating wave)
  |   Maximum:        5.651 MB (on task 0 after allocating wave)
  |   Average:        5.608 MB
  | Largest tracked array allocation so far:
  |   Minimum:        1.787 MB (previous_rho_gradient_diff on task 3)
  |   Maximum:        1.813 MB (previous_rho_gradient_diff on task 0)
  |   Average:        1.799 MB
  Note:  These values currently only include a subset of arrays which are explicitly tracked.
  The "true" memory usage will be greater.
------------------------------------------------------------

------------------------------------------------------------
          Begin self-consistency iteration #    4

  Date     :  20260722, Time     :  122544.215
------------------------------------------------------------
  Pulay mixing of updated and previous charge densities.
  Available memory per node after mixing [GB]:   1005.88
  Renormalizing the density to the exact electron count on the 3D integration grid.
  | Formal number of electrons (from input files) :       7.0000000000
  | Integrated number of electrons on 3D grid     :       7.0000000000
  | Charge integration error                      :       0.0000000000
  | Normalization factor for density and gradient :       1.0000000000

  Evaluating partitioned Hartree potential by multipole expansion.
  | Original multipole sum: apparent total charge =   0.618611E-13
  | Sum of charges compensated after spline to logarithmic grids =   0.777112E-07
  | Analytical far-field extrapolation by fixed multipoles:
  | Hartree multipole sum: apparent total charge =   0.618761E-13
  Summing up the Hartree potential.
  Time summed over all CPUs for potential: real work        0.001 s, elapsed        0.001 s
  | RMS charge density error from multipole expansion :   0.602789E-14

  Integrating Hamiltonian matrix: batch-based integration.
  Time summed over all CPUs for integration: real work        0.029 s, elapsed        0.030 s

  Updating Kohn-Sham eigenvalues and eigenvectors using ELSI and the ELPA eigensolver.
  Starting ELPA eigensolver
  Finished transformation to standard eigenproblem
  | Time :     0.000 s
  Finished solving standard eigenproblem
  | Time :     0.001 s
  Finished back-transformation of eigenvectors
  | Time :     0.000 s
  Starting ELPA eigensolver
  Finished transformation to standard eigenproblem
  | Time :     0.000 s
  Finished solving standard eigenproblem
  | Time :     0.000 s
  Finished back-transformation of eigenvectors
  | Time :     0.000 s

  Obtaining occupation numbers and electronic chemical potential using ELSI.
  | Note that, for insulating systems, the printed 'chemical potential' value is not uniquely defined.
  | It can be anywhere in the energy gap, as long as it correctly separates occupied and unoccupied states.
  | In systems with a gap, the physically relevant chemical potential is the VBM or HOMO.

  | Chemical potential (Fermi level):    -6.22855465 eV
  Current spin moment of the entire structure :
  | N = N_up - N_down :    3.00
  | S                 :    1.50
  | J                 :    4.00

  Highest occupied state (VBM) at     -8.31291068 eV
  | Occupation number:      1.00000000
  | Spin channel:        1

  Lowest unoccupied state (CBM) at    -4.14419861 eV
  | Occupation number:      0.00000000
  | Spin channel:        2

  Overall HOMO-LUMO gap:      4.16871207 eV.

  Total energy components:
  | Sum of eigenvalues            :         -30.39979499 Ha        -827.22051021 eV
  | XC energy correction          :          -6.71442974 Ha        -182.70892929 eV
  | XC potential correction       :           8.62387511 Ha         234.66758150 eV
  | Free-atom electrostatic energy:         -25.88607749 Ha        -704.39600783 eV
  | Hartree energy correction     :          -0.20764626 Ha          -5.65034224 eV
  | Entropy correction            :          -0.00000000 Ha          -0.00000000 eV
  | ---------------------------
  | Total energy                  :         -54.58407337 Ha       -1485.30820808 eV
  | Total energy, T -> 0          :         -54.58407337 Ha       -1485.30820808 eV  <-- do not rely on this value for anything but (periodic) metals
  | Electronic free energy        :         -54.58407337 Ha       -1485.30820808 eV

  Derived energy quantities:
  | Kinetic energy                :          54.51679906 Ha        1483.47758085 eV
  | Electrostatic energy          :        -102.38644269 Ha       -2786.07685964 eV
  | Energy correction for multipole
  | error in Hartree potential    :          -0.00000000 Ha          -0.00000000 eV
  | Sum of eigenvalues per atom                           :        -827.22051021 eV
  | Total energy (T->0) per atom                          :       -1485.30820808 eV  <-- do not rely on this value for anything but (periodic) metals
  | Electronic free energy per atom                       :       -1485.30820808 eV
  Evaluating new KS density.
  Integration grid: deviation in total charge (<rho> - N_e) =  -4.440892E-15
  | <rho_up-rho_dn> = N_up-N_dn =      3.0000; <|rho_up-rho_dn|> =      3.0000

  Self-consistency convergence accuracy:
  | Change of charge/spin density :  0.3163E-04  0.1881E-04
  | Change of unmixed KS charge/spin density :  0.1817E-03  0.1269E-03
  | Change of sum of eigenvalues  : -0.2710E-02 eV
  | Change of total energy        : -0.1620E-07 eV


------------------------------------------------------------
  End self-consistency iteration #     4       :  max(cpu_time)    wall_clock(cpu1)
  | Time for this iteration                     :        0.118 s           0.022 s
  | Charge density update                       :        0.004 s           0.004 s
  | Density mixing                              :        0.103 s           0.008 s
  | Hartree multipole update                    :        0.001 s           0.000 s
  | Hartree multipole summation                 :        0.001 s           0.002 s
  | Integration                                 :        0.008 s           0.007 s
  | Solution of K.-S. eqns.                     :        0.001 s           0.001 s
  | Total energy evaluation                     :        0.000 s           0.000 s

  Partial memory accounting:
  | Current value for overall tracked memory usage:
  |   Minimum:        5.445 MB (on task 3)
  |   Maximum:        5.527 MB (on task 0)
  |   Average:        5.484 MB
  | Peak value for overall tracked memory usage:
  |   Minimum:        5.569 MB (on task 3 after allocating wave)
  |   Maximum:        5.651 MB (on task 0 after allocating wave)
  |   Average:        5.608 MB
  | Largest tracked array allocation so far:
  |   Minimum:        1.787 MB (previous_rho_gradient_diff on task 3)
  |   Maximum:        1.813 MB (previous_rho_gradient_diff on task 0)
  |   Average:        1.799 MB
  Note:  These values currently only include a subset of arrays which are explicitly tracked.
  The "true" memory usage will be greater.
------------------------------------------------------------

------------------------------------------------------------
          Begin self-consistency iteration #    5

  Date     :  20260722, Time     :  122544.347
------------------------------------------------------------
  Pulay mixing of updated and previous charge densities.
  Available memory per node after mixing [GB]:   1005.88
  Renormalizing the density to the exact electron count on the 3D integration grid.
  | Formal number of electrons (from input files) :       7.0000000000
  | Integrated number of electrons on 3D grid     :       7.0000000000
  | Charge integration error                      :      -0.0000000000
  | Normalization factor for density and gradient :       1.0000000000

  Evaluating partitioned Hartree potential by multipole expansion.
  | Original multipole sum: apparent total charge =  -0.397890E-14
  | Sum of charges compensated after spline to logarithmic grids =   0.778063E-07
  | Analytical far-field extrapolation by fixed multipoles:
  | Hartree multipole sum: apparent total charge =  -0.396866E-14
  Summing up the Hartree potential.
  Time summed over all CPUs for potential: real work        0.001 s, elapsed        0.001 s
  | RMS charge density error from multipole expansion :   0.600815E-14

  Integrating Hamiltonian matrix: batch-based integration.
  Time summed over all CPUs for integration: real work        0.029 s, elapsed        0.030 s

  Updating Kohn-Sham eigenvalues and eigenvectors using ELSI and the ELPA eigensolver.
  Starting ELPA eigensolver
  Finished transformation to standard eigenproblem
  | Time :     0.000 s
  Finished solving standard eigenproblem
  | Time :     0.000 s
  Finished back-transformation of eigenvectors
  | Time :     0.000 s
  Starting ELPA eigensolver
  Finished transformation to standard eigenproblem
  | Time :     0.000 s
  Finished solving standard eigenproblem
  | Time :     0.000 s
  Finished back-transformation of eigenvectors
  | Time :     0.000 s

  Obtaining occupation numbers and electronic chemical potential using ELSI.
  | Note that, for insulating systems, the printed 'chemical potential' value is not uniquely defined.
  | It can be anywhere in the energy gap, as long as it correctly separates occupied and unoccupied states.
  | In systems with a gap, the physically relevant chemical potential is the VBM or HOMO.

  | Chemical potential (Fermi level):    -6.22833419 eV
  Current spin moment of the entire structure :
  | N = N_up - N_down :    3.00
  | S                 :    1.50
  | J                 :    4.00

  Highest occupied state (VBM) at     -8.31267286 eV
  | Occupation number:      1.00000000
  | Spin channel:        1

  Lowest unoccupied state (CBM) at    -4.14399552 eV
  | Occupation number:      0.00000000
  | Spin channel:        2

  Overall HOMO-LUMO gap:      4.16867734 eV.

  Total energy components:
  | Sum of eigenvalues            :         -30.39973255 Ha        -827.21881104 eV
  | XC energy correction          :          -6.71443149 Ha        -182.70897685 eV
  | XC potential correction       :           8.62387728 Ha         234.66764046 eV
  | Free-atom electrostatic energy:         -25.88607749 Ha        -704.39600783 eV
  | Hartree energy correction     :          -0.20770912 Ha          -5.65205282 eV
  | Entropy correction            :          -0.00000000 Ha          -0.00000000 eV
  | ---------------------------
  | Total energy                  :         -54.58407337 Ha       -1485.30820808 eV
  | Total energy, T -> 0          :         -54.58407337 Ha       -1485.30820808 eV  <-- do not rely on this value for anything but (periodic) metals
  | Electronic free energy        :         -54.58407337 Ha       -1485.30820808 eV

  Derived energy quantities:
  | Kinetic energy                :          54.51668931 Ha        1483.47459453 eV
  | Electrostatic energy          :        -102.38633120 Ha       -2786.07382577 eV
  | Energy correction for multipole
  | error in Hartree potential    :           0.00000000 Ha           0.00000000 eV
  | Sum of eigenvalues per atom                           :        -827.21881104 eV
  | Total energy (T->0) per atom                          :       -1485.30820808 eV  <-- do not rely on this value for anything but (periodic) metals
  | Electronic free energy per atom                       :       -1485.30820808 eV
  Evaluating new KS density.
  Integration grid: deviation in total charge (<rho> - N_e) =  -5.329071E-15
  | <rho_up-rho_dn> = N_up-N_dn =      3.0000; <|rho_up-rho_dn|> =      3.0000

  Self-consistency convergence accuracy:
  | Change of charge/spin density :  0.2751E-04  0.9025E-05
  | Change of unmixed KS charge/spin density :  0.8214E-05  0.5282E-05
  | Change of sum of eigenvalues  :  0.1699E-02 eV
  | Change of total energy        : -0.5512E-08 eV


------------------------------------------------------------
  End self-consistency iteration #     5       :  max(cpu_time)    wall_clock(cpu1)
  | Time for this iteration                     :        0.084 s           0.021 s
  | Charge density update                       :        0.003 s           0.003 s
  | Density mixing                              :        0.070 s           0.007 s
  | Hartree multipole update                    :        0.001 s           0.001 s
  | Hartree multipole summation                 :        0.001 s           0.001 s
  | Integration                                 :        0.008 s           0.008 s
  | Solution of K.-S. eqns.                     :        0.001 s           0.000 s
  | Total energy evaluation                     :        0.000 s           0.001 s

  Partial memory accounting:
  | Current value for overall tracked memory usage:
  |   Minimum:        5.445 MB (on task 3)
  |   Maximum:        5.527 MB (on task 0)
  |   Average:        5.484 MB
  | Peak value for overall tracked memory usage:
  |   Minimum:        5.569 MB (on task 3 after allocating wave)
  |   Maximum:        5.651 MB (on task 0 after allocating wave)
  |   Average:        5.608 MB
  | Largest tracked array allocation so far:
  |   Minimum:        1.787 MB (previous_rho_gradient_diff on task 3)
  |   Maximum:        1.813 MB (previous_rho_gradient_diff on task 0)
  |   Average:        1.799 MB
  Note:  These values currently only include a subset of arrays which are explicitly tracked.
  The "true" memory usage will be greater.
------------------------------------------------------------

------------------------------------------------------------
          Begin self-consistency iteration #    6

  Date     :  20260722, Time     :  122545.356
------------------------------------------------------------
  Pulay mixing of updated and previous charge densities.
  Available memory per node after mixing [GB]:   1005.88
  Renormalizing the density to the exact electron count on the 3D integration grid.
  | Formal number of electrons (from input files) :       7.0000000000
  | Integrated number of electrons on 3D grid     :       7.0000000000
  | Charge integration error                      :      -0.0000000000
  | Normalization factor for density and gradient :       1.0000000000

  Evaluating partitioned Hartree potential by multipole expansion.
  | Original multipole sum: apparent total charge =  -0.139274E-13
  | Sum of charges compensated after spline to logarithmic grids =   0.778034E-07
  | Analytical far-field extrapolation by fixed multipoles:
  | Hartree multipole sum: apparent total charge =  -0.139255E-13
  Summing up the Hartree potential.
  Time summed over all CPUs for potential: real work        0.001 s, elapsed        0.001 s
  | RMS charge density error from multipole expansion :   0.572161E-14

  Integrating Hamiltonian matrix: batch-based integration.
  Time summed over all CPUs for integration: real work        0.029 s, elapsed        0.030 s

  Updating Kohn-Sham eigenvalues and eigenvectors using ELSI and the ELPA eigensolver.
  Starting ELPA eigensolver
  Finished transformation to standard eigenproblem
  | Time :     0.000 s
  Finished solving standard eigenproblem
  | Time :     0.000 s
  Finished back-transformation of eigenvectors
  | Time :     0.000 s
  Starting ELPA eigensolver
  Finished transformation to standard eigenproblem
  | Time :     0.000 s
  Finished solving standard eigenproblem
  | Time :     0.000 s
  Finished back-transformation of eigenvectors
  | Time :     0.000 s

  Obtaining occupation numbers and electronic chemical potential using ELSI.
  | Note that, for insulating systems, the printed 'chemical potential' value is not uniquely defined.
  | It can be anywhere in the energy gap, as long as it correctly separates occupied and unoccupied states.
  | In systems with a gap, the physically relevant chemical potential is the VBM or HOMO.

  | Chemical potential (Fermi level):    -6.22830537 eV
  Current spin moment of the entire structure :
  | N = N_up - N_down :    3.00
  | S                 :    1.50
  | J                 :    4.00

  Highest occupied state (VBM) at     -8.31264082 eV
  | Occupation number:      1.00000000
  | Spin channel:        1

  Lowest unoccupied state (CBM) at    -4.14396993 eV
  | Occupation number:      0.00000000
  | Spin channel:        2

  Overall HOMO-LUMO gap:      4.16867089 eV.

  Total energy components:
  | Sum of eigenvalues            :         -30.39972089 Ha        -827.21849387 eV
  | XC energy correction          :          -6.71443323 Ha        -182.70902445 eV
  | XC potential correction       :           8.62387948 Ha         234.66770052 eV
  | Free-atom electrostatic energy:         -25.88607749 Ha        -704.39600783 eV
  | Hartree energy correction     :          -0.20772124 Ha          -5.65238245 eV
  | Entropy correction            :          -0.00000000 Ha          -0.00000000 eV
  | ---------------------------
  | Total energy                  :         -54.58407337 Ha       -1485.30820808 eV
  | Total energy, T -> 0          :         -54.58407337 Ha       -1485.30820808 eV  <-- do not rely on this value for anything but (periodic) metals
  | Electronic free energy        :         -54.58407337 Ha       -1485.30820808 eV

  Derived energy quantities:
  | Kinetic energy                :          54.51670620 Ha        1483.47505421 eV
  | Electrostatic energy          :        -102.38634634 Ha       -2786.07423784 eV
  | Energy correction for multipole
  | error in Hartree potential    :           0.00000000 Ha           0.00000000 eV
  | Sum of eigenvalues per atom                           :        -827.21849387 eV
  | Total energy (T->0) per atom                          :       -1485.30820808 eV  <-- do not rely on this value for anything but (periodic) metals
  | Electronic free energy per atom                       :       -1485.30820808 eV

  Self-consistency convergence accuracy:
  | Change of charge/spin density :  0.2534E-05  0.1428E-05
  | Change of unmixed KS charge/spin density :  0.8167E-05  0.7411E-05
  | Change of sum of eigenvalues  :  0.3172E-03 eV
  | Change of total energy        :  0.7751E-09 eV

  Writing Kohn-Sham eigenvalues.

  Spin-up eigenvalues:

  State    Occupation    Eigenvalue [Ha]    Eigenvalue [eV]
      1       1.00000         -14.123309         -384.31478
      2       1.00000          -0.730962          -19.89050
      3       1.00000          -0.305484           -8.31264
      4       1.00000          -0.305484           -8.31264
      5       1.00000          -0.305484           -8.31264
      6       0.00000           0.284427            7.73965
      7       0.00000           0.284427            7.73965

  Spin-down eigenvalues:

  State    Occupation    Eigenvalue [Ha]    Eigenvalue [eV]
      1       1.00000         -14.065327         -382.73702
      2       1.00000          -0.563671          -15.33827
      3       0.00000          -0.152288           -4.14397
      4       0.00000          -0.152288           -4.14397
      5       0.00000          -0.152288           -4.14397
      6       0.00000           0.374846           10.20008
      7       0.00000           0.374846           10.20008

  Current spin moment of the entire structure :
  | N = N_up - N_down :    3.00
  | S                 :    1.50
  | J                 :    4.00

  Highest occupied state (VBM) at     -8.31264082 eV
  | Occupation number:      1.00000000
  | Spin channel:        1

  Lowest unoccupied state (CBM) at    -4.14396993 eV
  | Occupation number:      0.00000000
  | Spin channel:        2

  Overall HOMO-LUMO gap:      4.16867089 eV.

  | Chemical Potential                          :    -6.22830537 eV
  | Note that, for insulating systems, the printed 'chemical potential' value is not uniquely defined.
  | It can be anywhere in the energy gap, as long as it correctly separates occupied and unoccupied states.
  | In systems with a gap, the physically relevant chemical potential is the VBM or HOMO.

  Self-consistency cycle converged.


------------------------------------------------------------
  End self-consistency iteration #     6       :  max(cpu_time)    wall_clock(cpu1)
  | Time for this iteration                     :        0.339 s           0.120 s
  | Charge density update                       :        0.000 s           0.000 s
  | Density mixing                              :        0.328 s           0.110 s
  | Hartree multipole update                    :        0.001 s           0.001 s
  | Hartree multipole summation                 :        0.001 s           0.001 s
  | Integration                                 :        0.007 s           0.007 s
  | Solution of K.-S. eqns.                     :        0.001 s           0.001 s
  | Total energy evaluation                     :        0.000 s           0.000 s

  Partial memory accounting:
  | Current value for overall tracked memory usage:
  |   Minimum:        5.445 MB (on task 3)
  |   Maximum:        5.527 MB (on task 0)
  |   Average:        5.484 MB
  | Peak value for overall tracked memory usage:
  |   Minimum:        5.569 MB (on task 3 after allocating wave)
  |   Maximum:        5.651 MB (on task 0 after allocating wave)
  |   Average:        5.608 MB
  | Largest tracked array allocation so far:
  |   Minimum:        1.787 MB (previous_rho_gradient_diff on task 3)
  |   Maximum:        1.813 MB (previous_rho_gradient_diff on task 0)
  |   Average:        1.799 MB
  Note:  These values currently only include a subset of arrays which are explicitly tracked.
  The "true" memory usage will be greater.
------------------------------------------------------------

  Energy and forces in a compact form:
  | Total energy uncorrected      :         -0.148530820807986E+04 eV
  | Total energy corrected        :         -0.148530820807986E+04 eV  <-- do not rely on this value for anything but (periodic) metals
  | Electronic free energy        :         -0.148530820807986E+04 eV

  ------------------------------------ 
  Start decomposition of the XC Energy 
  ------------------------------------ 
  X and C from original XC functional choice 
  Hartree-Fock Energy :          0.000000000 Ha              0.000000000 eV
  X Energy            :         -6.535960570 Ha           -177.852536141 eV
  C Energy            :         -0.178472665 Ha             -4.856488312 eV
  XC Energy w/o HF    :         -6.714433235 Ha           -182.709024454 eV
  Total XC Energy     :         -6.714433235 Ha           -182.709024454 eV
  ------------------------------------ 
  LDA X and C from self-consistent density 
  X Energy LDA        :         -5.884036409 Ha           -160.112777144 eV
  C Energy LDA        :         -0.426290971 Ha            -11.599967514 eV
  ------------------------------------ 
  End decomposition of the XC Energy 
  ------------------------------------ 

------------------------------------------------------------

------------------------------------------------------------------------------
  Final output of selected total energy values:

  The following output summarizes some interesting total energy values
  at the end of a run (AFTER all relaxation, molecular dynamics, etc.).

  | Total energy of the DFT / Hartree-Fock s.c.f. calculation      :          -1485.308208080 eV
  | Final zero-broadening corrected energy (caution - metals only) :          -1485.308208080 eV
  | For reference only, the value of 1 Hartree used in FHI-aims is :             27.211384500 eV

  Before relying on these values, please be sure to understand exactly which
  total energy value is referred to by a given number. Different objects may
  all carry the same name 'total energy'. Definitions:

  Total energy of the DFT / Hartree-Fock s.c.f. calculation:
  | Note that this energy does not include ANY quantities calculated after the
  | s.c.f. cycle, in particular not ANY RPA, MP2, etc. many-body perturbation terms.

  Final zero-broadening corrected energy:
  | For metallic systems only, a broadening of the occupation numbers at the Fermi
  | level can be extrapolated back to zero broadening by an electron-gas inspired
  | formula. For all systems that are not real metals, this value can be
  | meaningless and should be avoided.

------------------------------------------------------------------------------
  Methods described in the following list of references were used in this FHI-aims run.
  If you publish the results, please make sure to cite these reference if they apply.
  FHI-aims is an academic code, and for our developers (often, Ph.D. students
  and postdocs), scientific credit in the community is essential.
  Thank you for helping us!

  For any use of FHI-aims, please cite:

    Volker Blum, Ralf Gehrke, Felix Hanke, Paula Havu, Ville Havu,
    Xinguo Ren, Karsten Reuter, and Matthias Scheffler
    'Ab initio molecular simulations with numeric atom-centered orbitals'
    Computer Physics Communications 180, 2175-2196 (2009)
    http://doi.org/10.1016/j.cpc.2009.06.022


  The ELSI infrastructure was used in your run to solve the Kohn-Sham electronic structure.
  Please check out https://wordpress.elsi-interchange.org to learn more.
  If scalability is important for your project, please acknowledge ELSI by citing:

    V. W-z. Yu, F. Corsetti, A. Garcia, W. P. Huhn, M. Jacquelin, W. Jia,
    B. Lange, L. Lin, J. Lu, W. Mi, A. Seifitokaldani, A. Vazquez-Mayagoitia,
    C. Yang, H. Yang, and V. Blum
    'ELSI: A unified software interface for Kohn-Sham electronic structure solvers'
    Computer Physics Communications 222, 267-285 (2018).
    http://doi.org/10.1016/j.cpc.2017.09.007


  For the real-space grid partitioning and parallelization used in this calculation, please cite:

    Ville Havu, Volker Blum, Paula Havu, and Matthias Scheffler,
    'Efficient O(N) integration for all-electron electronic structure calculation'
    'using numerically tabulated basis functions'
    Journal of Computational Physics 228, 8367-8379 (2009).
    http://doi.org/10.1016/j.jcp.2009.08.008

  Of course, there are many other important community references, e.g., those cited in the
  above references. Our list is limited to references that describe implementations in the
  FHI-aims code. The reason is purely practical (length of this list) - please credit others as well.
------------------------------------------------------------
Warnings summary:

At least    1 warnings were raised during execution.

------------------------------------------------------------
          Leaving FHI-aims.
          Date     :  20260722, Time     :  122545.893

          Computational steps:
          | Number of self-consistency cycles          :            6
          | Number of SCF (re)initializations          :            1

          Detailed time accounting                     :  max(cpu_time)    wall_clock(cpu1)
          | Total time                                  :        1.719 s           3.790 s
          | Preparation time                            :        0.104 s           0.104 s
          | Boundary condition initalization            :        0.001 s           0.000 s
          | Grid partitioning                           :        0.005 s           0.005 s
          | Preloading free-atom quantities on grid     :        0.007 s           0.007 s
          | Free-atom superposition energy              :        0.004 s           0.004 s
          | Total time for integrations                 :        0.055 s           0.053 s
          | Total time for solution of K.-S. equations  :        0.007 s           0.007 s
          | Total time for density update               :        0.022 s           0.022 s
          | Total time for mixing                       :        1.464 s           0.788 s
          | Total time for Hartree multipole update     :        0.006 s           0.006 s
          | Total time for Hartree multipole sum        :        0.010 s           0.010 s
          | Total time for total energy evaluation      :        0.001 s           0.001 s
          | Total time for scaled ZORA corrections      :        0.000 s           0.000 s

          Partial memory accounting:
          | Residual value for overall tracked memory usage across tasks:     0.000000 MB (should be 0.000000 MB)
          | Peak values for overall tracked memory usage:
          |   Minimum:        5.569 MB (on task 3 after allocating wave)
          |   Maximum:        5.651 MB (on task 0 after allocating wave)
          |   Average:        5.608 MB
          | Largest tracked array allocation:
          |   Minimum:        1.787 MB (previous_rho_gradient_diff on task 3)
          |   Maximum:        1.813 MB (previous_rho_gradient_diff on task 0)
          |   Average:        1.799 MB
          Note:  These values currently only include a subset of arrays which are explicitly tracked.
          The "true" memory usage will be greater.

          Have a nice day.
------------------------------------------------------------
