------------------------------------------------------------
          Invoking FHI-aims ...

          When using FHI-aims, please cite the following reference:

            Volker Blum, Ralf Gehrke, Felix Hanke, Paula Havu,
            Ville Havu, Xinguo Ren, Karsten Reuter, and Matthias Scheffler,
            'Ab Initio Molecular Simulations with Numeric Atom-Centered Orbitals',
            Computer Physics Communications 180, 2175-2196 (2009)

          In addition, many other developments in FHI-aims are likely important for
          your particular application. If so, please cite them. A partial list of references
          is written at the end of this file. Thank you for giving credit to the authors
          of these developments.

          For general information about FHI-aims please find us at

            https://fhi-aims.org

          Online tutorials can be found at

            https://fhi-aims-club.gitlab.io/tutorials/tutorials-overview/

          For any questions about FHI-aims, please visit our slack channel at

            https://fhi-aims.slack.com

          and our main development and support site at

            https://aims-git.rz-berlin.mpg.de .

          The latter site, in particular, has a wiki to collect information, as well
          as an issue tracker to log discussions, suggest improvements, and report issues
          or bugs. https://aims-git.rz-berlin.mpg.de is also the main development site
          of the project and all new and updated code versions can be obtained there.
          Please send an email to aims-coordinators@ms1p.org and we will add
          you to these sites. They are for you and everyone is welcome there.

------------------------------------------------------------



  Date     :  20260722, Time     :  122639.952
  Time zero on CPU 1             :   0.187681000000000E+00  s.
  Internal wall clock time zero  :           553955199.952  s.

  FHI-aims created a unique identifier for this run for later identification
  aims_uuid : 8B01634E-E5D4-42C5-A503-8F42739AB216

  Build configuration of the current instance of FHI-aims
  -------------------------------------------------------
  FHI-aims version      : 260331
  Commit number         : GITDIR-NOTFOUND
  CMake host system     : Linux-4.18.0-553.97.1.el8_10.x86_64
  CMake version         : 3.31.6
  OS Distribution       : Rocky Linux 8.10 (Green Obsidian)
  Built on              : Intel(R) Xeon(R) w5-3435X
  Fortran compiler      : /mnt/sw/nix/store/pa59vldasm7gxpr7dkijhk09q5qq63q1-openmpi-4.1.8/bin/mpifort (GNU) version 13.3.0
  Fortran compiler flags: -O2 -fallow-argument-mismatch -ffree-line-length-none
  C compiler            : /mnt/sw/nix/store/pa59vldasm7gxpr7dkijhk09q5qq63q1-openmpi-4.1.8/bin/mpicc (GNU) version 13.3.0
  C compiler flags      : -O2
  C++ compiler          : /mnt/sw/nix/store/pa59vldasm7gxpr7dkijhk09q5qq63q1-openmpi-4.1.8/bin/mpicxx (GNU) version 13.3.0
  C++ compiler flags    : -O2
  HIP compiler          :
  HIP compiler flags    :
  HIP GPU arch          :
  Using MPI
  Using ScaLAPACK
  Using LibXC
  Using i-PI
  Using RLSY
  Using GREENX
  Linking against: /mnt/sw/nix/store/dwd607jzx9m5bdd100br72s3b6g05zrf-intel-oneapi-mkl-2024.2.2/mkl/2024.2/lib/libmkl_intel_lp64.so
                   /mnt/sw/nix/store/dwd607jzx9m5bdd100br72s3b6g05zrf-intel-oneapi-mkl-2024.2.2/mkl/2024.2/lib/libmkl_sequential.so
                   /mnt/sw/nix/store/dwd607jzx9m5bdd100br72s3b6g05zrf-intel-oneapi-mkl-2024.2.2/mkl/2024.2/lib/libmkl_core.so
                   /mnt/sw/nix/store/dwd607jzx9m5bdd100br72s3b6g05zrf-intel-oneapi-mkl-2024.2.2/mkl/2024.2/lib/libmkl_blacs_openmpi_lp64.so
                   /mnt/sw/nix/store/dwd607jzx9m5bdd100br72s3b6g05zrf-intel-oneapi-mkl-2024.2.2/mkl/2024.2/lib/libmkl_scalapack_lp64.so

  Using        4 parallel tasks.
  Task        0 on host worker6100 reporting.
  Task        1 on host worker6100 reporting.
  Task        2 on host worker6100 reporting.
  Task        3 on host worker6100 reporting.

  Obtaining array dimensions for all initial allocations:
  
  -----------------------------------------------------------------------
  Parsing control.in (first pass over file, find array dimensions only).
  The contents of control.in will be repeated verbatim below
  unless switched off by setting 'verbatim_writeout .false.' .
  in the first line of control.in .
  -----------------------------------------------------------------------
  
  override_warning_libxc             True
  xc                                 pbe
  spin                               collinear
  charge                             0
  relativistic                       atomic_zora scalar
  atomic_solver_xc                   pbe
  ionic_solver_xc                    pbe
  
  occupation_type                    gaussian 0.0000001
  
  sc_accuracy_rho                    1e-05
  sc_accuracy_eev                    1e-03
  sc_accuracy_etot                   1e-06
  
  charge_mix_param                   0.1
  n_max_pulay                        8
  occupation_acc                     1e-9
  max_zeroin                         20000
  
  default_initial_moment             3.0
  
  
  # ============================================================
  # Tight species defaults for P: 15_P_default
  # ============================================================
  ################################################################################
  #
  #  FHI-aims code project
  #  Volker Blum, Maria Dragoumi, Sebastian Kokott 2020
  #
  #  Suggested "intermediate" defaults for P atom (to be pasted into control.in file)
  #
  ################################################################################
    species        P
  #     global species definitions
      nucleus             15
      mass                30.973762
  #
      l_hartree           6
  #
      cut_pot             4.0          2.0  1.0
      basis_dep_cutoff    1e-4
  #
      radial_base         43 7.0
      radial_multiplier   2
      angular_grids       specified
        division   0.2995   50
        division   0.5998  110
        division   0.9240  194
        division   1.0921  302
        division   1.2863  434
  #      division   1.3165  590
  #      division   1.4113  770
  #      division   1.5128  974
  #      division   2.4980 1202
        outer_grid  434
  ################################################################################
  #
  #  Definition of "minimal" basis
  #
  ################################################################################
  #     valence basis states
      valence      3  s   2.
      valence      3  p   3.
  #     ion occupancy
      ion_occ      3  s   1.
      ion_occ      3  p   2.
  ################################################################################
  #
  #  Suggested additional basis functions. For production calculations,
  #  uncomment them one after another (the most important basis functions are
  #  listed first).
  #
  #  Constructed for dimers: 1.625 A, 1.875 A, 2.5 A, 3.25 A, 4.0 A
  #
  ################################################################################
  #  "First tier" - improvements: -726.20 meV to -35.91 meV
       ionic 3 d auto
       ionic 3 p auto
       hydro 4 f 6.2
    for_aux   hydro 5 g 8.6
       ionic 3 s auto
  #  "Second tier" - improvements: -16.02 meV to -1.71 meV
  #     hydro 4 d 6.2
  #     hydro 4 p 9.2
  #     hydro 5 f 9.8
  #     hydro 1 s 0.7
  #     hydro 5 g 13.2
  #  "Third tier" - improvements: -1.82 meV to -0.20 meV
  #     hydro 3 p 2.5
  #     hydro 4 d 6.4
  #     hydro 5 f 11.2
  #     hydro 2 s 1.5
  #  "Fourth tier" - improvements: -0.91 meV to -0.17 meV
  #     hydro 3 d 16.8
  #     hydro 5 g 18
  #     hydro 4 p 4.5
  #     hydro 3 s 2.1
  #  Further basis functions that fell out of the optimization - < -0.09 meV
  #     hydro 4 p 10.4
  #     hydro 4 d 17.6
  #     hydro 4 s 11.2
  ################################################################################
  #
  # For methods that use the localized form of the "resolution of identity" for
  # the two-electron Coulomb operator (RI_method LVL), particularly Hartree-Fock and
  # hybrid density functional calculations, the highest accuracy can be obtained by
  # uncommenting the line beginning with "for_aux"  below, thus adding an extra g radial
  # function to the construction of the product basis set for the expansion.
  # See Ref. New J. Phys. 17, 093020 (2015) for more information, particularly Figs. 1 and 6.
  #
  ################################################################################
  #
  # for_aux hydro 5 g 6.0
  
  -----------------------------------------------------------------------
  Completed first pass over input file control.in .
  -----------------------------------------------------------------------
  
  
  -----------------------------------------------------------------------
  Parsing geometry.in (first pass over file, find array dimensions only).
  The contents of geometry.in will be repeated verbatim below
  unless switched off by setting 'verbatim_writeout .false.' .
  in the first line of geometry.in .
  -----------------------------------------------------------------------
  
  atom 0.0000000000 0.0000000000 0.0000000000 P
  
  -----------------------------------------------------------------------
  Completed first pass over input file geometry.in .
  -----------------------------------------------------------------------
  

  Basic array size parameters:
  | Number of species                 :        1
  | Number of atoms                   :        1
  | Max. basis fn. angular momentum   :        4
  | Max. atomic/ionic basis occupied n:        3
  | Max. number of basis fn. types    :        3
  | Max. radial fns per species/type  :        5
  | Max. logarithmic grid size        :     1352
  | Max. radial integration grid size :       87
  | Max. angular integration grid size:      434
  | Max. angular grid division number :        8
  | Radial grid for Hartree potential :     1352
  | Number of spin channels           :        2

  Definition of standardized fundamental physical constants in this FHI-aims run:
  | Using the set of values used in FHI-aims up to 2024, which combines values from
  | different CODATA sets - see constants.f90.
  | Use the 'codata' keyword in control.in to change this selection.

  Memory overcommitment is allowed on your operating system.

------------------------------------------------------------
          Reading file control.in.
------------------------------------------------------------
  XC: Using PBE gradient-corrected functionals.
  Spin treatment: Spin density functional theory - collinear spins.
  Charge =   0.000000E+00: Neutral system requested explicitly.
  Scalar relativistic treatment of kinetic energy: on-site free-atom approximation to ZORA.
  Atomic Solver XC: Using user-defined functional for generating the minimal NAO basis functions.
  Note that only the following functionals are available: kli, pz-lda, pw-lda, vwn, vwn-gauss, pw91_gga, pbe, rpbe, revpbe, pbeint, pbesol, blyp.
  Ionic Solver XC: Using user-defined functional for generating the minimal NAO basis functions.
  Note that only the following functionals are available: kli, pz-lda, pw-lda, vwn, vwn-gauss, pw91_gga, pbe, rpbe, revpbe, pbeint, pbesol, blyp.
  Occupation type: Gaussian broadening, width =   0.100000E-06 eV.
  Convergence accuracy of self-consistent charge density:  0.1000E-04
  Convergence accuracy of sum of eigenvalues:  0.1000E-02
  Convergence accuracy of total energy:  0.1000E-05
  Charge density mixing - mixing parameter:     0.1000
  Pulay mixing - number of memorized iterations:    8
  Accuracy of occupation numbers  :  0.1000E-08
  Maximum # of zeroin steps  : ****
  Initial spin moment per atom:   3.0000

  Reading configuration options for species P                   .
  | Found nuclear charge :  15.0000
  | Found atomic mass :    30.973762000000001      amu
  | Found l_max for Hartree potential  :   6
  | Found cutoff potl. onset [A], width [A], scale factor :    4.00000    2.00000    1.00000
  | Threshold for basis-dependent cutoff potential is   0.100000E-03
  | Found data for basic radial integration grid :    43 points, outermost radius =    7.000 A
  | Found multiplier for basic radial grid :   2
  | Found angular grid specification: user-specified.
  | Specified grid contains     6 separate shells.
  | Check grid settings after all constraints further below.
  | Found free-atom valence shell :  3 s   2.000
  | Found free-atom valence shell :  3 p   3.000
  | Found free-ion valence shell :  3 s   1.000
  | Found free-ion valence shell :  3 p   2.000
  | Found ionic basis function :  3 d , default cutoff radius.
  | Found ionic basis function :  3 p , default cutoff radius.
  | Found hydrogenic basis function :  4 f   6.200
  | Found hydrogenic extended basis function :  5 g   8.600
  | Found ionic basis function :  3 s , default cutoff radius.
  Species P                   : Missing cutoff potential type.
  Defaulting to exp(1/x)/(1-x)^2 type cutoff potential.
  Species P : No 'logarithmic' tag. Using default grid for free atom:
  | Default logarithmic grid data [bohr] : 0.1000E-03 0.1000E+03 0.1012E+01
  | Will include ionic basis functions of  2.0-fold positive P                    ion.
  Species P : On-site basis accuracy parameter (for Gram-Schmidt orthonormalisation) not specified.
  Using default value basis_acc =  0.1000000E-03.
  Species P                   : Using default innermost maximum threshold i_radial=  2 for radial functions.
  Species P                   : Default cutoff onset for free atom density etc. : 0.40000000E+01 AA.
  Species P                   : Basic radial grid will be enhanced according to radial_multiplier =   2, to contain    87 grid points.

  Finished reading input file 'control.in'.

------------------------------------------------------------


------------------------------------------------------------
          Reading geometry description geometry.in.
------------------------------------------------------------
  | Isolated single atom, no quantum-mechanical atoms close by.
  Input structure read successfully.
  The structure contains        1 atoms,  and a total of         15.000 electrons.

  Input geometry:
  | No unit cell requested.
  | Atomic structure:
  |       Atom                x [A]            y [A]            z [A]
  |    1: Species P             0.00000000        0.00000000        0.00000000

  Initial moments and charges:
  |  Atom   Moment         Charge        Species
  |     1   0.300000E+01   0.000000E+00   P

  Slab Identifier: This is not a periodic structure.

  Finished reading input file 'geometry.in'.



  Consistency checks for stacksize environment parameter are next.

  | Maximum stacksize for task 0: unlimited
  | Maximum stacksize for task 1: unlimited
  | Maximum stacksize for task 2: unlimited
  | Maximum stacksize for task 3: unlimited
  | Current stacksize for task 0: unlimited
  | Current stacksize for task 1: unlimited
  | Current stacksize for task 2: unlimited
  | Current stacksize for task 3: unlimited

  Consistency checks for the contents of control.in are next.

  MPI_IN_PLACE appears to work with this MPI implementation.
  | Keeping use_mpi_in_place .true. (see manual).
  Target number of points in a grid batch is not set. Defaulting to  100
  Method for grid partitioning is not set. Defaulting to parallel hash+maxmin partitioning.
  Batch size limit is not set. Defaulting to    200
  By default, will store active basis functions for each batch.
  If in need of memory, prune_basis_once .false. can be used to disable this option.
  communication_type for Hartree potential was not specified.
  Defaulting to calc_hartree .
  Defaulting to Pulay charge density mixer.
  Pulay mixer: Number of initial linear mixing iterations not set.
  Defaulting to    0 iterations.
  Work space size for distributed Hartree potential not set.
  Defaulting to   0.200000E+03 MB.
  Mixing parameter for spin density mixing has not been set.
  Using charge_mix_param as default:     0.1000.
  Algorithm-dependent basis array size parameters:
  | n_max_pulay                         :        8
  Maximum number of self-consistency iterations not provided.
  Presetting  1000 iterations.
  Presetting      1001 iterations before the initial mixing cycle
  is restarted anyway using the sc_init_iter criterion / keyword.
  Presetting a factor      1.000 between actual scf density residual
  and density convergence criterion sc_accuracy_rho below which sc_init_iter
  takes no effect.
  Calculation of forces was not defined in control.in. No forces will be calculated.
  Geometry relaxation not requested: no relaxation will be performed.
  No accuracy limit for integral partition fn. given. Defaulting to  0.1000E-14.
  No threshold value for u(r) in integrations given. Defaulting to  0.1000E-05.
  No threshold value for occupation numbers given. Defaulting to  0.0000E+00.
  No accuracy for fermi level given. Defaulting to  0.1000E-19.
  Preferred method for the eigenvalue solver ('KS_method') not specified in 'control.in'.
  Calling BLACS routine to test compilation state
  Since ScaLAPACK support is enabled, defaulting to ELPA (via ELSI).
  Threshold for basis singularities not set.
  Default threshold for basis singularities:  0.1000E-04
  partition_type (choice of integration weights) for integrals was not specified.
  | Using a version of the partition function of Stratmann and coworkers ('stratmann_sparse').
  | At each grid point, the set of atoms used to build the partition table is smoothly restricted to
  | only those atoms whose free-atom density would be non-zero at that grid point.
  Partitioning for Hartree potential was not defined. Using partition_type for integrals.
  | Adjusted default value of keyword multip_moments_threshold to:       0.10000000E-11
  | This value may affect high angular momentum components of the Hartree potential in periodic systems.
  No q(lm)/r^(l+1) cutoff set for long-range Hartree potential.
  | Using default value of  0.100000E-09 .
  | Verify using the multipole_threshold keyword.
  Defaulting to new monopole extrapolation.
  Density update method: automatic selection selected.
  Charge integration errors on the 3D integration grid will be compensated
  by explicit normalization and distribution of residual charges.
  Use the "compensate_multipole_errors" flag to change this behaviour.
  Set 'collect_eigenvectors' to be '.true.' for use_density_matrix .false.
  Found potential conflicts with setting 'use_local_index' for this calculation. Will not set it.

  Consistency checks for the contents of geometry.in are next.

  Number of empty states per atom not set in control.in - providing a guess from actual geometry.
  | Total number of empty states used during s.c.f. cycle:        3
  If you use a very high smearing, use empty_states (per atom!) in control.in to increase this value.

  Structure-dependent array size parameters: 
  | Number of distinct atom types in initial rho :        1
  | Maximum number of distinct radial functions  :       10
  | Maximum number of basis functions            :       34
  | Number of Kohn-Sham states (occupied + empty):       11
------------------------------------------------------------
  After read_input_data [GB]:   1006.01

  Performing system and environment tests:
  | Environment variable OMP_NUM_THREADS correctly set to 1.
  | Checking for ScaLAPACK...
  | Testing pdtran()...
  | All pdtran() tests passed.
  | Testing CPU compatibility for run-time vs. build-time.
  | Reading /proc/cpuinfo for CPU information ...
  | Built for  : Intel(R) Xeon(R) w5-3435X
  *** WARNING: CPU mismatch detected for Node worker6100 : Intel(R) Xeon(R) Platinum 8362 CPU @ 2.80GHz                                                 
** WARNING:
  | WARNING: This FHI-aims executable was built on a different
  CPU type than the CPUs used in this run.

  | Running on different hardware than that on which a code was compiled
  | can produce incorrect results (wrong numbers) due to architecture-specific
  | optimizations made by the compiler. Those wrong numbers may occur only spuriously.
  | They are therefore very difficult to rule out even by tests ahead of time.

** END OF WARNING
  | Running on : Intel(R) Xeon(R) Platinum 8362 CPU @ 2.80GHz
  | Runtime CPU compatibility verified.
  
  After prepare_system [GB]:   1005.99

------------------------------------------------------------
          Preparing all fixed parts of the calculation.
------------------------------------------------------------
  Determining machine precision:
     2.2250738585072014E-308
  Setting up grids for atomic and cluster calculations.

  Creating wave function, potential, and density for free atoms.
  Runtime choices for atomic solver:
  | atomic solver xc        : PBE
  | compute density gradient: 1
  | compute kinetic density : F

  Species: P

  List of occupied orbitals and eigenvalues:
    n    l              occ      energy [Ha]    energy [eV]
    1    0           2.0000       -76.790257     -2089.5692
    2    0           2.0000        -6.393895      -173.9867
    3    0           2.0000        -0.512112       -13.9353
    2    1           6.0000        -4.574086      -124.4672
    3    1           3.0000        -0.201148        -5.4735

  Spin-polarized or charged system:
  Charge density initialized according to selected moments and charges.

  Creating spin-polarized density from free atoms.

  Species: P
  Charge:   0.000000
  Moment:   3.000000

  List of occupied orbitals and eigenvalues:
    n    l      energy [Ha]    energy [eV]    occupation
  Spin-up
    1    0       -76.776100     -2089.1840     1.00000000
    2    0        -6.381406      -173.6469     1.00000000
    3    0        -0.543129       -14.7793     1.00000000
    2    1        -4.563539      -124.1802     3.00000000
    3    1        -0.230078        -6.2607     3.00000000
  Spin-down
    1    0       -76.765224     -2088.8880     1.00000000
    2    0        -6.370116      -173.3397     1.00000000
    3    0        -0.443000       -12.0546     1.00000000
    2    1        -4.548198      -123.7628     3.00000000
    3    1        -0.135816        -3.6957     0.00000000


  Adding cutoff potential to free-atom effective potential.
  Creating fixed part of basis set: Ionic, confined, hydrogenic.

  P                    ion:
  Runtime choices for ionic solver:
  | ionic solver xc        : PBE

  List of free ionic orbitals and eigenvalues:
    n    l      energy [Ha]    energy [eV]
    1    0       -77.734373     -2115.2599
    2    0        -7.310959      -198.9413
    3    0        -1.271460       -34.5982
    2    1        -5.492730      -149.4648
    3    1        -0.913468       -24.8567


  List of ionic basis orbitals and eigenvalues:
    n    l      energy [Ha]    energy [eV]    outer radius [A]
    3    2        -0.457450       -12.4478       5.404780
    3    1        -0.913460       -24.8565       4.724723
    3    0        -1.271453       -34.5980       4.232463


  P                    hydrogenic:

  List of hydrogenic basis orbitals: 
    n    l      effective z      eigenvalue [eV]  inner max. [A]     outer max. [A]     outer radius [A]   
    4    3         6.200000       -32.6870           1.357793           1.357793           5.339109

  List of extra hydrogenic orbitals for auxiliary basis: 
    n    l      effective z      eigenvalue [eV]  inner max. [A]     outer max. [A]     outer radius [A]   
    5    4         8.600000       -40.2502           1.534356           1.534356           5.404780

  Creating atomic-like basis functions for current effective potential.

  Species P                   :

  List of atomic basis orbitals and eigenvalues:
    n    l      energy [Ha]    energy [eV]    outer radius [A]
    1    0       -76.790257     -2089.5692       0.727884
    2    0        -6.393895      -173.9867       2.532824
    3    0        -0.512112       -13.9353       5.274236
    2    1        -4.574086      -124.4672       2.862183
    3    1        -0.201148        -5.4735       5.404780

  Assembling full basis from fixed parts.
  | Species P :   atomic orbital   1 s accepted.
  | Species P :   atomic orbital   2 s accepted.
  | Species P :    ionic orbital   3 s accepted.
  | Species P :   atomic orbital   3 s accepted.
  | Species P :   atomic orbital   2 p accepted.
  | Species P :    ionic orbital   3 p accepted.
  | Species P :   atomic orbital   3 p accepted.
  | Species P :    ionic orbital   3 d accepted.
  | Species P :    hydro orbital   4 f accepted.

  Basis size parameters after reduction:
  | Total number of radial functions:        9
  | Total number of basis functions :       25

  Assembling extended basis for auxiliary basis.
  | Species P :   atomic orbital   1 s accepted.
  | Species P :   atomic orbital   2 s accepted.
  | Species P :    ionic orbital   3 s accepted.
  | Species P :   atomic orbital   3 s accepted.
  | Species P :   atomic orbital   2 p accepted.
  | Species P :    ionic orbital   3 p accepted.
  | Species P :   atomic orbital   3 p accepted.
  | Species P :    ionic orbital   3 d accepted.
  | Species P :    hydro orbital   4 f accepted.
  | Species P :    hydro orbital   5 g accepted.
  Per-task memory consumption for arrays in subroutine allocate_ext:
  |           3.462460MB.

  Extended basis size parameters after reduction:
  | Total number of radial functions:       10
  | Total number of basis functions :       34

  Testing on-site integration grid accuracy.
  |  Species  Function  <phi|h_atom|phi> (log., in eV)  <phi|h_atom|phi> (rad., in eV)
           1        1              -2089.5691986335              -2089.5691596863
           1        2               -173.9867283695               -173.9867277557
           1        3                -13.6361081844                -13.6361080848
           1        4                  6.3196202277                  6.3196248730
           1        5               -124.4672117337               -124.4672115736
           1        6                 -4.8326310060                 -4.8326301332
           1        7                  5.8128667531                  5.8123810283
           1        8                  5.1351171633                  5.1350933795
           1        9                 19.3185135835                 19.3185098349

  Preparing densities etc. for the partition functions (integrals / Hartree potential).

  Preparations completed.
  max(cpu_time)          :      0.193 s.
  Wall clock time (cpu1) :      0.193 s.
------------------------------------------------------------
  After prepare_scf [GB]:   1005.91

  Initializing index lists of integration centers etc. from given atomic structure:
  | Number of centers in hartree potential                       :         1
  | Number of centers in hartree multipole                       :         1
  | Number of centers in electron density summation              :         1
  | Number of centers in basis integrals                         :         1
  | Number of centers in integrals                               :         1
  | Number of centers in hamiltonian                             :         1
  | Number of centers in partition table from touching 0-cell    :         1
  | Number of centers in partition table total                   :         1
  After initialize_bc_dependent_lists [GB]:   1005.91

------------------------------------------------------------
          Begin self-consistency loop: Initialization.

          Date     :  20260722, Time     :  122640.586
------------------------------------------------------------
  Available memory per node after initialize_hartree_non_periodic_ewald [GB]:   1005.91
  Available memory per node after initialize_recip_hartree_potential [GB]:   1005.91
  * Using 4 tasks for Scalapack Eigenvalue solver.
  Detailed listing of tasks and assigned k-points:
  (for non-periodic systems, the "k-point" denotes an internal label only)
   Task     0 k-point     1 on worker6100
   Task     1 k-point     1 on worker6100
   Task     2 k-point     1 on worker6100
   Task     3 k-point     1 on worker6100
  Tasks:     4 split into      2 X      2 BLACS grid
  Calculating block size based on n_basis =           25  max_nprow =            2  max_npcol =            2
  ScaLAPACK block size set to:            8
  Allocating        0.002 MB for ovlp
  Allocating        0.004 MB for ham
  Allocating        0.004 MB for eigenvec
  Required Scalapack workspace - INTEGER:            1  REAL:             1
  Available memory per node after initialize_scalapack [GB]:   1005.91
  Available memory per node after aims_elsi_init_scf [GB]:   1005.91
  Available memory per node after initialize_fixed_grids [GB]:   1005.91
  Partitioning the integration grid into batches with parallel hashing+maxmin method.
  | Number of batches:      256
  | Maximal batch size:      91
  | Minimal batch size:      61
  | Average batch size:      77.086
  | Standard deviation of batch sizes:       8.028

  Integration load balanced across     4 MPI tasks.
  Work distribution over tasks is as follows:
  Task     0 has       4898 integration points.
  Task     1 has       4933 integration points.
  Task     2 has       4933 integration points.
  Task     3 has       4970 integration points.
  Available memory per node after partition_grid [GB]:   1005.91
  Initializing partition tables, free-atom densities, potentials, etc. across the integration grid (initialize_grid_storage).
  | initialize_grid_storage: Actual outermost partition radius vs. multipole_radius_free
  | (-- VB: in principle, multipole_radius_free should be larger, hence this output)
  | Species        1: Confinement radius =              6.000000000000000 AA, multipole_radius_free =              6.033387558927091 AA.
  | Species        1: outer_partition_radius set to              6.033387558927091 AA .
  | The sparse table of interatomic distances needs          0.01 kbyte instead of         0.01 kbyte of memory.
  | Net number of integration points:    19734
  | of which are non-zero points    :    19734
  Available memory per node after initialize_grid_storage_p1 [GB]:   1005.91
  Renormalizing the initial density to the exact electron count on the 3D integration grid.
  | Initial density: Formal number of electrons (from input files) :      15.0000000000
  | Integrated number of electrons on 3D grid     :      14.9999998000
  | Charge integration error                      :      -0.0000002000
  | Normalization factor for density and gradient :       1.0000000133
  Renormalizing the free-atom superposition density to the exact electron count on the 3D integration grid.
  | Formal number of electrons (from input files) :      15.0000000000
  | Integrated number of electrons on 3D grid     :      14.9999997476
  | Charge integration error                      :      -0.0000002524
  | Normalization factor for density and gradient :       1.0000000168
  Obtaining max. number of non-zero basis functions in each batch (get_n_compute_maxes).
  | Maximal number of non-zero basis functions:       25 in task     0
  | Maximal number of non-zero basis functions:       25 in task     1
  | Maximal number of non-zero basis functions:       25 in task     2
  | Maximal number of non-zero basis functions:       25 in task     3
  Selecting the method for density update.
  Loop over occupied states selected for charge density update.
  Available memory per node after get_n_compute_maxes_p1 [GB]:   1005.91
  Initialize hartree_potential_storage
  Max. number of atoms included in rho_multipole:            1

  Evaluating partitioned Hartree potential by multipole expansion.
  | Original multipole sum: apparent total charge =   0.953107E-13
  | Sum of charges compensated after spline to logarithmic grids =   0.156921E-06
  | Analytical far-field extrapolation by fixed multipoles:
  | Hartree multipole sum: apparent total charge =   0.953001E-13
  Summing up the Hartree potential.
  Time summed over all CPUs for potential: real work        0.001 s, elapsed        0.001 s
  | RMS charge density error from multipole expansion :   0.238183E-15

  Allocating        0.004 MB for KS_eigenvector
  Available memory per node after allocate_matrices [GB]:   1005.90
  Available memory per node after init_comm_sparse_local_matrix_scalapack [GB]:   1005.90
  Integrating Hamiltonian matrix: batch-based integration.
  Time summed over all CPUs for integration: real work        0.032 s, elapsed        0.033 s
  Available memory per node after integrate hamiltonian matrix [GB]:   1005.90
  Integrating overlap matrix.
  Time summed over all CPUs for integration: real work        0.006 s, elapsed        0.006 s
  Available memory per node after integrate ovlp matrix [GB]:   1005.90
  Deallocating overlap matrix.
  Available memory per node after save_overlap_scalapack [GB]:   1005.90

  Updating Kohn-Sham eigenvalues and eigenvectors using ELSI and the ELPA eigensolver.
  Overlap matrix is not singular
  | Lowest and highest eigenvalues :  0.1000E+01,  0.1000E+01
  Finished singularity check of overlap matrix
  | Time :     0.001 s
  Starting ELPA eigensolver
  Finished Cholesky decomposition
  | Time :     0.000 s
  Finished transformation to standard eigenproblem
  | Time :     0.000 s
  Finished solving standard eigenproblem
  | Time :     0.001 s
  Finished back-transformation of eigenvectors
  | Time :     0.000 s
  Starting ELPA eigensolver
  Finished transformation to standard eigenproblem
  | Time :     0.000 s
  Finished solving standard eigenproblem
  | Time :     0.001 s
  Finished back-transformation of eigenvectors
  | Time :     0.000 s

  Obtaining occupation numbers and electronic chemical potential using ELSI.
  | Note that, for insulating systems, the printed 'chemical potential' value is not uniquely defined.
  | It can be anywhere in the energy gap, as long as it correctly separates occupied and unoccupied states.
  | In systems with a gap, the physically relevant chemical potential is the VBM or HOMO.

  | Chemical potential (Fermi level):    -4.97281724 eV
  Available memory per node after advance_KS_solution [GB]:   1005.90
  Writing Kohn-Sham eigenvalues.

  Spin-up eigenvalues:

  State    Occupation    Eigenvalue [Ha]    Eigenvalue [eV]
      1       1.00000         -76.776137        -2089.18498
      2       1.00000          -6.381409         -173.64697
      3       1.00000          -4.563538         -124.18018
      4       1.00000          -4.563538         -124.18018
      5       1.00000          -4.563538         -124.18018
      6       1.00000          -0.543043          -14.77694
      7       1.00000          -0.229989           -6.25831
      8       1.00000          -0.229989           -6.25831
      9       1.00000          -0.229989           -6.25831
     10       0.00000           0.162704            4.42741
     11       0.00000           0.162704            4.42741

  Spin-down eigenvalues:

  State    Occupation    Eigenvalue [Ha]    Eigenvalue [eV]
      1       1.00000         -76.765291        -2088.88984
      2       1.00000          -6.370123         -173.33987
      3       1.00000          -4.548204         -123.76293
      4       1.00000          -4.548204         -123.76293
      5       1.00000          -4.548204         -123.76293
      6       1.00000          -0.442755          -12.04798
      7       0.00000          -0.135507           -3.68732
      8       0.00000          -0.135507           -3.68732
      9       0.00000          -0.135507           -3.68732
     10       0.00000           0.250584            6.81872
     11       0.00000           0.250584            6.81872

  Current spin moment of the entire structure :
  | N = N_up - N_down :    3.00
  | S                 :    1.50
  | J                 :    4.00

  Highest occupied state (VBM) at     -6.25831091 eV
  | Occupation number:      1.00000000
  | Spin channel:        1

  Lowest unoccupied state (CBM) at    -3.68732357 eV
  | Occupation number:      0.00000000
  | Spin channel:        2

  Overall HOMO-LUMO gap:      2.57098734 eV.
  Calculating total energy contributions from superposition of free atom densities.

  Total energy components:
  | Sum of eigenvalues            :        -195.30394866 Ha       -5314.49084140 eV
  | XC energy correction          :         -23.09931214 Ha        -628.56426424 eV
  | XC potential correction       :          29.83556793 Ha         811.86711066 eV
  | Free-atom electrostatic energy:        -153.61780867 Ha       -4180.15325781 eV
  | Hartree energy correction     :          -0.23577567 Ha          -6.41578230 eV
  | Entropy correction            :          -0.00000000 Ha          -0.00000000 eV
  | ---------------------------
  | Total energy                  :        -342.42127721 Ha       -9317.75703508 eV
  | Total energy, T -> 0          :        -342.42127721 Ha       -9317.75703508 eV  <-- do not rely on this value for anything but (periodic) metals
  | Electronic free energy        :        -342.42127721 Ha       -9317.75703508 eV

  Derived energy quantities:
  | Kinetic energy                :         343.51056187 Ha        9347.39797892 eV
  | Electrostatic energy          :        -662.83252694 Ha      -18036.59074976 eV
  | Energy correction for multipole
  | error in Hartree potential    :           0.00000000 Ha           0.00000000 eV
  | Sum of eigenvalues per atom                           :       -5314.49084140 eV
  | Total energy (T->0) per atom                          :       -9317.75703508 eV  <-- do not rely on this value for anything but (periodic) metals
  | Electronic free energy per atom                       :       -9317.75703508 eV

  End scf initialization - timings             :  max(cpu_time)    wall_clock(cpu1)
  | Time for scf. initialization                :        0.029 s           0.029 s
  | Boundary condition initialization           :        0.001 s           0.001 s
  | Integration                                 :        0.010 s           0.010 s
  | Solution of K.-S. eqns.                     :        0.003 s           0.003 s
  | Grid partitioning                           :        0.005 s           0.005 s
  | Preloading free-atom quantities on grid     :        0.006 s           0.007 s
  | Free-atom superposition energy              :        0.004 s           0.004 s
  | Total energy evaluation                     :        0.000 s           0.000 s

  Partial memory accounting:
  | Current value for overall tracked memory usage:
  |   Minimum:        0.013 MB (on task 3)
  |   Maximum:        0.019 MB (on task 0)
  |   Average:        0.015 MB
  | Peak value for overall tracked memory usage:
  |   Minimum:        0.151 MB (on task 3 after allocating grid_partition)
  |   Maximum:        0.205 MB (on task 0 after allocating grid_partition)
  |   Average:        0.176 MB
  | Largest tracked array allocation so far:
  |   Minimum:        0.098 MB (all_coords on task 3)
  |   Maximum:        0.130 MB (all_coords on task 0)
  |   Average:        0.113 MB
  Note:  These values currently only include a subset of arrays which are explicitly tracked.
  The "true" memory usage will be greater.
------------------------------------------------------------
  Available memory after initialize_scf [GB]:   1005.90
  Available memory after allocating mixing [GB]:   1005.89
  Evaluating new KS density.
  Integration grid: deviation in total charge (<rho> - N_e) =  -1.421085E-14
  | <rho_up-rho_dn> = N_up-N_dn =      3.0000; <|rho_up-rho_dn|> =      3.0000

  Time for density update prior                :  max(cpu_time)    wall_clock(cpu1)
  | self-consistency iterative process          :        0.005 s           0.005 s
  Available memory before start of SCF loop [GB]:   1005.89

------------------------------------------------------------
          Begin self-consistency iteration #    1

  Date     :  20260722, Time     :  122640.620
------------------------------------------------------------
  Pulay mixing of updated and previous charge densities.
  Available memory per node after mixing [GB]:   1005.89
  Renormalizing the density to the exact electron count on the 3D integration grid.
  | Formal number of electrons (from input files) :      15.0000000000
  | Integrated number of electrons on 3D grid     :      15.0000000000
  | Charge integration error                      :       0.0000000000
  | Normalization factor for density and gradient :       1.0000000000

  Evaluating partitioned Hartree potential by multipole expansion.
  | Original multipole sum: apparent total charge =   0.166245E-12
  | Sum of charges compensated after spline to logarithmic grids =   0.149995E-06
  | Analytical far-field extrapolation by fixed multipoles:
  | Hartree multipole sum: apparent total charge =   0.166253E-12
  Summing up the Hartree potential.
  Time summed over all CPUs for potential: real work        0.001 s, elapsed        0.001 s
  | RMS charge density error from multipole expansion :   0.161910E-14

  Integrating Hamiltonian matrix: batch-based integration.
  Time summed over all CPUs for integration: real work        0.031 s, elapsed        0.032 s

  Updating Kohn-Sham eigenvalues and eigenvectors using ELSI and the ELPA eigensolver.
  Starting ELPA eigensolver
  Finished transformation to standard eigenproblem
  | Time :     0.000 s
  Finished solving standard eigenproblem
  | Time :     0.000 s
  Finished back-transformation of eigenvectors
  | Time :     0.000 s
  Starting ELPA eigensolver
  Finished transformation to standard eigenproblem
  | Time :     0.000 s
  Finished solving standard eigenproblem
  | Time :     0.000 s
  Finished back-transformation of eigenvectors
  | Time :     0.001 s

  Obtaining occupation numbers and electronic chemical potential using ELSI.
  | Note that, for insulating systems, the printed 'chemical potential' value is not uniquely defined.
  | It can be anywhere in the energy gap, as long as it correctly separates occupied and unoccupied states.
  | In systems with a gap, the physically relevant chemical potential is the VBM or HOMO.

  | Chemical potential (Fermi level):    -4.97746024 eV
  Writing Kohn-Sham eigenvalues.

  Spin-up eigenvalues:

  State    Occupation    Eigenvalue [Ha]    Eigenvalue [eV]
      1       1.00000         -76.775703        -2089.17318
      2       1.00000          -6.381310         -173.64429
      3       1.00000          -4.563407         -124.17661
      4       1.00000          -4.563407         -124.17661
      5       1.00000          -4.563407         -124.17661
      6       1.00000          -0.543182          -14.78074
      7       1.00000          -0.230116           -6.26179
      8       1.00000          -0.230116           -6.26179
      9       1.00000          -0.230116           -6.26179
     10       0.00000           0.162568            4.42370
     11       0.00000           0.162568            4.42370

  Spin-down eigenvalues:

  State    Occupation    Eigenvalue [Ha]    Eigenvalue [eV]
      1       1.00000         -76.764854        -2088.87795
      2       1.00000          -6.369963         -173.33551
      3       1.00000          -4.548028         -123.75813
      4       1.00000          -4.548028         -123.75813
      5       1.00000          -4.548028         -123.75813
      6       1.00000          -0.442981          -12.05413
      7       0.00000          -0.135720           -3.69313
      8       0.00000          -0.135720           -3.69313
      9       0.00000          -0.135720           -3.69313
     10       0.00000           0.250381            6.81320
     11       0.00000           0.250381            6.81320

  Current spin moment of the entire structure :
  | N = N_up - N_down :    3.00
  | S                 :    1.50
  | J                 :    4.00

  Highest occupied state (VBM) at     -6.26178705 eV
  | Occupation number:      1.00000000
  | Spin channel:        1

  Lowest unoccupied state (CBM) at    -3.69313342 eV
  | Occupation number:      0.00000000
  | Spin channel:        2

  Overall HOMO-LUMO gap:      2.56865364 eV.

  Total energy components:
  | Sum of eigenvalues            :        -195.30264620 Ha       -5314.45539963 eV
  | XC energy correction          :         -23.09924760 Ha        -628.56250802 eV
  | XC potential correction       :          29.83550460 Ha         811.86538731 eV
  | Free-atom electrostatic energy:        -153.61780867 Ha       -4180.15325781 eV
  | Hartree energy correction     :          -0.23708394 Ha          -6.45138225 eV
  | Entropy correction            :          -0.00000000 Ha          -0.00000000 eV
  | ---------------------------
  | Total energy                  :        -342.42128181 Ha       -9317.75716040 eV
  | Total energy, T -> 0          :        -342.42128181 Ha       -9317.75716040 eV  <-- do not rely on this value for anything but (periodic) metals
  | Electronic free energy        :        -342.42128181 Ha       -9317.75716040 eV

  Derived energy quantities:
  | Kinetic energy                :         343.51606787 Ha        9347.54780477 eV
  | Electrostatic energy          :        -662.83810209 Ha      -18036.74245715 eV
  | Energy correction for multipole
  | error in Hartree potential    :          -0.00000000 Ha          -0.00000000 eV
  | Sum of eigenvalues per atom                           :       -5314.45539963 eV
  | Total energy (T->0) per atom                          :       -9317.75716040 eV  <-- do not rely on this value for anything but (periodic) metals
  | Electronic free energy per atom                       :       -9317.75716040 eV
  Evaluating new KS density.
  Integration grid: deviation in total charge (<rho> - N_e) =  -9.237056E-14
  | <rho_up-rho_dn> = N_up-N_dn =      3.0000; <|rho_up-rho_dn|> =      3.0000

  Self-consistency convergence accuracy:
  | Change of charge/spin density :  0.4096E-02  0.7004E-02
  | Change of unmixed KS charge/spin density :  0.2591E+02  0.2923E+00
  | Change of sum of eigenvalues  :  0.3544E-01 eV
  | Change of total energy        : -0.1253E-03 eV


------------------------------------------------------------
  End self-consistency iteration #     1       :  max(cpu_time)    wall_clock(cpu1)
  | Time for this iteration                     :        0.016 s           0.017 s
  | Charge density update                       :        0.004 s           0.004 s
  | Density mixing                              :        0.000 s           0.001 s
  | Hartree multipole update                    :        0.001 s           0.001 s
  | Hartree multipole summation                 :        0.002 s           0.002 s
  | Integration                                 :        0.008 s           0.008 s
  | Solution of K.-S. eqns.                     :        0.001 s           0.001 s
  | Total energy evaluation                     :        0.000 s           0.000 s

  Partial memory accounting:
  | Current value for overall tracked memory usage:
  |   Minimum:        5.475 MB (on task 0)
  |   Maximum:        5.549 MB (on task 3)
  |   Average:        5.511 MB
  | Peak value for overall tracked memory usage:
  |   Minimum:        5.567 MB (on task 0 after allocating wave)
  |   Maximum:        5.641 MB (on task 3 after allocating wave)
  |   Average:        5.603 MB
  | Largest tracked array allocation so far:
  |   Minimum:        1.794 MB (previous_rho_gradient_diff on task 0)
  |   Maximum:        1.820 MB (previous_rho_gradient_diff on task 3)
  |   Average:        1.807 MB
  Note:  These values currently only include a subset of arrays which are explicitly tracked.
  The "true" memory usage will be greater.
------------------------------------------------------------

------------------------------------------------------------
          Begin self-consistency iteration #    2

  Date     :  20260722, Time     :  122641.365
------------------------------------------------------------
  Pulay mixing of updated and previous charge densities.
  Available memory per node after mixing [GB]:   1005.88
  Renormalizing the density to the exact electron count on the 3D integration grid.
  | Formal number of electrons (from input files) :      15.0000000000
  | Integrated number of electrons on 3D grid     :      15.0000000000
  | Charge integration error                      :      -0.0000000000
  | Normalization factor for density and gradient :       1.0000000000

  Evaluating partitioned Hartree potential by multipole expansion.
  | Original multipole sum: apparent total charge =   0.354790E-13
  | Sum of charges compensated after spline to logarithmic grids =   0.837078E-07
  | Analytical far-field extrapolation by fixed multipoles:
  | Hartree multipole sum: apparent total charge =   0.355029E-13
  Summing up the Hartree potential.
  Time summed over all CPUs for potential: real work        0.001 s, elapsed        0.001 s
  | RMS charge density error from multipole expansion :   0.101532E-13

  Integrating Hamiltonian matrix: batch-based integration.
  Time summed over all CPUs for integration: real work        0.031 s, elapsed        0.032 s

  Updating Kohn-Sham eigenvalues and eigenvectors using ELSI and the ELPA eigensolver.
  Starting ELPA eigensolver
  Finished transformation to standard eigenproblem
  | Time :     0.000 s
  Finished solving standard eigenproblem
  | Time :     0.001 s
  Finished back-transformation of eigenvectors
  | Time :     0.000 s
  Starting ELPA eigensolver
  Finished transformation to standard eigenproblem
  | Time :     0.000 s
  Finished solving standard eigenproblem
  | Time :     0.000 s
  Finished back-transformation of eigenvectors
  | Time :     0.000 s

  Obtaining occupation numbers and electronic chemical potential using ELSI.
  | Note that, for insulating systems, the printed 'chemical potential' value is not uniquely defined.
  | It can be anywhere in the energy gap, as long as it correctly separates occupied and unoccupied states.
  | In systems with a gap, the physically relevant chemical potential is the VBM or HOMO.

  | Chemical potential (Fermi level):    -5.01827552 eV
  Current spin moment of the entire structure :
  | N = N_up - N_down :    3.00
  | S                 :    1.50
  | J                 :    4.00

  Highest occupied state (VBM) at     -6.29232141 eV
  | Occupation number:      1.00000000
  | Spin channel:        1

  Lowest unoccupied state (CBM) at    -3.74422963 eV
  | Occupation number:      0.00000000
  | Spin channel:        2

  Overall HOMO-LUMO gap:      2.54809178 eV.

  Checking to see if s.c.f. parameters should be adjusted.

  Total energy components:
  | Sum of eigenvalues            :        -195.29145136 Ha       -5314.15077258 eV
  | XC energy correction          :         -23.09867086 Ha        -628.54681431 eV
  | XC potential correction       :          29.83494020 Ha         811.85002944 eV
  | Free-atom electrostatic energy:        -153.61780867 Ha       -4180.15325781 eV
  | Hartree energy correction     :          -0.24831161 Ha          -6.75690263 eV
  | Entropy correction            :          -0.00000000 Ha          -0.00000000 eV
  | ---------------------------
  | Total energy                  :        -342.42130230 Ha       -9317.75771789 eV
  | Total energy, T -> 0          :        -342.42130230 Ha       -9317.75771789 eV  <-- do not rely on this value for anything but (periodic) metals
  | Electronic free energy        :        -342.42130230 Ha       -9317.75771789 eV

  Derived energy quantities:
  | Kinetic energy                :         343.56394344 Ha        9348.85056526 eV
  | Electrostatic energy          :        -662.88657488 Ha      -18038.06146884 eV
  | Energy correction for multipole
  | error in Hartree potential    :           0.00000000 Ha           0.00000000 eV
  | Sum of eigenvalues per atom                           :       -5314.15077258 eV
  | Total energy (T->0) per atom                          :       -9317.75771789 eV  <-- do not rely on this value for anything but (periodic) metals
  | Electronic free energy per atom                       :       -9317.75771789 eV
  Evaluating new KS density.
  Integration grid: deviation in total charge (<rho> - N_e) =   3.552714E-15
  | <rho_up-rho_dn> = N_up-N_dn =      3.0000; <|rho_up-rho_dn|> =      3.0000

  Self-consistency convergence accuracy:
  | Change of charge/spin density :  0.3655E-02  0.6308E-02
  | Change of unmixed KS charge/spin density :  0.4790E-04  0.1718E-04
  | Change of sum of eigenvalues  :  0.3046E+00 eV
  | Change of total energy        : -0.5575E-03 eV


------------------------------------------------------------
  End self-consistency iteration #     2       :  max(cpu_time)    wall_clock(cpu1)
  | Time for this iteration                     :        0.418 s           0.205 s
  | Charge density update                       :        0.004 s           0.004 s
  | Density mixing                              :        0.402 s           0.190 s
  | Hartree multipole update                    :        0.001 s           0.001 s
  | Hartree multipole summation                 :        0.001 s           0.001 s
  | Integration                                 :        0.008 s           0.008 s
  | Solution of K.-S. eqns.                     :        0.001 s           0.001 s
  | Total energy evaluation                     :        0.000 s           0.000 s

  Partial memory accounting:
  | Current value for overall tracked memory usage:
  |   Minimum:        5.476 MB (on task 0)
  |   Maximum:        5.549 MB (on task 3)
  |   Average:        5.511 MB
  | Peak value for overall tracked memory usage:
  |   Minimum:        5.568 MB (on task 0 after allocating wave)
  |   Maximum:        5.641 MB (on task 3 after allocating wave)
  |   Average:        5.604 MB
  | Largest tracked array allocation so far:
  |   Minimum:        1.794 MB (previous_rho_gradient_diff on task 0)
  |   Maximum:        1.820 MB (previous_rho_gradient_diff on task 3)
  |   Average:        1.807 MB
  Note:  These values currently only include a subset of arrays which are explicitly tracked.
  The "true" memory usage will be greater.
------------------------------------------------------------

------------------------------------------------------------
          Begin self-consistency iteration #    3

  Date     :  20260722, Time     :  122642.763
------------------------------------------------------------
  Pulay mixing of updated and previous charge densities.
  Available memory per node after mixing [GB]:   1005.88
  Renormalizing the density to the exact electron count on the 3D integration grid.
  | Formal number of electrons (from input files) :      15.0000000000
  | Integrated number of electrons on 3D grid     :      15.0000000000
  | Charge integration error                      :       0.0000000000
  | Normalization factor for density and gradient :       1.0000000000

  Evaluating partitioned Hartree potential by multipole expansion.
  | Original multipole sum: apparent total charge =   0.815558E-13
  | Sum of charges compensated after spline to logarithmic grids =   0.833486E-07
  | Analytical far-field extrapolation by fixed multipoles:
  | Hartree multipole sum: apparent total charge =   0.815583E-13
  Summing up the Hartree potential.
  Time summed over all CPUs for potential: real work        0.001 s, elapsed        0.001 s
  | RMS charge density error from multipole expansion :   0.984613E-14

  Integrating Hamiltonian matrix: batch-based integration.
  Time summed over all CPUs for integration: real work        0.031 s, elapsed        0.032 s

  Updating Kohn-Sham eigenvalues and eigenvectors using ELSI and the ELPA eigensolver.
  Starting ELPA eigensolver
  Finished transformation to standard eigenproblem
  | Time :     0.000 s
  Finished solving standard eigenproblem
  | Time :     0.000 s
  Finished back-transformation of eigenvectors
  | Time :     0.000 s
  Starting ELPA eigensolver
  Finished transformation to standard eigenproblem
  | Time :     0.000 s
  Finished solving standard eigenproblem
  | Time :     0.000 s
  Finished back-transformation of eigenvectors
  | Time :     0.000 s

  Obtaining occupation numbers and electronic chemical potential using ELSI.
  | Note that, for insulating systems, the printed 'chemical potential' value is not uniquely defined.
  | It can be anywhere in the energy gap, as long as it correctly separates occupied and unoccupied states.
  | In systems with a gap, the physically relevant chemical potential is the VBM or HOMO.

  | Chemical potential (Fermi level):    -5.01865940 eV
  Current spin moment of the entire structure :
  | N = N_up - N_down :    3.00
  | S                 :    1.50
  | J                 :    4.00

  Highest occupied state (VBM) at     -6.29251837 eV
  | Occupation number:      1.00000000
  | Spin channel:        1

  Lowest unoccupied state (CBM) at    -3.74480043 eV
  | Occupation number:      0.00000000
  | Spin channel:        2

  Overall HOMO-LUMO gap:      2.54771794 eV.

  Total energy components:
  | Sum of eigenvalues            :        -195.29380760 Ha       -5314.21488902 eV
  | XC energy correction          :         -23.09828591 Ha        -628.53633928 eV
  | XC potential correction       :          29.83444148 Ha         811.83645838 eV
  | Free-atom electrostatic energy:        -153.61780867 Ha       -4180.15325781 eV
  | Hartree energy correction     :          -0.24584159 Ha          -6.68969016 eV
  | Entropy correction            :          -0.00000000 Ha          -0.00000000 eV
  | ---------------------------
  | Total energy                  :        -342.42130230 Ha       -9317.75771789 eV
  | Total energy, T -> 0          :        -342.42130230 Ha       -9317.75771789 eV  <-- do not rely on this value for anything but (periodic) metals
  | Electronic free energy        :        -342.42130230 Ha       -9317.75771789 eV

  Derived energy quantities:
  | Kinetic energy                :         343.55857219 Ha        9348.70440604 eV
  | Electrostatic energy          :        -662.88158857 Ha      -18037.92578466 eV
  | Energy correction for multipole
  | error in Hartree potential    :           0.00000000 Ha           0.00000000 eV
  | Sum of eigenvalues per atom                           :       -5314.21488902 eV
  | Total energy (T->0) per atom                          :       -9317.75771789 eV  <-- do not rely on this value for anything but (periodic) metals
  | Electronic free energy per atom                       :       -9317.75771789 eV
  Evaluating new KS density.
  Integration grid: deviation in total charge (<rho> - N_e) =  -2.842171E-14
  | <rho_up-rho_dn> = N_up-N_dn =      3.0000; <|rho_up-rho_dn|> =      3.0000

  Self-consistency convergence accuracy:
  | Change of charge/spin density :  0.3753E-03  0.2128E-03
  | Change of unmixed KS charge/spin density :  0.4161E-03  0.1506E-03
  | Change of sum of eigenvalues  : -0.6412E-01 eV
  | Change of total energy        : -0.7425E-09 eV


------------------------------------------------------------
  End self-consistency iteration #     3       :  max(cpu_time)    wall_clock(cpu1)
  | Time for this iteration                     :        1.108 s           0.120 s
  | Charge density update                       :        0.004 s           0.004 s
  | Density mixing                              :        1.093 s           0.104 s
  | Hartree multipole update                    :        0.001 s           0.001 s
  | Hartree multipole summation                 :        0.001 s           0.002 s
  | Integration                                 :        0.008 s           0.008 s
  | Solution of K.-S. eqns.                     :        0.001 s           0.001 s
  | Total energy evaluation                     :        0.000 s           0.000 s

  Partial memory accounting:
  | Current value for overall tracked memory usage:
  |   Minimum:        5.476 MB (on task 0)
  |   Maximum:        5.549 MB (on task 3)
  |   Average:        5.511 MB
  | Peak value for overall tracked memory usage:
  |   Minimum:        5.568 MB (on task 0 after allocating wave)
  |   Maximum:        5.641 MB (on task 3 after allocating wave)
  |   Average:        5.604 MB
  | Largest tracked array allocation so far:
  |   Minimum:        1.794 MB (previous_rho_gradient_diff on task 0)
  |   Maximum:        1.820 MB (previous_rho_gradient_diff on task 3)
  |   Average:        1.807 MB
  Note:  These values currently only include a subset of arrays which are explicitly tracked.
  The "true" memory usage will be greater.
------------------------------------------------------------

------------------------------------------------------------
          Begin self-consistency iteration #    4

  Date     :  20260722, Time     :  122643.218
------------------------------------------------------------
  Pulay mixing of updated and previous charge densities.
  Available memory per node after mixing [GB]:   1005.88
  Renormalizing the density to the exact electron count on the 3D integration grid.
  | Formal number of electrons (from input files) :      15.0000000000
  | Integrated number of electrons on 3D grid     :      15.0000000000
  | Charge integration error                      :      -0.0000000000
  | Normalization factor for density and gradient :       1.0000000000

  Evaluating partitioned Hartree potential by multipole expansion.
  | Original multipole sum: apparent total charge =   0.580281E-13
  | Sum of charges compensated after spline to logarithmic grids =   0.833497E-07
  | Analytical far-field extrapolation by fixed multipoles:
  | Hartree multipole sum: apparent total charge =   0.580255E-13
  Summing up the Hartree potential.
  Time summed over all CPUs for potential: real work        0.001 s, elapsed        0.001 s
  | RMS charge density error from multipole expansion :   0.988410E-14

  Integrating Hamiltonian matrix: batch-based integration.
  Time summed over all CPUs for integration: real work        0.031 s, elapsed        0.032 s

  Updating Kohn-Sham eigenvalues and eigenvectors using ELSI and the ELPA eigensolver.
  Starting ELPA eigensolver
  Finished transformation to standard eigenproblem
  | Time :     0.000 s
  Finished solving standard eigenproblem
  | Time :     0.000 s
  Finished back-transformation of eigenvectors
  | Time :     0.000 s
  Starting ELPA eigensolver
  Finished transformation to standard eigenproblem
  | Time :     0.000 s
  Finished solving standard eigenproblem
  | Time :     0.000 s
  Finished back-transformation of eigenvectors
  | Time :     0.000 s

  Obtaining occupation numbers and electronic chemical potential using ELSI.
  | Note that, for insulating systems, the printed 'chemical potential' value is not uniquely defined.
  | It can be anywhere in the energy gap, as long as it correctly separates occupied and unoccupied states.
  | In systems with a gap, the physically relevant chemical potential is the VBM or HOMO.

  | Chemical potential (Fermi level):    -5.01865442 eV
  Current spin moment of the entire structure :
  | N = N_up - N_down :    3.00
  | S                 :    1.50
  | J                 :    4.00

  Highest occupied state (VBM) at     -6.29251277 eV
  | Occupation number:      1.00000000
  | Spin channel:        1

  Lowest unoccupied state (CBM) at    -3.74479607 eV
  | Occupation number:      0.00000000
  | Spin channel:        2

  Overall HOMO-LUMO gap:      2.54771671 eV.

  Total energy components:
  | Sum of eigenvalues            :        -195.29380850 Ha       -5314.21491366 eV
  | XC energy correction          :         -23.09828507 Ha        -628.53631628 eV
  | XC potential correction       :          29.83444040 Ha         811.83642910 eV
  | Free-atom electrostatic energy:        -153.61780867 Ha       -4180.15325781 eV
  | Hartree energy correction     :          -0.24584046 Ha          -6.68965925 eV
  | Entropy correction            :          -0.00000000 Ha          -0.00000000 eV
  | ---------------------------
  | Total energy                  :        -342.42130230 Ha       -9317.75771789 eV
  | Total energy, T -> 0          :        -342.42130230 Ha       -9317.75771789 eV  <-- do not rely on this value for anything but (periodic) metals
  | Electronic free energy        :        -342.42130230 Ha       -9317.75771789 eV

  Derived energy quantities:
  | Kinetic energy                :         343.55855615 Ha        9348.70396967 eV
  | Electrostatic energy          :        -662.88157338 Ha      -18037.92537128 eV
  | Energy correction for multipole
  | error in Hartree potential    :           0.00000000 Ha           0.00000000 eV
  | Sum of eigenvalues per atom                           :       -5314.21491366 eV
  | Total energy (T->0) per atom                          :       -9317.75771789 eV  <-- do not rely on this value for anything but (periodic) metals
  | Electronic free energy per atom                       :       -9317.75771789 eV
  Evaluating new KS density.
  Integration grid: deviation in total charge (<rho> - N_e) =   3.552714E-15
  | <rho_up-rho_dn> = N_up-N_dn =      3.0000; <|rho_up-rho_dn|> =      3.0000

  Self-consistency convergence accuracy:
  | Change of charge/spin density :  0.1709E-04  0.3144E-04
  | Change of unmixed KS charge/spin density :  0.4587E-04  0.1909E-04
  | Change of sum of eigenvalues  : -0.2463E-04 eV
  | Change of total energy        : -0.3666E-09 eV


------------------------------------------------------------
  End self-consistency iteration #     4       :  max(cpu_time)    wall_clock(cpu1)
  | Time for this iteration                     :        0.254 s           0.086 s
  | Charge density update                       :        0.004 s           0.004 s
  | Density mixing                              :        0.239 s           0.070 s
  | Hartree multipole update                    :        0.001 s           0.001 s
  | Hartree multipole summation                 :        0.001 s           0.002 s
  | Integration                                 :        0.008 s           0.008 s
  | Solution of K.-S. eqns.                     :        0.001 s           0.000 s
  | Total energy evaluation                     :        0.000 s           0.001 s

  Partial memory accounting:
  | Current value for overall tracked memory usage:
  |   Minimum:        5.476 MB (on task 0)
  |   Maximum:        5.549 MB (on task 3)
  |   Average:        5.511 MB
  | Peak value for overall tracked memory usage:
  |   Minimum:        5.568 MB (on task 0 after allocating wave)
  |   Maximum:        5.641 MB (on task 3 after allocating wave)
  |   Average:        5.604 MB
  | Largest tracked array allocation so far:
  |   Minimum:        1.794 MB (previous_rho_gradient_diff on task 0)
  |   Maximum:        1.820 MB (previous_rho_gradient_diff on task 3)
  |   Average:        1.807 MB
  Note:  These values currently only include a subset of arrays which are explicitly tracked.
  The "true" memory usage will be greater.
------------------------------------------------------------

------------------------------------------------------------
          Begin self-consistency iteration #    5

  Date     :  20260722, Time     :  122643.452
------------------------------------------------------------
  Pulay mixing of updated and previous charge densities.
  Available memory per node after mixing [GB]:   1005.87
  Renormalizing the density to the exact electron count on the 3D integration grid.
  | Formal number of electrons (from input files) :      15.0000000000
  | Integrated number of electrons on 3D grid     :      15.0000000000
  | Charge integration error                      :      -0.0000000000
  | Normalization factor for density and gradient :       1.0000000000

  Evaluating partitioned Hartree potential by multipole expansion.
  | Original multipole sum: apparent total charge =   0.904064E-13
  | Sum of charges compensated after spline to logarithmic grids =   0.835490E-07
  | Analytical far-field extrapolation by fixed multipoles:
  | Hartree multipole sum: apparent total charge =   0.904334E-13
  Summing up the Hartree potential.
  Time summed over all CPUs for potential: real work        0.001 s, elapsed        0.001 s
  | RMS charge density error from multipole expansion :   0.560800E-13

  Integrating Hamiltonian matrix: batch-based integration.
  Time summed over all CPUs for integration: real work        0.031 s, elapsed        0.032 s

  Updating Kohn-Sham eigenvalues and eigenvectors using ELSI and the ELPA eigensolver.
  Starting ELPA eigensolver
  Finished transformation to standard eigenproblem
  | Time :     0.000 s
  Finished solving standard eigenproblem
  | Time :     0.000 s
  Finished back-transformation of eigenvectors
  | Time :     0.000 s
  Starting ELPA eigensolver
  Finished transformation to standard eigenproblem
  | Time :     0.000 s
  Finished solving standard eigenproblem
  | Time :     0.000 s
  Finished back-transformation of eigenvectors
  | Time :     0.000 s

  Obtaining occupation numbers and electronic chemical potential using ELSI.
  | Note that, for insulating systems, the printed 'chemical potential' value is not uniquely defined.
  | It can be anywhere in the energy gap, as long as it correctly separates occupied and unoccupied states.
  | In systems with a gap, the physically relevant chemical potential is the VBM or HOMO.

  | Chemical potential (Fermi level):    -5.01827683 eV
  Current spin moment of the entire structure :
  | N = N_up - N_down :    3.00
  | S                 :    1.50
  | J                 :    4.00

  Highest occupied state (VBM) at     -6.29215101 eV
  | Occupation number:      1.00000000
  | Spin channel:        1

  Lowest unoccupied state (CBM) at    -3.74440266 eV
  | Occupation number:      0.00000000
  | Spin channel:        2

  Overall HOMO-LUMO gap:      2.54774835 eV.

  Total energy components:
  | Sum of eigenvalues            :        -195.29346261 Ha       -5314.20550141 eV
  | XC energy correction          :         -23.09830969 Ha        -628.53698615 eV
  | XC potential correction       :          29.83447300 Ha         811.83731623 eV
  | Free-atom electrostatic energy:        -153.61780867 Ha       -4180.15325781 eV
  | Hartree energy correction     :          -0.24619434 Ha          -6.69928874 eV
  | Entropy correction            :          -0.00000000 Ha          -0.00000000 eV
  | ---------------------------
  | Total energy                  :        -342.42130230 Ha       -9317.75771789 eV
  | Total energy, T -> 0          :        -342.42130230 Ha       -9317.75771789 eV  <-- do not rely on this value for anything but (periodic) metals
  | Electronic free energy        :        -342.42130230 Ha       -9317.75771789 eV

  Derived energy quantities:
  | Kinetic energy                :         343.55860294 Ha        9348.70524287 eV
  | Electrostatic energy          :        -662.88159555 Ha      -18037.92597461 eV
  | Energy correction for multipole
  | error in Hartree potential    :          -0.00000000 Ha          -0.00000000 eV
  | Sum of eigenvalues per atom                           :       -5314.20550141 eV
  | Total energy (T->0) per atom                          :       -9317.75771789 eV  <-- do not rely on this value for anything but (periodic) metals
  | Electronic free energy per atom                       :       -9317.75771789 eV
  Evaluating new KS density.
  Integration grid: deviation in total charge (<rho> - N_e) =   4.618528E-14
  | <rho_up-rho_dn> = N_up-N_dn =      3.0000; <|rho_up-rho_dn|> =      3.0000

  Self-consistency convergence accuracy:
  | Change of charge/spin density :  0.1651E-04  0.3055E-04
  | Change of unmixed KS charge/spin density :  0.1003E-06  0.6316E-07
  | Change of sum of eigenvalues  :  0.9412E-02 eV
  | Change of total energy        :  0.5189E-08 eV


------------------------------------------------------------
  End self-consistency iteration #     5       :  max(cpu_time)    wall_clock(cpu1)
  | Time for this iteration                     :        0.124 s           0.062 s
  | Charge density update                       :        0.004 s           0.004 s
  | Density mixing                              :        0.109 s           0.047 s
  | Hartree multipole update                    :        0.001 s           0.001 s
  | Hartree multipole summation                 :        0.001 s           0.001 s
  | Integration                                 :        0.008 s           0.008 s
  | Solution of K.-S. eqns.                     :        0.001 s           0.000 s
  | Total energy evaluation                     :        0.000 s           0.000 s

  Partial memory accounting:
  | Current value for overall tracked memory usage:
  |   Minimum:        5.476 MB (on task 0)
  |   Maximum:        5.549 MB (on task 3)
  |   Average:        5.511 MB
  | Peak value for overall tracked memory usage:
  |   Minimum:        5.568 MB (on task 0 after allocating wave)
  |   Maximum:        5.641 MB (on task 3 after allocating wave)
  |   Average:        5.604 MB
  | Largest tracked array allocation so far:
  |   Minimum:        1.794 MB (previous_rho_gradient_diff on task 0)
  |   Maximum:        1.820 MB (previous_rho_gradient_diff on task 3)
  |   Average:        1.807 MB
  Note:  These values currently only include a subset of arrays which are explicitly tracked.
  The "true" memory usage will be greater.
------------------------------------------------------------

------------------------------------------------------------
          Begin self-consistency iteration #    6

  Date     :  20260722, Time     :  122644.018
------------------------------------------------------------
  Pulay mixing of updated and previous charge densities.
  Available memory per node after mixing [GB]:   1005.87
  Renormalizing the density to the exact electron count on the 3D integration grid.
  | Formal number of electrons (from input files) :      15.0000000000
  | Integrated number of electrons on 3D grid     :      15.0000000000
  | Charge integration error                      :      -0.0000000000
  | Normalization factor for density and gradient :       1.0000000000

  Evaluating partitioned Hartree potential by multipole expansion.
  | Original multipole sum: apparent total charge =   0.807824E-13
  | Sum of charges compensated after spline to logarithmic grids =   0.835705E-07
  | Analytical far-field extrapolation by fixed multipoles:
  | Hartree multipole sum: apparent total charge =   0.808147E-13
  Summing up the Hartree potential.
  Time summed over all CPUs for potential: real work        0.001 s, elapsed        0.001 s
  | RMS charge density error from multipole expansion :   0.327272E-13

  Integrating Hamiltonian matrix: batch-based integration.
  Time summed over all CPUs for integration: real work        0.031 s, elapsed        0.032 s

  Updating Kohn-Sham eigenvalues and eigenvectors using ELSI and the ELPA eigensolver.
  Starting ELPA eigensolver
  Finished transformation to standard eigenproblem
  | Time :     0.000 s
  Finished solving standard eigenproblem
  | Time :     0.001 s
  Finished back-transformation of eigenvectors
  | Time :     0.000 s
  Starting ELPA eigensolver
  Finished transformation to standard eigenproblem
  | Time :     0.000 s
  Finished solving standard eigenproblem
  | Time :     0.000 s
  Finished back-transformation of eigenvectors
  | Time :     0.000 s

  Obtaining occupation numbers and electronic chemical potential using ELSI.
  | Note that, for insulating systems, the printed 'chemical potential' value is not uniquely defined.
  | It can be anywhere in the energy gap, as long as it correctly separates occupied and unoccupied states.
  | In systems with a gap, the physically relevant chemical potential is the VBM or HOMO.

  | Chemical potential (Fermi level):    -5.01827353 eV
  Current spin moment of the entire structure :
  | N = N_up - N_down :    3.00
  | S                 :    1.50
  | J                 :    4.00

  Highest occupied state (VBM) at     -6.29214960 eV
  | Occupation number:      1.00000000
  | Spin channel:        1

  Lowest unoccupied state (CBM) at    -3.74439746 eV
  | Occupation number:      0.00000000
  | Spin channel:        2

  Overall HOMO-LUMO gap:      2.54775214 eV.

  Total energy components:
  | Sum of eigenvalues            :        -195.29347423 Ha       -5314.20581756 eV
  | XC energy correction          :         -23.09830968 Ha        -628.53698612 eV
  | XC potential correction       :          29.83447312 Ha         811.83731952 eV
  | Free-atom electrostatic energy:        -153.61780867 Ha       -4180.15325781 eV
  | Hartree energy correction     :          -0.24618284 Ha          -6.69897592 eV
  | Entropy correction            :          -0.00000000 Ha          -0.00000000 eV
  | ---------------------------
  | Total energy                  :        -342.42130230 Ha       -9317.75771789 eV
  | Total energy, T -> 0          :        -342.42130230 Ha       -9317.75771789 eV  <-- do not rely on this value for anything but (periodic) metals
  | Electronic free energy        :        -342.42130230 Ha       -9317.75771789 eV

  Derived energy quantities:
  | Kinetic energy                :         343.55858125 Ha        9348.70465259 eV
  | Electrostatic energy          :        -662.88157386 Ha      -18037.92538436 eV
  | Energy correction for multipole
  | error in Hartree potential    :          -0.00000000 Ha          -0.00000000 eV
  | Sum of eigenvalues per atom                           :       -5314.20581756 eV
  | Total energy (T->0) per atom                          :       -9317.75771789 eV  <-- do not rely on this value for anything but (periodic) metals
  | Electronic free energy per atom                       :       -9317.75771789 eV

  Self-consistency convergence accuracy:
  | Change of charge/spin density :  0.2216E-05  0.5403E-05
  | Change of unmixed KS charge/spin density :  0.7374E-05  0.3605E-05
  | Change of sum of eigenvalues  : -0.3162E-03 eV
  | Change of total energy        : -0.2690E-08 eV

  Writing Kohn-Sham eigenvalues.

  Spin-up eigenvalues:

  State    Occupation    Eigenvalue [Ha]    Eigenvalue [eV]
      1       1.00000         -76.772365        -2089.08233
      2       1.00000          -6.380606         -173.62512
      3       1.00000          -4.562443         -124.15039
      4       1.00000          -4.562443         -124.15039
      5       1.00000          -4.562443         -124.15039
      6       1.00000          -0.544411          -14.81417
      7       1.00000          -0.231232           -6.29215
      8       1.00000          -0.231232           -6.29215
      9       1.00000          -0.231232           -6.29215
     10       0.00000           0.161384            4.39148
     11       0.00000           0.161384            4.39148

  Spin-down eigenvalues:

  State    Occupation    Eigenvalue [Ha]    Eigenvalue [eV]
      1       1.00000         -76.761475        -2088.78600
      2       1.00000          -6.368690         -173.30089
      3       1.00000          -4.546645         -123.72049
      4       1.00000          -4.546645         -123.72049
      5       1.00000          -4.546645         -123.72049
      6       1.00000          -0.444969          -12.10822
      7       0.00000          -0.137604           -3.74440
      8       0.00000          -0.137604           -3.74440
      9       0.00000          -0.137604           -3.74440
     10       0.00000           0.248599            6.76471
     11       0.00000           0.248599            6.76471

  Current spin moment of the entire structure :
  | N = N_up - N_down :    3.00
  | S                 :    1.50
  | J                 :    4.00

  Highest occupied state (VBM) at     -6.29214960 eV
  | Occupation number:      1.00000000
  | Spin channel:        1

  Lowest unoccupied state (CBM) at    -3.74439746 eV
  | Occupation number:      0.00000000
  | Spin channel:        2

  Overall HOMO-LUMO gap:      2.54775214 eV.

  | Chemical Potential                          :    -5.01827353 eV
  | Note that, for insulating systems, the printed 'chemical potential' value is not uniquely defined.
  | It can be anywhere in the energy gap, as long as it correctly separates occupied and unoccupied states.
  | In systems with a gap, the physically relevant chemical potential is the VBM or HOMO.

  Self-consistency cycle converged.


------------------------------------------------------------
  End self-consistency iteration #     6       :  max(cpu_time)    wall_clock(cpu1)
  | Time for this iteration                     :        0.522 s           0.029 s
  | Charge density update                       :        0.000 s           0.000 s
  | Density mixing                              :        0.511 s           0.018 s
  | Hartree multipole update                    :        0.001 s           0.001 s
  | Hartree multipole summation                 :        0.001 s           0.001 s
  | Integration                                 :        0.008 s           0.008 s
  | Solution of K.-S. eqns.                     :        0.001 s           0.001 s
  | Total energy evaluation                     :        0.000 s           0.000 s

  Partial memory accounting:
  | Current value for overall tracked memory usage:
  |   Minimum:        5.476 MB (on task 0)
  |   Maximum:        5.549 MB (on task 3)
  |   Average:        5.512 MB
  | Peak value for overall tracked memory usage:
  |   Minimum:        5.568 MB (on task 0 after allocating wave)
  |   Maximum:        5.641 MB (on task 3 after allocating wave)
  |   Average:        5.604 MB
  | Largest tracked array allocation so far:
  |   Minimum:        1.794 MB (previous_rho_gradient_diff on task 0)
  |   Maximum:        1.820 MB (previous_rho_gradient_diff on task 3)
  |   Average:        1.807 MB
  Note:  These values currently only include a subset of arrays which are explicitly tracked.
  The "true" memory usage will be greater.
------------------------------------------------------------

  Energy and forces in a compact form:
  | Total energy uncorrected      :         -0.931775771789194E+04 eV
  | Total energy corrected        :         -0.931775771789194E+04 eV  <-- do not rely on this value for anything but (periodic) metals
  | Electronic free energy        :         -0.931775771789194E+04 eV

  ------------------------------------ 
  Start decomposition of the XC Energy 
  ------------------------------------ 
  X and C from original XC functional choice 
  Hartree-Fock Energy :          0.000000000 Ha              0.000000000 eV
  X Energy            :        -22.573925354 Ha           -614.267762493 eV
  C Energy            :         -0.524384330 Ha            -14.269223632 eV
  XC Energy w/o HF    :        -23.098309684 Ha           -628.536986125 eV
  Total XC Energy     :        -23.098309684 Ha           -628.536986125 eV
  ------------------------------------ 
  LDA X and C from self-consistent density 
  X Energy LDA        :        -20.856086626 Ha           -567.522992340 eV
  C Energy LDA        :         -1.113566091 Ha            -30.301675074 eV
  ------------------------------------ 
  End decomposition of the XC Energy 
  ------------------------------------ 

------------------------------------------------------------

------------------------------------------------------------------------------
  Final output of selected total energy values:

  The following output summarizes some interesting total energy values
  at the end of a run (AFTER all relaxation, molecular dynamics, etc.).

  | Total energy of the DFT / Hartree-Fock s.c.f. calculation      :          -9317.757717892 eV
  | Final zero-broadening corrected energy (caution - metals only) :          -9317.757717892 eV
  | For reference only, the value of 1 Hartree used in FHI-aims is :             27.211384500 eV

  Before relying on these values, please be sure to understand exactly which
  total energy value is referred to by a given number. Different objects may
  all carry the same name 'total energy'. Definitions:

  Total energy of the DFT / Hartree-Fock s.c.f. calculation:
  | Note that this energy does not include ANY quantities calculated after the
  | s.c.f. cycle, in particular not ANY RPA, MP2, etc. many-body perturbation terms.

  Final zero-broadening corrected energy:
  | For metallic systems only, a broadening of the occupation numbers at the Fermi
  | level can be extrapolated back to zero broadening by an electron-gas inspired
  | formula. For all systems that are not real metals, this value can be
  | meaningless and should be avoided.

------------------------------------------------------------------------------
  Methods described in the following list of references were used in this FHI-aims run.
  If you publish the results, please make sure to cite these reference if they apply.
  FHI-aims is an academic code, and for our developers (often, Ph.D. students
  and postdocs), scientific credit in the community is essential.
  Thank you for helping us!

  For any use of FHI-aims, please cite:

    Volker Blum, Ralf Gehrke, Felix Hanke, Paula Havu, Ville Havu,
    Xinguo Ren, Karsten Reuter, and Matthias Scheffler
    'Ab initio molecular simulations with numeric atom-centered orbitals'
    Computer Physics Communications 180, 2175-2196 (2009)
    http://doi.org/10.1016/j.cpc.2009.06.022


  The ELSI infrastructure was used in your run to solve the Kohn-Sham electronic structure.
  Please check out https://wordpress.elsi-interchange.org to learn more.
  If scalability is important for your project, please acknowledge ELSI by citing:

    V. W-z. Yu, F. Corsetti, A. Garcia, W. P. Huhn, M. Jacquelin, W. Jia,
    B. Lange, L. Lin, J. Lu, W. Mi, A. Seifitokaldani, A. Vazquez-Mayagoitia,
    C. Yang, H. Yang, and V. Blum
    'ELSI: A unified software interface for Kohn-Sham electronic structure solvers'
    Computer Physics Communications 222, 267-285 (2018).
    http://doi.org/10.1016/j.cpc.2017.09.007


  For the real-space grid partitioning and parallelization used in this calculation, please cite:

    Ville Havu, Volker Blum, Paula Havu, and Matthias Scheffler,
    'Efficient O(N) integration for all-electron electronic structure calculation'
    'using numerically tabulated basis functions'
    Journal of Computational Physics 228, 8367-8379 (2009).
    http://doi.org/10.1016/j.jcp.2009.08.008

  Of course, there are many other important community references, e.g., those cited in the
  above references. Our list is limited to references that describe implementations in the
  FHI-aims code. The reason is purely practical (length of this list) - please credit others as well.
------------------------------------------------------------
Warnings summary:

At least    1 warnings were raised during execution.

------------------------------------------------------------
          Leaving FHI-aims.
          Date     :  20260722, Time     :  122644.144

          Computational steps:
          | Number of self-consistency cycles          :            6
          | Number of SCF (re)initializations          :            1

          Detailed time accounting                     :  max(cpu_time)    wall_clock(cpu1)
          | Total time                                  :        2.508 s           4.192 s
          | Preparation time                            :        0.193 s           0.193 s
          | Boundary condition initalization            :        0.001 s           0.001 s
          | Grid partitioning                           :        0.005 s           0.005 s
          | Preloading free-atom quantities on grid     :        0.006 s           0.007 s
          | Free-atom superposition energy              :        0.004 s           0.004 s
          | Total time for integrations                 :        0.058 s           0.058 s
          | Total time for solution of K.-S. equations  :        0.008 s           0.007 s
          | Total time for density update               :        0.024 s           0.025 s
          | Total time for mixing                       :        2.356 s           0.430 s
          | Total time for Hartree multipole update     :        0.006 s           0.007 s
          | Total time for Hartree multipole sum        :        0.010 s           0.011 s
          | Total time for total energy evaluation      :        0.001 s           0.001 s
          | Total time for scaled ZORA corrections      :        0.000 s           0.000 s

          Partial memory accounting:
          | Residual value for overall tracked memory usage across tasks:     0.000000 MB (should be 0.000000 MB)
          | Peak values for overall tracked memory usage:
          |   Minimum:        5.568 MB (on task 0 after allocating wave)
          |   Maximum:        5.641 MB (on task 3 after allocating wave)
          |   Average:        5.604 MB
          | Largest tracked array allocation:
          |   Minimum:        1.794 MB (previous_rho_gradient_diff on task 0)
          |   Maximum:        1.820 MB (previous_rho_gradient_diff on task 3)
          |   Average:        1.807 MB
          Note:  These values currently only include a subset of arrays which are explicitly tracked.
          The "true" memory usage will be greater.

          Have a nice day.
------------------------------------------------------------
