8
Properties=species:S:1:pos:R:3:forces:R:3 calculation_type=dimer_refinement calculation_label=AlH3PH3/refinement_41/point_022_distance_2.570000 d4_functional=wB97M d4_method=wb97m d4_energy_eV=-0.12335481807508722 source_geometry=/mnt/ceph/users/cwoodson/dft_calc/diatomics/dimer_jobs/AlH3PH3/refinement_41/point_022_distance_2.570000/geometry.in energy=-0.12335481807508722 free_energy=-0.12335481807508722 pbc="F F F"
Al      -0.00000100       0.00000352       1.28500000      -0.00000000       0.00000007      -0.01056182
P        0.00000100      -0.00000352      -1.28500000      -0.00000000      -0.00000017       0.01927364
H        0.00000300       1.57524852       1.46299000      -0.00000002      -0.00826784      -0.00680251
H       -1.36418900      -0.78760248       1.46317600       0.00715995       0.00413383      -0.00680277
H        1.36418200      -0.78761048       1.46318100      -0.00715991       0.00413386      -0.00680277
H        0.00000500      -1.22538052      -1.96730200      -0.00000002       0.00305605       0.00389860
H       -1.06124400       0.61274848      -1.96718100       0.00264664      -0.00152789       0.00389882
H        1.06123500       0.61276048      -1.96718700      -0.00264663      -0.00152792       0.00389881
