8
Properties=species:S:1:pos:R:3:forces:R:3 calculation_type=dimer_refinement calculation_label=AlH3PH3/refinement_41/point_002_distance_2.370000 d4_functional=wB97M d4_method=wb97m d4_energy_eV=-0.12941718171529568 source_geometry=/mnt/ceph/users/cwoodson/dft_calc/diatomics/dimer_jobs/AlH3PH3/refinement_41/point_002_distance_2.370000/geometry.in energy=-0.12941718171529568 free_energy=-0.12941718171529568 pbc="F F F"
Al      -0.00000093       0.00000324       1.18500000      -0.00000000       0.00000004      -0.00897558
P        0.00000093      -0.00000324      -1.18500000       0.00000000      -0.00000033       0.01670758
H        0.00000307       1.57524824       1.36299000      -0.00000002      -0.00840353      -0.00689237
H       -1.36418893      -0.78760276       1.36317600       0.00727752       0.00420174      -0.00689271
H        1.36418207      -0.78761076       1.36318100      -0.00727748       0.00420177      -0.00689271
H        0.00000493      -1.22538024      -1.86730200      -0.00000002       0.00321247       0.00431511
H       -1.06124407       0.61274876      -1.86718100       0.00278212      -0.00160607       0.00431534
H        1.06123493       0.61276076      -1.86718700      -0.00278211      -0.00160609       0.00431533
