8
Properties=species:S:1:pos:R:3:forces:R:3 calculation_type=dimer_refinement calculation_label=AlH3PH3/refinement_41/point_012_distance_2.470000 d4_functional=wB97M d4_method=wb97m d4_energy_eV=-0.12641911809453138 source_geometry=/mnt/ceph/users/cwoodson/dft_calc/diatomics/dimer_jobs/AlH3PH3/refinement_41/point_012_distance_2.470000/geometry.in energy=-0.12641911809453138 free_energy=-0.12641911809453138 pbc="F F F"
Al      -0.00000097       0.00000338       1.23500000      -0.00000000       0.00000006      -0.00971272
P        0.00000097      -0.00000338      -1.23500000      -0.00000000      -0.00000025       0.01796173
H        0.00000303       1.57524838       1.41299000      -0.00000002      -0.00834559      -0.00686602
H       -1.36418897      -0.78760262       1.41317600       0.00722731       0.00417274      -0.00686633
H        1.36418203      -0.78761062       1.41318100      -0.00722728       0.00417277      -0.00686634
H        0.00000497      -1.22538038      -1.91730200      -0.00000002       0.00314513       0.00411642
H       -1.06124403       0.61274862      -1.91718100       0.00272380      -0.00157242       0.00411664
H        1.06123497       0.61276062      -1.91718700      -0.00272379      -0.00157244       0.00411663
