8
Properties=species:S:1:pos:R:3:forces:R:3 calculation_type=dimer_refinement calculation_label=AlH3PH3/refinement_41/point_031_distance_2.660000 d4_functional=wB97M d4_method=wb97m d4_energy_eV=-0.12054306467608006 source_geometry=/mnt/ceph/users/cwoodson/dft_calc/diatomics/dimer_jobs/AlH3PH3/refinement_41/point_031_distance_2.660000/geometry.in energy=-0.12054306467608006 free_energy=-0.12054306467608006 pbc="F F F"
Al      -0.00000104       0.00000364       1.33000000      -0.00000000       0.00000008      -0.01138078
P        0.00000104      -0.00000364      -1.33000000      -0.00000001      -0.00000009       0.02045490
H        0.00000296       1.57524864       1.50799000      -0.00000002      -0.00817835      -0.00670431
H       -1.36418904      -0.78760236       1.50817600       0.00708241       0.00408906      -0.00670452
H        1.36418196      -0.78761036       1.50818100      -0.00708238       0.00408909      -0.00670453
H        0.00000504      -1.22538064      -2.01230200      -0.00000002       0.00295170       0.00367961
H       -1.06124396       0.61274836      -2.01218100       0.00255627      -0.00147573       0.00367982
H        1.06123504       0.61276036      -2.01218700      -0.00255626      -0.00147575       0.00367981
