8
Properties=species:S:1:pos:R:3:forces:R:3 calculation_type=dimer_refinement calculation_label=AlH3PH3/refinement_41/point_008_distance_2.430000 d4_functional=wB97M d4_method=wb97m d4_energy_eV=-0.1276262539993056 source_geometry=/mnt/ceph/users/cwoodson/dft_calc/diatomics/dimer_jobs/AlH3PH3/refinement_41/point_008_distance_2.430000/geometry.in energy=-0.1276262539993056 free_energy=-0.1276262539993056 pbc="F F F"
Al      -0.00000095       0.00000332       1.21500000      -0.00000000       0.00000005      -0.00940415
P        0.00000095      -0.00000332      -1.21500000      -0.00000000      -0.00000028       0.01745223
H        0.00000305       1.57524832       1.39299000      -0.00000002      -0.00837090      -0.00688031
H       -1.36418895      -0.78760268       1.39317600       0.00724925       0.00418541      -0.00688064
H        1.36418205      -0.78761068       1.39318100      -0.00724921       0.00418544      -0.00688064
H        0.00000495      -1.22538032      -1.89730200      -0.00000002       0.00317424       0.00419769
H       -1.06124405       0.61274868      -1.89718100       0.00274901      -0.00158697       0.00419792
H        1.06123495       0.61276068      -1.89718700      -0.00274900      -0.00158699       0.00419791
