8
Properties=species:S:1:pos:R:3:forces:R:3 calculation_type=dimer_refinement calculation_label=AlH3PH3/refinement_41/point_019_distance_2.540000 d4_functional=wB97M d4_method=wb97m d4_energy_eV=-0.12428101778481414 source_geometry=/mnt/ceph/users/cwoodson/dft_calc/diatomics/dimer_jobs/AlH3PH3/refinement_41/point_019_distance_2.540000/geometry.in energy=-0.12428101778481414 free_energy=-0.12428101778481414 pbc="F F F"
Al      -0.00000099       0.00000348       1.27000000      -0.00000000       0.00000007      -0.01029676
P        0.00000099      -0.00000348      -1.27000000      -0.00000000      -0.00000019       0.01887603
H        0.00000301       1.57524848       1.44799000      -0.00000002      -0.00829347      -0.00682618
H       -1.36418899      -0.78760252       1.44817600       0.00718215       0.00414666      -0.00682646
H        1.36418201      -0.78761052       1.44818100      -0.00718212       0.00414669      -0.00682647
H        0.00000499      -1.22538048      -1.95230200      -0.00000002       0.00308550       0.00396648
H       -1.06124401       0.61274852      -1.95218100       0.00267215      -0.00154262       0.00396669
H        1.06123499       0.61276052      -1.95218700      -0.00267214      -0.00154264       0.00396668
