2
Properties=species:S:1:pos:R:3:forces:R:3 calculation_type=dimer_refinement calculation_label=AlP/refinement_41/point_007_distance_1.900000 d4_functional=wB97M d4_method=wb97m d4_energy_eV=-0.02202889834987759 source_geometry=/mnt/ceph/users/cwoodson/dft_calc/diatomics/dimer_jobs/AlP/refinement_41/point_007_distance_1.900000/geometry.in energy=-0.02202889834987759 free_energy=-0.02202889834987759 pbc="F F F"
Al       0.00000000       0.00000000      -0.95000000      -0.00000000      -0.00000000       0.00022700
P        0.00000000       0.00000000       0.95000000      -0.00000000      -0.00000000      -0.00022700
