2
Properties=species:S:1:pos:R:3:forces:R:3 calculation_type=dimer_refinement calculation_label=AlP/refinement_100/point_031_distance_1.84 d4_functional=wB97M d4_method=wb97m d4_energy_eV=-0.022041849761073026 source_geometry=/mnt/ceph/users/cwoodson/dft_calc/diatomics/dimer_jobs/AlP/refinement_100/point_031_distance_1.84/geometry.in energy=-0.022041849761073026 free_energy=-0.022041849761073026 pbc="F F F"
Al       0.00000000       0.00000000      -0.92000000      -0.00000000      -0.00000000       0.00020534
P        0.00000000       0.00000000       0.92000000      -0.00000000      -0.00000000      -0.00020534
