2
Properties=species:S:1:pos:R:3:forces:R:3 calculation_type=dimer_refinement calculation_label=AlP/refinement_41/point_002_distance_1.850000 d4_functional=wB97M d4_method=wb97m d4_energy_eV=-0.022039779728665727 source_geometry=/mnt/ceph/users/cwoodson/dft_calc/diatomics/dimer_jobs/AlP/refinement_41/point_002_distance_1.850000/geometry.in energy=-0.022039779728665727 free_energy=-0.022039779728665727 pbc="F F F"
Al       0.00000000       0.00000000      -0.92500000      -0.00000000      -0.00000000       0.00020869
P        0.00000000       0.00000000       0.92500000      -0.00000000      -0.00000000      -0.00020869
