2
Properties=species:S:1:pos:R:3:forces:R:3 calculation_type=dimer_refinement calculation_label=AlP/refinement_100/point_026_distance_1.79 d4_functional=wB97M d4_method=wb97m d4_energy_eV=-0.022051725118680605 source_geometry=/mnt/ceph/users/cwoodson/dft_calc/diatomics/dimer_jobs/AlP/refinement_100/point_026_distance_1.79/geometry.in energy=-0.022051725118680605 free_energy=-0.022051725118680605 pbc="F F F"
Al       0.00000000       0.00000000      -0.89500000      -0.00000000      -0.00000000       0.00019010
P        0.00000000       0.00000000       0.89500000      -0.00000000      -0.00000000      -0.00019010
