2
Properties=species:S:1:pos:R:3:forces:R:3 calculation_type=dimer_refinement calculation_label=AlP/refinement_100/point_077_distance_2.30 d4_functional=wB97M d4_method=wb97m d4_energy_eV=-0.021898174214264318 source_geometry=/mnt/ceph/users/cwoodson/dft_calc/diatomics/dimer_jobs/AlP/refinement_100/point_077_distance_2.30/geometry.in energy=-0.021898174214264318 free_energy=-0.021898174214264318 pbc="F F F"
Al       0.00000000       0.00000000      -1.15000000      -0.00000000      -0.00000000       0.00043347
P        0.00000000       0.00000000       1.15000000      -0.00000000      -0.00000000      -0.00043347
