2
Properties=species:S:1:pos:R:3:forces:R:3 calculation_type=dimer_refinement calculation_label=AlP/refinement_41/point_027_distance_2.100000 d4_functional=wB97M d4_method=wb97m d4_energy_eV=-0.021974335990549276 source_geometry=/mnt/ceph/users/cwoodson/dft_calc/diatomics/dimer_jobs/AlP/refinement_41/point_027_distance_2.100000/geometry.in energy=-0.021974335990549276 free_energy=-0.021974335990549276 pbc="F F F"
Al       0.00000000       0.00000000      -1.05000000      -0.00000000      -0.00000000       0.00032450
P        0.00000000       0.00000000       1.05000000      -0.00000000      -0.00000000      -0.00032450
