8
Properties=species:S:1:pos:R:3:forces:R:3 calculation_type=dimer_refinement calculation_label=BH3NH3/refinement_41/point_016_distance_1.600000 d4_functional=wB97M d4_method=wb97m d4_energy_eV=-0.11069195850493621 source_geometry=/mnt/ceph/users/cwoodson/dft_calc/diatomics/dimer_jobs/BH3NH3/refinement_41/point_016_distance_1.600000/geometry.in energy=-0.11069195850493621 free_energy=-0.11069195850493621 pbc="F F F"
B        0.00000000      -0.00000145       0.80000000      -0.00000001       0.00000012      -0.00693007
N        0.00000000       0.00000145      -0.80000000       0.00000000       0.00000004       0.00999661
H        0.00000100       1.16489155       1.11181100       0.00000000       0.00264518      -0.00234161
H       -1.00882800      -0.58244845       1.11181100      -0.00229086      -0.00132263      -0.00234160
H        1.00882700      -0.58245045       1.11181100       0.00229087      -0.00132264      -0.00234160
H        0.00000100      -0.94642455      -1.15988200       0.00000000      -0.00237508       0.00131943
H       -0.81962900       0.47320845      -1.15988400      -0.00205688       0.00118751       0.00131942
H        0.81962800       0.47321045      -1.15988400       0.00205688       0.00118751       0.00131942
