8
Properties=species:S:1:pos:R:3:forces:R:3 calculation_type=dimer_refinement calculation_label=BH3NH3/refinement_41/point_036_distance_1.800000 d4_functional=wB97M d4_method=wb97m d4_energy_eV=-0.1077391169983897 source_geometry=/mnt/ceph/users/cwoodson/dft_calc/diatomics/dimer_jobs/BH3NH3/refinement_41/point_036_distance_1.800000/geometry.in energy=-0.1077391169983897 free_energy=-0.1077391169983897 pbc="F F F"
B       -0.00000000      -0.00000163       0.90000000      -0.00000000       0.00000005      -0.00502374
N        0.00000000       0.00000163      -0.90000000       0.00000000       0.00000003       0.01221951
H        0.00000100       1.16489137       1.21181100      -0.00000000      -0.00158331      -0.00438528
H       -1.00882800      -0.58244863       1.21181100       0.00137117       0.00079164      -0.00438529
H        1.00882700      -0.58245063       1.21181100      -0.00137116       0.00079164      -0.00438529
H        0.00000100      -0.94642437      -1.25988200       0.00000000      -0.00173478       0.00198670
H       -0.81962900       0.47320863      -1.25988400      -0.00150235       0.00086736       0.00198669
H        0.81962800       0.47321063      -1.25988400       0.00150235       0.00086736       0.00198669
