8
Properties=species:S:1:pos:R:3:forces:R:3 calculation_type=dimer_refinement calculation_label=BH3NH3/refinement_41/point_027_distance_1.710000 d4_functional=wB97M d4_method=wb97m d4_energy_eV=-0.10916270748909909 source_geometry=/mnt/ceph/users/cwoodson/dft_calc/diatomics/dimer_jobs/BH3NH3/refinement_41/point_027_distance_1.710000/geometry.in energy=-0.10916270748909909 free_energy=-0.10916270748909909 pbc="F F F"
B       -0.00000000      -0.00000155       0.85500000      -0.00000001       0.00000009      -0.00431600
N        0.00000000       0.00000155      -0.85500000       0.00000000       0.00000004       0.00905927
H        0.00000100       1.16489145       1.16681100       0.00000000       0.00113600      -0.00327236
H       -1.00882800      -0.58244855       1.16681100      -0.00098386      -0.00056804      -0.00327236
H        1.00882700      -0.58245055       1.16681100       0.00098387      -0.00056804      -0.00327236
H        0.00000100      -0.94642445      -1.21488200       0.00000000      -0.00204319       0.00169127
H       -0.81962900       0.47320855      -1.21488400      -0.00176945       0.00102156       0.00169126
H        0.81962800       0.47321055      -1.21488400       0.00176944       0.00102157       0.00169126
