8
Properties=species:S:1:pos:R:3:forces:R:3 calculation_type=dimer_refinement calculation_label=BH3NH3/refinement_41/point_010_distance_1.540000 d4_functional=wB97M d4_method=wb97m d4_energy_eV=-0.11152328979410425 source_geometry=/mnt/ceph/users/cwoodson/dft_calc/diatomics/dimer_jobs/BH3NH3/refinement_41/point_010_distance_1.540000/geometry.in energy=-0.11152328979410425 free_energy=-0.11152328979410425 pbc="F F F"
B        0.00000000      -0.00000140       0.77000000      -0.00000001       0.00000012      -0.00773644
N        0.00000000       0.00000140      -0.77000000       0.00000000       0.00000004       0.01032857
H        0.00000100       1.16489160       1.08181100       0.00000000       0.00286964      -0.00197614
H       -1.00882800      -0.58244840       1.08181100      -0.00248525      -0.00143486      -0.00197614
H        1.00882700      -0.58245040       1.08181100       0.00248526      -0.00143487      -0.00197613
H        0.00000100      -0.94642460      -1.12988200       0.00000000      -0.00254823       0.00111210
H       -0.81962900       0.47320840      -1.12988400      -0.00220683       0.00127408       0.00111209
H        0.81962800       0.47321040      -1.12988400       0.00220683       0.00127409       0.00111209
