8
Properties=species:S:1:pos:R:3:forces:R:3 calculation_type=dimer_refinement calculation_label=BH3NH3/refinement_41/point_022_distance_1.660000 d4_functional=wB97M d4_method=wb97m d4_energy_eV=-0.10985768206558229 source_geometry=/mnt/ceph/users/cwoodson/dft_calc/diatomics/dimer_jobs/BH3NH3/refinement_41/point_022_distance_1.660000/geometry.in energy=-0.10985768206558229 free_energy=-0.10985768206558229 pbc="F F F"
B       -0.00000000      -0.00000151       0.83000000      -0.00000001       0.00000011      -0.00550952
N        0.00000000       0.00000151      -0.83000000       0.00000000       0.00000004       0.00925986
H        0.00000100       1.16489149       1.14181100       0.00000000       0.00212960      -0.00277348
H       -1.00882800      -0.58244851       1.14181100      -0.00184436      -0.00106484      -0.00277347
H        1.00882700      -0.58245051       1.14181100       0.00184436      -0.00106485      -0.00277347
H        0.00000100      -0.94642449      -1.18988200       0.00000000      -0.00219805       0.00152337
H       -0.81962900       0.47320851      -1.18988400      -0.00190357       0.00109899       0.00152335
H        0.81962800       0.47321051      -1.18988400       0.00190356       0.00109900       0.00152336
