8
Properties=species:S:1:pos:R:3:forces:R:3 calculation_type=dimer_refinement calculation_label=BH3NH3/refinement_41/point_002_distance_1.460000 d4_functional=wB97M d4_method=wb97m d4_energy_eV=-0.11257618853433013 source_geometry=/mnt/ceph/users/cwoodson/dft_calc/diatomics/dimer_jobs/BH3NH3/refinement_41/point_002_distance_1.460000/geometry.in energy=-0.11257618853433013 free_energy=-0.11257618853433013 pbc="F F F"
B        0.00000000      -0.00000133       0.73000000      -0.00000001       0.00000012      -0.00805846
N        0.00000000       0.00000133      -0.73000000       0.00000000       0.00000004       0.01005745
H        0.00000100       1.16489167       1.04181100       0.00000000       0.00310684      -0.00149565
H       -1.00882800      -0.58244833       1.04181100      -0.00269068      -0.00155347      -0.00149565
H        1.00882700      -0.58245033       1.04181100       0.00269069      -0.00155348      -0.00149564
H        0.00000100      -0.94642467      -1.08988200       0.00000000      -0.00278070       0.00082933
H       -0.81962900       0.47320833      -1.08988400      -0.00240816       0.00139032       0.00082931
H        0.81962800       0.47321033      -1.08988400       0.00240816       0.00139032       0.00082931
