8
Properties=species:S:1:pos:R:3:forces:R:3 calculation_type=dimer_refinement calculation_label=BH3NH3/refinement_41/point_026_distance_1.700000 d4_functional=wB97M d4_method=wb97m d4_energy_eV=-0.10930324098295588 source_geometry=/mnt/ceph/users/cwoodson/dft_calc/diatomics/dimer_jobs/BH3NH3/refinement_41/point_026_distance_1.700000/geometry.in energy=-0.10930324098295588 free_energy=-0.10930324098295588 pbc="F F F"
B       -0.00000000      -0.00000154       0.85000000      -0.00000001       0.00000009      -0.00450522
N        0.00000000       0.00000154      -0.85000000       0.00000000       0.00000004       0.00901001
H        0.00000100       1.16489146       1.16181100       0.00000000       0.00138756      -0.00315943
H       -1.00882800      -0.58244854       1.16181100      -0.00120172      -0.00069381      -0.00315943
H        1.00882700      -0.58245054       1.16181100       0.00120172      -0.00069382      -0.00315943
H        0.00000100      -0.94642446      -1.20988200       0.00000000      -0.00207491       0.00165784
H       -0.81962900       0.47320854      -1.20988400      -0.00179692       0.00103742       0.00165783
H        0.81962800       0.47321054      -1.20988400       0.00179692       0.00103743       0.00165783
