8
Properties=species:S:1:pos:R:3:forces:R:3 calculation_type=dimer_refinement calculation_label=BH3NH3/refinement_41/point_021_distance_1.650000 d4_functional=wB97M d4_method=wb97m d4_energy_eV=-0.10999608592698307 source_geometry=/mnt/ceph/users/cwoodson/dft_calc/diatomics/dimer_jobs/BH3NH3/refinement_41/point_021_distance_1.650000/geometry.in energy=-0.10999608592698307 free_energy=-0.10999608592698307 pbc="F F F"
B        0.00000000      -0.00000150       0.82500000      -0.00000001       0.00000011      -0.00577685
N        0.00000000       0.00000150      -0.82500000       0.00000000       0.00000004       0.00938388
H        0.00000100       1.16489150       1.13681100       0.00000000       0.00225504      -0.00269192
H       -1.00882800      -0.58244850       1.13681100      -0.00195299      -0.00112756      -0.00269191
H        1.00882700      -0.58245050       1.13681100       0.00195299      -0.00112757      -0.00269191
H        0.00000100      -0.94642450      -1.18488200       0.00000000      -0.00222807       0.00148958
H       -0.81962900       0.47320850      -1.18488400      -0.00192956       0.00111400       0.00148956
H        0.81962800       0.47321050      -1.18488400       0.00192956       0.00111401       0.00148956
