8
Properties=species:S:1:pos:R:3:forces:R:3 calculation_type=dimer_refinement calculation_label=BH3NH3/refinement_41/point_039_distance_1.830000 d4_functional=wB97M d4_method=wb97m d4_energy_eV=-0.10716805920939691 source_geometry=/mnt/ceph/users/cwoodson/dft_calc/diatomics/dimer_jobs/BH3NH3/refinement_41/point_039_distance_1.830000/geometry.in energy=-0.10716805920939691 free_energy=-0.10716805920939691 pbc="F F F"
B       -0.00000000      -0.00000166       0.91500000      -0.00000000       0.00000004      -0.00584050
N        0.00000000       0.00000166      -0.91500000       0.00000000       0.00000003       0.01360112
H        0.00000100       1.16489134       1.22681100      -0.00000000      -0.00220383      -0.00466871
H       -1.00882800      -0.58244866       1.22681100       0.00190856       0.00110191      -0.00466873
H        1.00882700      -0.58245066       1.22681100      -0.00190856       0.00110191      -0.00466873
H        0.00000100      -0.94642434      -1.27488200       0.00000000      -0.00162169       0.00208186
H       -0.81962900       0.47320866      -1.27488400      -0.00140442       0.00081082       0.00208185
H        0.81962800       0.47321066      -1.27488400       0.00140442       0.00081082       0.00208185
