8
Properties=species:S:1:pos:R:3:forces:R:3 calculation_type=dimer_refinement calculation_label=BH3PH3/refinement_41/point_039_distance_2.110000 d4_functional=wB97M d4_method=wb97m d4_energy_eV=-0.1247850967025474 source_geometry=/mnt/ceph/users/cwoodson/dft_calc/diatomics/dimer_jobs/BH3PH3/refinement_41/point_039_distance_2.110000/geometry.in energy=-0.1247850967025474 free_energy=-0.1247850967025474 pbc="F F F"
B        0.00000000      -0.00000055       1.05500000      -0.00000003       0.00000012      -0.01307700
P        0.00000000       0.00000055      -1.05500000       0.00000000      -0.00000001       0.01029957
H        0.00000000       1.16874645       1.33709100      -0.00000000       0.00068357      -0.00407305
H       -1.01216600      -0.58437655       1.33708700      -0.00059205      -0.00034183      -0.00407305
H        1.01216600      -0.58437755       1.33708800       0.00059208      -0.00034185      -0.00407303
H        0.00000000      -1.23673745      -1.71210300      -0.00000000       0.00381421       0.00499886
H       -1.07104200       0.61836655      -1.71210700       0.00330317      -0.00190710       0.00499885
H        1.07104100       0.61836755      -1.71210800      -0.00330317      -0.00190710       0.00499885
