8
Properties=species:S:1:pos:R:3:forces:R:3 calculation_type=dimer_refinement calculation_label=BH3PH3/refinement_41/point_024_distance_1.960000 d4_functional=wB97M d4_method=wb97m d4_energy_eV=-0.12862500307940083 source_geometry=/mnt/ceph/users/cwoodson/dft_calc/diatomics/dimer_jobs/BH3PH3/refinement_41/point_024_distance_1.960000/geometry.in energy=-0.12862500307940083 free_energy=-0.12862500307940083 pbc="F F F"
B        0.00000000      -0.00000051       0.98000000      -0.00000002       0.00000009      -0.01251415
P        0.00000000       0.00000051      -0.98000000       0.00000000      -0.00000001       0.00976293
H        0.00000000       1.16874649       1.26209100      -0.00000000      -0.00038242      -0.00429663
H       -1.01216600      -0.58437651       1.26208700       0.00033114       0.00019118      -0.00429663
H        1.01216600      -0.58437751       1.26208800      -0.00033112       0.00019116      -0.00429662
H        0.00000000      -1.23673749      -1.63710300      -0.00000000       0.00396124       0.00521371
H       -1.07104200       0.61836651      -1.63710700       0.00343050      -0.00198061       0.00521370
H        1.07104100       0.61836751      -1.63710800      -0.00343050      -0.00198062       0.00521370
