8
Properties=species:S:1:pos:R:3:forces:R:3 calculation_type=dimer_refinement calculation_label=BH3PH3/refinement_41/point_002_distance_1.740000 d4_functional=wB97M d4_method=wb97m d4_energy_eV=-0.1340493552500737 source_geometry=/mnt/ceph/users/cwoodson/dft_calc/diatomics/dimer_jobs/BH3PH3/refinement_41/point_002_distance_1.740000/geometry.in energy=-0.1340493552500737 free_energy=-0.1340493552500737 pbc="F F F"
B        0.00000000      -0.00000045       0.87000000      -0.00000002       0.00000009      -0.01070908
P        0.00000000       0.00000045      -0.87000000       0.00000000      -0.00000001       0.00824832
H        0.00000000       1.16874655       1.15209100      -0.00000000      -0.00058258      -0.00443761
H       -1.01216600      -0.58437645       1.15208700       0.00050449       0.00029126      -0.00443761
H        1.01216600      -0.58437745       1.15208800      -0.00050447       0.00029125      -0.00443760
H        0.00000000      -1.23673755      -1.52710300      -0.00000000       0.00406107       0.00525787
H       -1.07104200       0.61836645      -1.52710700       0.00351696      -0.00203053       0.00525786
H        1.07104100       0.61836745      -1.52710800      -0.00351696      -0.00203054       0.00525786
