8
Properties=species:S:1:pos:R:3:forces:R:3 calculation_type=dimer_refinement calculation_label=BH3PH3/refinement_41/point_016_distance_1.880000 d4_functional=wB97M d4_method=wb97m d4_energy_eV=-0.13063556574585797 source_geometry=/mnt/ceph/users/cwoodson/dft_calc/diatomics/dimer_jobs/BH3PH3/refinement_41/point_016_distance_1.880000/geometry.in energy=-0.13063556574585797 free_energy=-0.13063556574585797 pbc="F F F"
B        0.00000000      -0.00000049       0.94000000      -0.00000002       0.00000009      -0.01188404
P        0.00000000       0.00000049      -0.94000000       0.00000000      -0.00000001       0.00904646
H        0.00000000       1.16874651       1.22209100      -0.00000000      -0.00049476      -0.00432058
H       -1.01216600      -0.58437649       1.22208700       0.00042843       0.00024735      -0.00432058
H        1.01216600      -0.58437749       1.22208800      -0.00042842       0.00024734      -0.00432058
H        0.00000000      -1.23673751      -1.59710300      -0.00000000       0.00400848       0.00526645
H       -1.07104200       0.61836649      -1.59710700       0.00347141      -0.00200424       0.00526644
H        1.07104100       0.61836749      -1.59710800      -0.00347141      -0.00200424       0.00526644
