8
Properties=species:S:1:pos:R:3:forces:R:3 calculation_type=dimer_refinement calculation_label=BH3PH3/refinement_41/point_012_distance_1.840000 d4_functional=wB97M d4_method=wb97m d4_energy_eV=-0.13162361419152271 source_geometry=/mnt/ceph/users/cwoodson/dft_calc/diatomics/dimer_jobs/BH3PH3/refinement_41/point_012_distance_1.840000/geometry.in energy=-0.13162361419152271 free_energy=-0.13162361419152271 pbc="F F F"
B        0.00000000      -0.00000048       0.92000000      -0.00000002       0.00000009      -0.01155701
P        0.00000000       0.00000048      -0.92000000       0.00000000      -0.00000001       0.00872898
H        0.00000000       1.16874652       1.20209100      -0.00000000      -0.00051674      -0.00433401
H       -1.01216600      -0.58437648       1.20208700       0.00044747       0.00025834      -0.00433401
H        1.01216600      -0.58437748       1.20208800      -0.00044745       0.00025832      -0.00433400
H        0.00000000      -1.23673752      -1.57710300      -0.00000000       0.00402613       0.00527669
H       -1.07104200       0.61836648      -1.57710700       0.00348670      -0.00201306       0.00527668
H        1.07104100       0.61836748      -1.57710800      -0.00348670      -0.00201307       0.00527668
