8
Properties=species:S:1:pos:R:3:forces:R:3 calculation_type=dimer_refinement calculation_label=BH3PH3/refinement_41/point_004_distance_1.760000 d4_functional=wB97M d4_method=wb97m d4_energy_eV=-0.13356824533358985 source_geometry=/mnt/ceph/users/cwoodson/dft_calc/diatomics/dimer_jobs/BH3PH3/refinement_41/point_004_distance_1.760000/geometry.in energy=-0.13356824533358985 free_energy=-0.13356824533358985 pbc="F F F"
B        0.00000000      -0.00000046       0.88000000      -0.00000002       0.00000009      -0.01088272
P        0.00000000       0.00000046      -0.88000000       0.00000000      -0.00000001       0.00829404
H        0.00000000       1.16874654       1.16209100      -0.00000000      -0.00056168      -0.00440352
H       -1.01216600      -0.58437646       1.16208700       0.00048639       0.00028081      -0.00440352
H        1.01216600      -0.58437746       1.16208800      -0.00048637       0.00028080      -0.00440351
H        0.00000000      -1.23673754      -1.53710300      -0.00000000       0.00405442       0.00526642
H       -1.07104200       0.61836646      -1.53710700       0.00351120      -0.00202721       0.00526641
H        1.07104100       0.61836746      -1.53710800      -0.00351120      -0.00202721       0.00526641
