8
Properties=species:S:1:pos:R:3:forces:R:3 calculation_type=dimer_refinement calculation_label=BH3PH3/refinement_41/point_023_distance_1.950000 d4_functional=wB97M d4_method=wb97m d4_energy_eV=-0.12887872801973962 source_geometry=/mnt/ceph/users/cwoodson/dft_calc/diatomics/dimer_jobs/BH3PH3/refinement_41/point_023_distance_1.950000/geometry.in energy=-0.12887872801973962 free_energy=-0.12887872801973962 pbc="F F F"
B        0.00000000      -0.00000051       0.97500000      -0.00000002       0.00000009      -0.01243817
P        0.00000000       0.00000051      -0.97500000       0.00000000      -0.00000001       0.00967244
H        0.00000000       1.16874649       1.25709100      -0.00000000      -0.00040488      -0.00430077
H       -1.01216600      -0.58437651       1.25708700       0.00035059       0.00020241      -0.00430077
H        1.01216600      -0.58437751       1.25708800      -0.00035057       0.00020239      -0.00430076
H        0.00000000      -1.23673749      -1.63210300      -0.00000000       0.00396816       0.00522268
H       -1.07104200       0.61836651      -1.63210700       0.00343650      -0.00198408       0.00522267
H        1.07104100       0.61836751      -1.63210800      -0.00343650      -0.00198408       0.00522267
