8
Properties=species:S:1:pos:R:3:forces:R:3 calculation_type=dimer_refinement calculation_label=BH3PH3/refinement_41/point_032_distance_2.040000 d4_functional=wB97M d4_method=wb97m d4_energy_eV=-0.12657702217230474 source_geometry=/mnt/ceph/users/cwoodson/dft_calc/diatomics/dimer_jobs/BH3PH3/refinement_41/point_032_distance_2.040000/geometry.in energy=-0.12657702217230474 free_energy=-0.12657702217230474 pbc="F F F"
B        0.00000000      -0.00000053       1.02000000      -0.00000002       0.00000010      -0.01303382
P        0.00000000       0.00000053      -1.02000000       0.00000000      -0.00000001       0.01036877
H        0.00000000       1.16874647       1.30209100      -0.00000000      -0.00003920      -0.00422914
H       -1.01216600      -0.58437653       1.30208700       0.00003390       0.00001956      -0.00422914
H        1.01216600      -0.58437753       1.30208800      -0.00003387       0.00001955      -0.00422913
H        0.00000000      -1.23673747      -1.67710300      -0.00000000       0.00389353       0.00511750
H       -1.07104200       0.61836653      -1.67710700       0.00337187      -0.00194676       0.00511749
H        1.07104100       0.61836753      -1.67710800      -0.00337187      -0.00194676       0.00511749
