8
Properties=species:S:1:pos:R:3:forces:R:3 calculation_type=dimer_refinement calculation_label=BH3PH3/refinement_41/point_003_distance_1.750000 d4_functional=wB97M d4_method=wb97m d4_energy_eV=-0.13380897900050054 source_geometry=/mnt/ceph/users/cwoodson/dft_calc/diatomics/dimer_jobs/BH3PH3/refinement_41/point_003_distance_1.750000/geometry.in energy=-0.13380897900050054 free_energy=-0.13380897900050054 pbc="F F F"
B        0.00000000      -0.00000045       0.87500000      -0.00000002       0.00000009      -0.01079618
P        0.00000000       0.00000045      -0.87500000       0.00000000      -0.00000001       0.00826720
H        0.00000000       1.16874655       1.15709100      -0.00000000      -0.00057133      -0.00441942
H       -1.01216600      -0.58437645       1.15708700       0.00049474       0.00028563      -0.00441943
H        1.01216600      -0.58437745       1.15708800      -0.00049473       0.00028562      -0.00441942
H        0.00000000      -1.23673755      -1.53210300      -0.00000000       0.00405773       0.00526242
H       -1.07104200       0.61836645      -1.53210700       0.00351407      -0.00202886       0.00526241
H        1.07104100       0.61836745      -1.53210800      -0.00351407      -0.00202886       0.00526242
