2
Properties=species:S:1:pos:R:3:forces:R:3 calculation_type=dimer_refinement calculation_label=BN/refinement_41/point_027_distance_1.360000 d4_functional=wB97M d4_method=wb97m d4_energy_eV=-0.016041776838180002 source_geometry=/mnt/ceph/users/cwoodson/dft_calc/diatomics/dimer_jobs/BN/refinement_41/point_027_distance_1.360000/geometry.in energy=-0.016041776838180002 free_energy=-0.016041776838180002 pbc="F F F"
B        0.00000000       0.00000000      -0.68000000      -0.00000000      -0.00000000       0.00021660
N        0.00000000       0.00000000       0.68000000      -0.00000000      -0.00000000      -0.00021660
