2
Properties=species:S:1:pos:R:3:forces:R:3 calculation_type=dimer_refinement calculation_label=BN/refinement_100/point_022_distance_1.01 d4_functional=wB97M d4_method=wb97m d4_energy_eV=-0.016100726686123504 source_geometry=/mnt/ceph/users/cwoodson/dft_calc/diatomics/dimer_jobs/BN/refinement_100/point_022_distance_1.01/geometry.in energy=-0.016100726686123504 free_energy=-0.016100726686123504 pbc="F F F"
B        0.00000000       0.00000000      -0.50500000      -0.00000000      -0.00000000       0.00012814
N        0.00000000       0.00000000       0.50500000      -0.00000000      -0.00000000      -0.00012814
