2
Properties=species:S:1:pos:R:3:forces:R:3 calculation_type=dimer_refinement calculation_label=BN/refinement_100/point_014_distance_0.93 d4_functional=wB97M d4_method=wb97m d4_energy_eV=-0.016110517070815237 source_geometry=/mnt/ceph/users/cwoodson/dft_calc/diatomics/dimer_jobs/BN/refinement_100/point_014_distance_0.93/geometry.in energy=-0.016110517070815237 free_energy=-0.016110517070815237 pbc="F F F"
B        0.00000000       0.00000000      -0.46500000      -0.00000000      -0.00000000       0.00011708
N        0.00000000       0.00000000       0.46500000      -0.00000000      -0.00000000      -0.00011708
