2
Properties=species:S:1:pos:R:3:forces:R:3 calculation_type=dimer_refinement calculation_label=BN/refinement_100/point_069_distance_1.48 d4_functional=wB97M d4_method=wb97m d4_energy_eV=-0.016016331557287645 source_geometry=/mnt/ceph/users/cwoodson/dft_calc/diatomics/dimer_jobs/BN/refinement_100/point_069_distance_1.48/geometry.in energy=-0.016016331557287645 free_energy=-0.016016331557287645 pbc="F F F"
B        0.00000000       0.00000000      -0.74000000      -0.00000000      -0.00000000       0.00018273
N        0.00000000       0.00000000       0.74000000      -0.00000000      -0.00000000      -0.00018273
