2
Properties=species:S:1:pos:R:3:forces:R:3 calculation_type=dimer_refinement calculation_label=BN/refinement_41/point_003_distance_1.120000 d4_functional=wB97M d4_method=wb97m d4_energy_eV=-0.016085553146636043 source_geometry=/mnt/ceph/users/cwoodson/dft_calc/diatomics/dimer_jobs/BN/refinement_41/point_003_distance_1.120000/geometry.in energy=-0.016085553146636043 free_energy=-0.016085553146636043 pbc="F F F"
B        0.00000000       0.00000000      -0.56000000      -0.00000000      -0.00000000       0.00014904
N        0.00000000       0.00000000       0.56000000      -0.00000000      -0.00000000      -0.00014904
