2
Properties=species:S:1:pos:R:3:forces:R:3 calculation_type=dimer_refinement calculation_label=BN/refinement_41/point_035_distance_1.440000 d4_functional=wB97M d4_method=wb97m d4_energy_eV=-0.016024312625231057 source_geometry=/mnt/ceph/users/cwoodson/dft_calc/diatomics/dimer_jobs/BN/refinement_41/point_035_distance_1.440000/geometry.in energy=-0.016024312625231057 free_energy=-0.016024312625231057 pbc="F F F"
B        0.00000000       0.00000000      -0.72000000      -0.00000000      -0.00000000       0.00021194
N        0.00000000       0.00000000       0.72000000      -0.00000000      -0.00000000      -0.00021194
