2
Properties=species:S:1:pos:R:3:forces:R:3 calculation_type=dimer_refinement calculation_label=BN/refinement_100/point_037_distance_1.16 d4_functional=wB97M d4_method=wb97m d4_energy_eV=-0.016079401461836586 source_geometry=/mnt/ceph/users/cwoodson/dft_calc/diatomics/dimer_jobs/BN/refinement_100/point_037_distance_1.16/geometry.in energy=-0.016079401461836586 free_energy=-0.016079401461836586 pbc="F F F"
B        0.00000000       0.00000000      -0.58000000      -0.00000000      -0.00000000       0.00015875
N        0.00000000       0.00000000       0.58000000      -0.00000000      -0.00000000      -0.00015875
