2
Properties=species:S:1:pos:R:3:forces:R:3 calculation_type=dimer_refinement calculation_label=BP/refinement_41/point_010_distance_1.510000 d4_functional=wB97M d4_method=wb97m d4_energy_eV=-0.02131529186630146 source_geometry=/mnt/ceph/users/cwoodson/dft_calc/diatomics/dimer_jobs/BP/refinement_41/point_010_distance_1.510000/geometry.in energy=-0.02131529186630146 free_energy=-0.02131529186630146 pbc="F F F"
B        0.00000000       0.00000000      -0.75500000      -0.00000000      -0.00000000      -0.00001652
P        0.00000000       0.00000000       0.75500000      -0.00000000      -0.00000000       0.00001652
