2
Properties=species:S:1:pos:R:3:forces:R:3 calculation_type=dimer_refinement calculation_label=BP/refinement_100/point_016_distance_1.27 d4_functional=wB97M d4_method=wb97m d4_energy_eV=-0.02129940230837632 source_geometry=/mnt/ceph/users/cwoodson/dft_calc/diatomics/dimer_jobs/BP/refinement_100/point_016_distance_1.27/geometry.in energy=-0.02129940230837632 free_energy=-0.02129940230837632 pbc="F F F"
B        0.00000000       0.00000000      -0.63500000      -0.00000000      -0.00000000      -0.00010524
P        0.00000000       0.00000000       0.63500000      -0.00000000      -0.00000000       0.00010524
