2
Properties=species:S:1:pos:R:3:forces:R:3 calculation_type=dimer_refinement calculation_label=BP/refinement_100/point_097_distance_2.08 d4_functional=wB97M d4_method=wb97m d4_energy_eV=-0.021180231870160358 source_geometry=/mnt/ceph/users/cwoodson/dft_calc/diatomics/dimer_jobs/BP/refinement_100/point_097_distance_2.08/geometry.in energy=-0.021180231870160358 free_energy=-0.021180231870160358 pbc="F F F"
B        0.00000000       0.00000000      -1.04000000      -0.00000000      -0.00000000       0.00064184
P        0.00000000       0.00000000       1.04000000      -0.00000000      -0.00000000      -0.00064184
