2
Properties=species:S:1:pos:R:3:forces:R:3 calculation_type=dimer_refinement calculation_label=BP/refinement_41/point_011_distance_1.520000 d4_functional=wB97M d4_method=wb97m d4_energy_eV=-0.02131543117659739 source_geometry=/mnt/ceph/users/cwoodson/dft_calc/diatomics/dimer_jobs/BP/refinement_41/point_011_distance_1.520000/geometry.in energy=-0.02131543117659739 free_energy=-0.02131543117659739 pbc="F F F"
B        0.00000000       0.00000000      -0.76000000      -0.00000000      -0.00000000      -0.00001132
P        0.00000000       0.00000000       0.76000000      -0.00000000      -0.00000000       0.00001132
