2
Properties=species:S:1:pos:R:3:forces:R:3 calculation_type=dimer_refinement calculation_label=BP/refinement_100/point_066_distance_1.77 d4_functional=wB97M d4_method=wb97m d4_energy_eV=-0.021297568362025662 source_geometry=/mnt/ceph/users/cwoodson/dft_calc/diatomics/dimer_jobs/BP/refinement_100/point_066_distance_1.77/geometry.in energy=-0.021297568362025662 free_energy=-0.021297568362025662 pbc="F F F"
B        0.00000000       0.00000000      -0.88500000      -0.00000000      -0.00000000       0.00017363
P        0.00000000       0.00000000       0.88500000      -0.00000000      -0.00000000      -0.00017363
