2
Properties=species:S:1:pos:R:3:forces:R:3 calculation_type=dimer_refinement calculation_label=BP/refinement_100/point_047_distance_1.58 d4_functional=wB97M d4_method=wb97m d4_energy_eV=-0.02131510874816013 source_geometry=/mnt/ceph/users/cwoodson/dft_calc/diatomics/dimer_jobs/BP/refinement_100/point_047_distance_1.58/geometry.in energy=-0.02131510874816013 free_energy=-0.02131510874816013 pbc="F F F"
B        0.00000000       0.00000000      -0.79000000      -0.00000000      -0.00000000       0.00002297
P        0.00000000       0.00000000       0.79000000      -0.00000000      -0.00000000      -0.00002297
