8
Properties=species:S:1:pos:R:3:forces:R:3 calculation_type=dimer_refinement calculation_label=C2H6/refinement_41/point_001_distance_1.320000 d4_functional=wB97M d4_method=wb97m d4_energy_eV=-0.12169728305272912 source_geometry=/mnt/ceph/users/cwoodson/dft_calc/diatomics/dimer_jobs/C2H6/refinement_41/point_001_distance_1.320000/geometry.in energy=-0.12169728305272912 free_energy=-0.12169728305272912 pbc="F F F"
C        0.00000000       0.00000000       0.66000000       0.00000000      -0.00000001      -0.00752354
C        0.00000000       0.00000000      -0.66000000       0.00000000       0.00000001       0.00752354
H        0.00000000       1.01450700       1.05562800       0.00000000      -0.00042676      -0.00245781
H       -0.87858900      -0.50725200       1.05562300       0.00036957       0.00021337      -0.00245778
H        0.87858900      -0.50725200       1.05562300      -0.00036957       0.00021337      -0.00245779
H       -0.00000000      -1.01450700      -1.05562800      -0.00000000       0.00042676       0.00245781
H       -0.87858900       0.50725200      -1.05562300       0.00036957      -0.00021337       0.00245778
H        0.87858900       0.50725200      -1.05562400      -0.00036957      -0.00021337       0.00245779
