8
Properties=species:S:1:pos:R:3:forces:R:3 calculation_type=dimer_refinement calculation_label=C2H6/refinement_41/point_005_distance_1.360000 d4_functional=wB97M d4_method=wb97m d4_energy_eV=-0.1210818232413523 source_geometry=/mnt/ceph/users/cwoodson/dft_calc/diatomics/dimer_jobs/C2H6/refinement_41/point_005_distance_1.360000/geometry.in energy=-0.1210818232413523 free_energy=-0.1210818232413523 pbc="F F F"
C        0.00000000       0.00000000       0.68000000       0.00000000      -0.00000001      -0.00783112
C        0.00000000       0.00000000      -0.68000000       0.00000000       0.00000001       0.00783112
H        0.00000000       1.01450700       1.07562800      -0.00000000      -0.00051725      -0.00268100
H       -0.87858900      -0.50725200       1.07562300       0.00044793       0.00025861      -0.00268097
H        0.87858900      -0.50725200       1.07562300      -0.00044793       0.00025861      -0.00268097
H       -0.00000000      -1.01450700      -1.07562800      -0.00000000       0.00051725       0.00268099
H       -0.87858900       0.50725200      -1.07562300       0.00044793      -0.00025861       0.00268097
H        0.87858900       0.50725200      -1.07562400      -0.00044794      -0.00025861       0.00268098
