8
Properties=species:S:1:pos:R:3:forces:R:3 calculation_type=dimer_refinement calculation_label=C2H6/refinement_100/point_030_distance_1.33 d4_functional=wB97M d4_method=wb97m d4_energy_eV=-0.12154414516630672 source_geometry=/mnt/ceph/users/cwoodson/dft_calc/diatomics/dimer_jobs/C2H6/refinement_100/point_030_distance_1.33/geometry.in energy=-0.12154414516630672 free_energy=-0.12154414516630672 pbc="F F F"
C        0.00000000       0.00000000       0.66500000       0.00000000       0.00000000      -0.00758998
C        0.00000000       0.00000000      -0.66500000       0.00000000      -0.00000000       0.00758998
H        0.00000000       1.01895700       1.06002000      -0.00000000      -0.00045583      -0.00253111
H       -0.88244300      -0.50947900       1.06002000       0.00039476       0.00022792      -0.00253111
H        0.88244300      -0.50947900       1.06002000      -0.00039476       0.00022792      -0.00253111
H        0.00000000      -1.01895700      -1.06002000      -0.00000000       0.00045583       0.00253111
H       -0.88244300       0.50947900      -1.06002000       0.00039476      -0.00022792       0.00253111
H        0.88244300       0.50947900      -1.06002000      -0.00039476      -0.00022792       0.00253111
