8
Properties=species:S:1:pos:R:3:forces:R:3 calculation_type=dimer_refinement calculation_label=C2H6/refinement_41/point_022_distance_1.530000 d4_functional=wB97M d4_method=wb97m d4_energy_eV=-0.1180409640240695 source_geometry=/mnt/ceph/users/cwoodson/dft_calc/diatomics/dimer_jobs/C2H6/refinement_41/point_022_distance_1.530000/geometry.in energy=-0.1180409640240695 free_energy=-0.1180409640240695 pbc="F F F"
C        0.00000000      -0.00000000       0.76500000       0.00000000      -0.00000001      -0.00920056
C        0.00000000       0.00000000      -0.76500000       0.00000000       0.00000001       0.00920056
H       -0.00000000       1.01450700       1.16062800      -0.00000000      -0.00082898      -0.00354483
H       -0.87858900      -0.50725200       1.16062300       0.00071791       0.00041448      -0.00354481
H        0.87858900      -0.50725200       1.16062300      -0.00071791       0.00041448      -0.00354481
H        0.00000000      -1.01450700      -1.16062800      -0.00000000       0.00082898       0.00354483
H       -0.87858900       0.50725200      -1.16062300       0.00071791      -0.00041448       0.00354481
H        0.87858900       0.50725200      -1.16062400      -0.00071791      -0.00041449       0.00354481
