8
Properties=species:S:1:pos:R:3:forces:R:3 calculation_type=dimer_refinement calculation_label=C2H6/refinement_100/point_048_distance_1.51 d4_functional=wB97M d4_method=wb97m d4_energy_eV=-0.11842441368598176 source_geometry=/mnt/ceph/users/cwoodson/dft_calc/diatomics/dimer_jobs/C2H6/refinement_100/point_048_distance_1.51/geometry.in energy=-0.11842441368598176 free_energy=-0.11842441368598176 pbc="F F F"
C        0.00000000       0.00000000       0.75500000       0.00000000       0.00000000      -0.00902052
C        0.00000000       0.00000000      -0.75500000      -0.00000000      -0.00000000       0.00902052
H        0.00000000       1.01895700       1.15002000      -0.00000000      -0.00080343      -0.00346553
H       -0.88244300      -0.50947900       1.15002000       0.00069579       0.00040172      -0.00346553
H        0.88244300      -0.50947900       1.15002000      -0.00069579       0.00040172      -0.00346553
H        0.00000000      -1.01895700      -1.15002000       0.00000000       0.00080343       0.00346553
H       -0.88244300       0.50947900      -1.15002000       0.00069579      -0.00040172       0.00346553
H        0.88244300       0.50947900      -1.15002000      -0.00069579      -0.00040172       0.00346553
