8
Properties=species:S:1:pos:R:3:forces:R:3 calculation_type=dimer_refinement calculation_label=C2H6/refinement_41/point_019_distance_1.500000 d4_functional=wB97M d4_method=wb97m d4_energy_eV=-0.11862607149276248 source_geometry=/mnt/ceph/users/cwoodson/dft_calc/diatomics/dimer_jobs/C2H6/refinement_41/point_019_distance_1.500000/geometry.in energy=-0.11862607149276248 free_energy=-0.11862607149276248 pbc="F F F"
C        0.00000000       0.00000000       0.75000000       0.00000000      -0.00000001      -0.00895177
C        0.00000000       0.00000000      -0.75000000       0.00000000       0.00000001       0.00895177
H        0.00000000       1.01450700       1.14562800      -0.00000000      -0.00078358      -0.00340564
H       -0.87858900      -0.50725200       1.14562300       0.00067859       0.00039178      -0.00340562
H        0.87858900      -0.50725200       1.14562300      -0.00067859       0.00039178      -0.00340562
H       -0.00000000      -1.01450700      -1.14562800      -0.00000000       0.00078358       0.00340564
H       -0.87858900       0.50725200      -1.14562300       0.00067859      -0.00039178       0.00340562
H        0.87858900       0.50725200      -1.14562400      -0.00067859      -0.00039178       0.00340563
