8
Properties=species:S:1:pos:R:3:forces:R:3 calculation_type=dimer_refinement calculation_label=C2H6/refinement_41/point_013_distance_1.440000 d4_functional=wB97M d4_method=wb97m d4_energy_eV=-0.11973499031894871 source_geometry=/mnt/ceph/users/cwoodson/dft_calc/diatomics/dimer_jobs/C2H6/refinement_41/point_013_distance_1.440000/geometry.in energy=-0.11973499031894871 free_energy=-0.11973499031894871 pbc="F F F"
C        0.00000000       0.00000000       0.72000000       0.00000000      -0.00000001      -0.00846140
C        0.00000000       0.00000000      -0.72000000       0.00000000       0.00000001       0.00846140
H        0.00000000       1.01450700       1.11562800      -0.00000000      -0.00067954      -0.00310825
H       -0.87858900      -0.50725200       1.11562300       0.00058848       0.00033976      -0.00310822
H        0.87858900      -0.50725200       1.11562300      -0.00058848       0.00033976      -0.00310823
H       -0.00000000      -1.01450700      -1.11562800      -0.00000000       0.00067954       0.00310825
H       -0.87858900       0.50725200      -1.11562300       0.00058848      -0.00033976       0.00310822
H        0.87858900       0.50725200      -1.11562400      -0.00058849      -0.00033976       0.00310823
