8
Properties=species:S:1:pos:R:3:forces:R:3 calculation_type=dimer_refinement calculation_label=C2H6/refinement_100/point_043_distance_1.46 d4_functional=wB97M d4_method=wb97m d4_energy_eV=-0.11936707957857202 source_geometry=/mnt/ceph/users/cwoodson/dft_calc/diatomics/dimer_jobs/C2H6/refinement_100/point_043_distance_1.46/geometry.in energy=-0.11936707957857202 free_energy=-0.11936707957857202 pbc="F F F"
C        0.00000000       0.00000000       0.73000000      -0.00000000       0.00000000      -0.00861072
C        0.00000000       0.00000000      -0.73000000      -0.00000000      -0.00000000       0.00861072
H        0.00000000       1.01895700       1.12502000       0.00000000      -0.00072077      -0.00322381
H       -0.88244300      -0.50947900       1.12502000       0.00062420       0.00036038      -0.00322382
H        0.88244300      -0.50947900       1.12502000      -0.00062420       0.00036038      -0.00322382
H        0.00000000      -1.01895700      -1.12502000       0.00000000       0.00072077       0.00322381
H       -0.88244300       0.50947900      -1.12502000       0.00062420      -0.00036038       0.00322382
H        0.88244300       0.50947900      -1.12502000      -0.00062420      -0.00036038       0.00322382
