8
Properties=species:S:1:pos:R:3:forces:R:3 calculation_type=dimer_refinement calculation_label=C2H6/refinement_100/point_010_distance_1.13 d4_functional=wB97M d4_method=wb97m d4_energy_eV=-0.12408077092912867 source_geometry=/mnt/ceph/users/cwoodson/dft_calc/diatomics/dimer_jobs/C2H6/refinement_100/point_010_distance_1.13/geometry.in energy=-0.12408077092912867 free_energy=-0.12408077092912867 pbc="F F F"
C        0.00000000       0.00000000       0.56500000      -0.00000000       0.00000000      -0.00599137
C        0.00000000       0.00000000      -0.56500000      -0.00000000      -0.00000000       0.00599137
H        0.00000000       1.01895700       0.96002000       0.00000000       0.00008907      -0.00136402
H       -0.88244300      -0.50947900       0.96002000      -0.00007714      -0.00004453      -0.00136402
H        0.88244300      -0.50947900       0.96002000       0.00007714      -0.00004453      -0.00136402
H        0.00000000      -1.01895700      -0.96002000       0.00000000      -0.00008907       0.00136402
H       -0.88244300       0.50947900      -0.96002000      -0.00007714       0.00004453       0.00136402
H        0.88244300       0.50947900      -0.96002000       0.00007714       0.00004453       0.00136402
