8
Properties=species:S:1:pos:R:3:forces:R:3 calculation_type=dimer_refinement calculation_label=C2H6/refinement_100/point_015_distance_1.18 d4_functional=wB97M d4_method=wb97m d4_energy_eV=-0.12354269204862751 source_geometry=/mnt/ceph/users/cwoodson/dft_calc/diatomics/dimer_jobs/C2H6/refinement_100/point_015_distance_1.18/geometry.in energy=-0.12354269204862751 free_energy=-0.12354269204862751 pbc="F F F"
C        0.00000000       0.00000000       0.59000000      -0.00000000       0.00000000      -0.00642728
C        0.00000000       0.00000000      -0.59000000      -0.00000000      -0.00000000       0.00642728
H        0.00000000       1.01895700       0.98502000      -0.00000000      -0.00006605      -0.00166614
H       -0.88244300      -0.50947900       0.98502000       0.00005721       0.00003303      -0.00166614
H        0.88244300      -0.50947900       0.98502000      -0.00005721       0.00003303      -0.00166614
H        0.00000000      -1.01895700      -0.98502000       0.00000000       0.00006605       0.00166614
H       -0.88244300       0.50947900      -0.98502000       0.00005721      -0.00003303       0.00166614
H        0.88244300       0.50947900      -0.98502000      -0.00005721      -0.00003303       0.00166614
