8
Properties=species:S:1:pos:R:3:forces:R:3 calculation_type=dimer_refinement calculation_label=C2H6/refinement_41/point_036_distance_1.670000 d4_functional=wB97M d4_method=wb97m d4_energy_eV=-0.11507481555990684 source_geometry=/mnt/ceph/users/cwoodson/dft_calc/diatomics/dimer_jobs/C2H6/refinement_41/point_036_distance_1.670000/geometry.in energy=-0.11507481555990684 free_energy=-0.11507481555990684 pbc="F F F"
C        0.00000000      -0.00000000       0.83500000       0.00000000      -0.00000001      -0.00996732
C        0.00000000       0.00000000      -0.83500000       0.00000000       0.00000001       0.00996732
H       -0.00000000       1.01450700       1.23062800      -0.00000000      -0.00095048      -0.00407916
H       -0.87858900      -0.50725200       1.23062300       0.00082314       0.00047524      -0.00407915
H        0.87858900      -0.50725200       1.23062300      -0.00082314       0.00047524      -0.00407915
H        0.00000000      -1.01450700      -1.23062800      -0.00000000       0.00095048       0.00407916
H       -0.87858900       0.50725200      -1.23062300       0.00082314      -0.00047524       0.00407915
H        0.87858900       0.50725200      -1.23062400      -0.00082314      -0.00047524       0.00407915
