8
Properties=species:S:1:pos:R:3:forces:R:3 calculation_type=dimer_refinement calculation_label=C2H6/refinement_100/point_075_distance_1.78 d4_functional=wB97M d4_method=wb97m d4_energy_eV=-0.11272360964111708 source_geometry=/mnt/ceph/users/cwoodson/dft_calc/diatomics/dimer_jobs/C2H6/refinement_100/point_075_distance_1.78/geometry.in energy=-0.11272360964111708 free_energy=-0.11272360964111708 pbc="F F F"
C        0.00000000       0.00000000       0.89000000      -0.00000000       0.00000001      -0.00542421
C        0.00000000       0.00000000      -0.89000000       0.00000000      -0.00000001       0.00542421
H        0.00000000       1.01895700       1.28502000       0.00000000      -0.00075403      -0.00428296
H       -0.88244300      -0.50947900       1.28502000       0.00065300       0.00037701      -0.00428296
H        0.88244300      -0.50947900       1.28502000      -0.00065300       0.00037701      -0.00428296
H        0.00000000      -1.01895700      -1.28502000      -0.00000000       0.00075403       0.00428296
H       -0.88244300       0.50947900      -1.28502000       0.00065300      -0.00037701       0.00428296
H        0.88244300       0.50947900      -1.28502000      -0.00065300      -0.00037701       0.00428296
