8
Properties=species:S:1:pos:R:3:forces:R:3 calculation_type=dimer_refinement calculation_label=C2H6/refinement_100/point_098_distance_2.01 d4_functional=wB97M d4_method=wb97m d4_energy_eV=-0.1158831393818045 source_geometry=/mnt/ceph/users/cwoodson/dft_calc/diatomics/dimer_jobs/C2H6/refinement_100/point_098_distance_2.01/geometry.in energy=-0.1158831393818045 free_energy=-0.1158831393818045 pbc="F F F"
C        0.00000000       0.00000000       1.00500000       0.00000000       0.00000001       0.01578225
C        0.00000000       0.00000000      -1.00500000      -0.00000000      -0.00000001      -0.01578225
H        0.00000000       1.01895700       1.40002000      -0.00000000      -0.00036390      -0.00455046
H       -0.88244300      -0.50947900       1.40002000       0.00031514       0.00018195      -0.00455046
H        0.88244300      -0.50947900       1.40002000      -0.00031514       0.00018195      -0.00455046
H        0.00000000      -1.01895700      -1.40002000       0.00000000       0.00036390       0.00455046
H       -0.88244300       0.50947900      -1.40002000       0.00031514      -0.00018195       0.00455046
H        0.88244300       0.50947900      -1.40002000      -0.00031514      -0.00018195       0.00455046
