8
Properties=species:S:1:pos:R:3:forces:R:3 calculation_type=dimer_refinement calculation_label=C2H6/refinement_41/point_010_distance_1.410000 d4_functional=wB97M d4_method=wb97m d4_energy_eV=-0.12025795797487558 source_geometry=/mnt/ceph/users/cwoodson/dft_calc/diatomics/dimer_jobs/C2H6/refinement_41/point_010_distance_1.410000/geometry.in energy=-0.12025795797487558 free_energy=-0.12025795797487558 pbc="F F F"
C        0.00000000       0.00000000       0.70500000       0.00000000      -0.00000001      -0.00822209
C        0.00000000       0.00000000      -0.70500000       0.00000000       0.00000001       0.00822209
H        0.00000000       1.01450700       1.10062800      -0.00000000      -0.00062166      -0.00295155
H       -0.87858900      -0.50725200       1.10062300       0.00053836       0.00031082      -0.00295153
H        0.87858900      -0.50725200       1.10062300      -0.00053836       0.00031082      -0.00295153
H       -0.00000000      -1.01450700      -1.10062800      -0.00000000       0.00062166       0.00295155
H       -0.87858900       0.50725200      -1.10062300       0.00053836      -0.00031082       0.00295153
H        0.87858900       0.50725200      -1.10062400      -0.00053837      -0.00031082       0.00295154
