8
Properties=species:S:1:pos:R:3:forces:R:3 calculation_type=dimer_refinement calculation_label=C2H6/refinement_100/point_040_distance_1.43 d4_functional=wB97M d4_method=wb97m d4_energy_eV=-0.11990508370037484 source_geometry=/mnt/ceph/users/cwoodson/dft_calc/diatomics/dimer_jobs/C2H6/refinement_100/point_040_distance_1.43/geometry.in energy=-0.11990508370037484 free_energy=-0.11990508370037484 pbc="F F F"
C        0.00000000       0.00000000       0.71500000      -0.00000000       0.00000000      -0.00836942
C        0.00000000       0.00000000      -0.71500000      -0.00000000      -0.00000000       0.00836942
H        0.00000000       1.01895700       1.11002000       0.00000000      -0.00066566      -0.00307113
H       -0.88244300      -0.50947900       1.11002000       0.00057648       0.00033283      -0.00307114
H        0.88244300      -0.50947900       1.11002000      -0.00057648       0.00033283      -0.00307114
H        0.00000000      -1.01895700      -1.11002000       0.00000000       0.00066566       0.00307113
H       -0.88244300       0.50947900      -1.11002000       0.00057648      -0.00033283       0.00307114
H        0.88244300       0.50947900      -1.11002000      -0.00057648      -0.00033283       0.00307114
