8
Properties=species:S:1:pos:R:3:forces:R:3 calculation_type=dimer_refinement calculation_label=C2H6/refinement_100/point_090_distance_1.93 d4_functional=wB97M d4_method=wb97m d4_energy_eV=-0.11360398996075749 source_geometry=/mnt/ceph/users/cwoodson/dft_calc/diatomics/dimer_jobs/C2H6/refinement_100/point_090_distance_1.93/geometry.in energy=-0.11360398996075749 free_energy=-0.11360398996075749 pbc="F F F"
C        0.00000000       0.00000000       0.96500000       0.00000000       0.00000002       0.05249007
C        0.00000000       0.00000000      -0.96500000      -0.00000000      -0.00000002      -0.05249007
H        0.00000000       1.01895700       1.36002000       0.00000000       0.00087329      -0.00393403
H       -0.88244300      -0.50947900       1.36002000      -0.00075631      -0.00043666      -0.00393402
H        0.88244300      -0.50947900       1.36002000       0.00075631      -0.00043666      -0.00393402
H        0.00000000      -1.01895700      -1.36002000       0.00000000      -0.00087329       0.00393403
H       -0.88244300       0.50947900      -1.36002000      -0.00075631       0.00043666       0.00393402
H        0.88244300       0.50947900      -1.36002000       0.00075631       0.00043666       0.00393402
