8
Properties=species:S:1:pos:R:3:forces:R:3 calculation_type=dimer_refinement calculation_label=C2H6/refinement_100/point_042_distance_1.45 d4_functional=wB97M d4_method=wb97m d4_energy_eV=-0.11954874340997315 source_geometry=/mnt/ceph/users/cwoodson/dft_calc/diatomics/dimer_jobs/C2H6/refinement_100/point_042_distance_1.45/geometry.in energy=-0.11954874340997315 free_energy=-0.11954874340997315 pbc="F F F"
C        0.00000000       0.00000000       0.72500000      -0.00000000       0.00000000      -0.00852985
C        0.00000000       0.00000000      -0.72500000      -0.00000000      -0.00000000       0.00852985
H        0.00000000       1.01895700       1.12002000       0.00000000      -0.00070283      -0.00317350
H       -0.88244300      -0.50947900       1.12002000       0.00060867       0.00035142      -0.00317350
H        0.88244300      -0.50947900       1.12002000      -0.00060867       0.00035142      -0.00317350
H        0.00000000      -1.01895700      -1.12002000       0.00000000       0.00070283       0.00317350
H       -0.88244300       0.50947900      -1.12002000       0.00060867      -0.00035142       0.00317350
H        0.88244300       0.50947900      -1.12002000      -0.00060867      -0.00035142       0.00317350
