8
Properties=species:S:1:pos:R:3:forces:R:3 calculation_type=dimer_refinement calculation_label=C2H6/refinement_100/point_024_distance_1.27 d4_functional=wB97M d4_method=wb97m d4_energy_eV=-0.12241095047783244 source_geometry=/mnt/ceph/users/cwoodson/dft_calc/diatomics/dimer_jobs/C2H6/refinement_100/point_024_distance_1.27/geometry.in energy=-0.12241095047783244 free_energy=-0.12241095047783244 pbc="F F F"
C        0.00000000       0.00000000       0.63500000       0.00000000       0.00000000      -0.00713253
C        0.00000000       0.00000000      -0.63500000      -0.00000000      -0.00000000       0.00713253
H        0.00000000       1.01895700       1.03002000      -0.00000000      -0.00031141      -0.00219116
H       -0.88244300      -0.50947900       1.03002000       0.00026969       0.00015571      -0.00219116
H        0.88244300      -0.50947900       1.03002000      -0.00026969       0.00015571      -0.00219116
H        0.00000000      -1.01895700      -1.03002000      -0.00000000       0.00031141       0.00219116
H       -0.88244300       0.50947900      -1.03002000       0.00026969      -0.00015571       0.00219116
H        0.88244300       0.50947900      -1.03002000      -0.00026969      -0.00015571       0.00219116
