8
Properties=species:S:1:pos:R:3:forces:R:3 calculation_type=dimer_refinement calculation_label=C2H6/refinement_41/point_035_distance_1.660000 d4_functional=wB97M d4_method=wb97m d4_energy_eV=-0.11529651626653088 source_geometry=/mnt/ceph/users/cwoodson/dft_calc/diatomics/dimer_jobs/C2H6/refinement_41/point_035_distance_1.660000/geometry.in energy=-0.11529651626653088 free_energy=-0.11529651626653088 pbc="F F F"
C        0.00000000      -0.00000000       0.83000000       0.00000000      -0.00000001      -0.00998402
C        0.00000000       0.00000000      -0.83000000       0.00000000       0.00000001       0.00998402
H       -0.00000000       1.01450700       1.22562800      -0.00000000      -0.00094914      -0.00404884
H       -0.87858900      -0.50725200       1.22562300       0.00082197       0.00047457      -0.00404883
H        0.87858900      -0.50725200       1.22562300      -0.00082197       0.00047457      -0.00404883
H        0.00000000      -1.01450700      -1.22562800      -0.00000000       0.00094914       0.00404884
H       -0.87858900       0.50725200      -1.22562300       0.00082197      -0.00047457       0.00404883
H        0.87858900       0.50725200      -1.22562400      -0.00082198      -0.00047457       0.00404883
