8
Properties=species:S:1:pos:R:3:forces:R:3 calculation_type=dimer_refinement calculation_label=C2H6/refinement_41/point_020_distance_1.510000 d4_functional=wB97M d4_method=wb97m d4_energy_eV=-0.11843326115324963 source_geometry=/mnt/ceph/users/cwoodson/dft_calc/diatomics/dimer_jobs/C2H6/refinement_41/point_020_distance_1.510000/geometry.in energy=-0.11843326115324963 free_energy=-0.11843326115324963 pbc="F F F"
C        0.00000000       0.00000000       0.75500000       0.00000000      -0.00000001      -0.00903467
C        0.00000000       0.00000000      -0.75500000       0.00000000       0.00000001       0.00903467
H        0.00000000       1.01450700       1.15062800      -0.00000000      -0.00079925      -0.00345281
H       -0.87858900      -0.50725200       1.15062300       0.00069216       0.00039962      -0.00345279
H        0.87858900      -0.50725200       1.15062300      -0.00069216       0.00039962      -0.00345279
H       -0.00000000      -1.01450700      -1.15062800      -0.00000000       0.00079925       0.00345281
H       -0.87858900       0.50725200      -1.15062300       0.00069216      -0.00039962       0.00345279
H        0.87858900       0.50725200      -1.15062400      -0.00069216      -0.00039962       0.00345279
