8
Properties=species:S:1:pos:R:3:forces:R:3 calculation_type=dimer_refinement calculation_label=C2H6/refinement_41/point_002_distance_1.330000 d4_functional=wB97M d4_method=wb97m d4_energy_eV=-0.12154708622165161 source_geometry=/mnt/ceph/users/cwoodson/dft_calc/diatomics/dimer_jobs/C2H6/refinement_41/point_002_distance_1.330000/geometry.in energy=-0.12154708622165161 free_energy=-0.12154708622165161 pbc="F F F"
C        0.00000000       0.00000000       0.66500000       0.00000000      -0.00000001      -0.00760013
C        0.00000000       0.00000000      -0.66500000       0.00000000       0.00000001       0.00760013
H        0.00000000       1.01450700       1.06062800       0.00000000      -0.00044996      -0.00251408
H       -0.87858900      -0.50725200       1.06062300       0.00038966       0.00022497      -0.00251405
H        0.87858900      -0.50725200       1.06062300      -0.00038966       0.00022497      -0.00251406
H       -0.00000000      -1.01450700      -1.06062800      -0.00000000       0.00044996       0.00251408
H       -0.87858900       0.50725200      -1.06062300       0.00038966      -0.00022497       0.00251405
H        0.87858900       0.50725200      -1.06062400      -0.00038966      -0.00022497       0.00251406
