8
Properties=species:S:1:pos:R:3:forces:R:3 calculation_type=dimer_refinement calculation_label=C2H6/refinement_100/point_074_distance_1.77 d4_functional=wB97M d4_method=wb97m d4_energy_eV=-0.11291173937802702 source_geometry=/mnt/ceph/users/cwoodson/dft_calc/diatomics/dimer_jobs/C2H6/refinement_100/point_074_distance_1.77/geometry.in energy=-0.11291173937802702 free_energy=-0.11291173937802702 pbc="F F F"
C        0.00000000       0.00000000       0.88500000       0.00000000       0.00000001      -0.00647739
C        0.00000000       0.00000000      -0.88500000       0.00000000      -0.00000001       0.00647739
H        0.00000000       1.01895700       1.28002000       0.00000000      -0.00079600      -0.00427858
H       -0.88244300      -0.50947900       1.28002000       0.00068935       0.00039800      -0.00427858
H        0.88244300      -0.50947900       1.28002000      -0.00068935       0.00039800      -0.00427858
H        0.00000000      -1.01895700      -1.28002000       0.00000000       0.00079600       0.00427858
H       -0.88244300       0.50947900      -1.28002000       0.00068935      -0.00039800       0.00427858
H        0.88244300       0.50947900      -1.28002000      -0.00068935      -0.00039800       0.00427858
