8
Properties=species:S:1:pos:R:3:forces:R:3 calculation_type=dimer_refinement calculation_label=C2H6/refinement_100/point_060_distance_1.63 d4_functional=wB97M d4_method=wb97m d4_energy_eV=-0.11594475191172603 source_geometry=/mnt/ceph/users/cwoodson/dft_calc/diatomics/dimer_jobs/C2H6/refinement_100/point_060_distance_1.63/geometry.in energy=-0.11594475191172603 free_energy=-0.11594475191172603 pbc="F F F"
C        0.00000000       0.00000000       0.81500000       0.00000000       0.00000000      -0.00989252
C        0.00000000       0.00000000      -0.81500000      -0.00000000      -0.00000000       0.00989252
H        0.00000000       1.01895700       1.21002000      -0.00000000      -0.00093706      -0.00395896
H       -0.88244300      -0.50947900       1.21002000       0.00081152       0.00046853      -0.00395896
H        0.88244300      -0.50947900       1.21002000      -0.00081152       0.00046853      -0.00395896
H        0.00000000      -1.01895700      -1.21002000       0.00000000       0.00093706       0.00395896
H       -0.88244300       0.50947900      -1.21002000       0.00081152      -0.00046853       0.00395896
H        0.88244300       0.50947900      -1.21002000      -0.00081152      -0.00046853       0.00395896
