8
Properties=species:S:1:pos:R:3:forces:R:3 calculation_type=dimer_refinement calculation_label=C2H6/refinement_100/point_054_distance_1.57 d4_functional=wB97M d4_method=wb97m d4_energy_eV=-0.11722037873356819 source_geometry=/mnt/ceph/users/cwoodson/dft_calc/diatomics/dimer_jobs/C2H6/refinement_100/point_054_distance_1.57/geometry.in energy=-0.11722037873356819 free_energy=-0.11722037873356819 pbc="F F F"
C        0.00000000       0.00000000       0.78500000      -0.00000000       0.00000000      -0.00950743
C        0.00000000       0.00000000      -0.78500000      -0.00000000      -0.00000000       0.00950743
H        0.00000000       1.01895700       1.18002000       0.00000000      -0.00088429      -0.00372990
H       -0.88244300      -0.50947900       1.18002000       0.00076582       0.00044214      -0.00372990
H        0.88244300      -0.50947900       1.18002000      -0.00076582       0.00044214      -0.00372990
H        0.00000000      -1.01895700      -1.18002000       0.00000000       0.00088429       0.00372990
H       -0.88244300       0.50947900      -1.18002000       0.00076582      -0.00044214       0.00372990
H        0.88244300       0.50947900      -1.18002000      -0.00076582      -0.00044214       0.00372990
