8
Properties=species:S:1:pos:R:3:forces:R:3 calculation_type=dimer_refinement calculation_label=C2H6/refinement_100/point_021_distance_1.24 d4_functional=wB97M d4_method=wb97m d4_energy_eV=-0.12281091747478165 source_geometry=/mnt/ceph/users/cwoodson/dft_calc/diatomics/dimer_jobs/C2H6/refinement_100/point_021_distance_1.24/geometry.in energy=-0.12281091747478165 free_energy=-0.12281091747478165 pbc="F F F"
C        0.00000000       0.00000000       0.62000000       0.00000000       0.00000000      -0.00690270
C        0.00000000       0.00000000      -0.62000000      -0.00000000      -0.00000000       0.00690270
H        0.00000000       1.01895700       1.01502000      -0.00000000      -0.00023376      -0.00201814
H       -0.88244300      -0.50947900       1.01502000       0.00020245       0.00011688      -0.00201814
H        0.88244300      -0.50947900       1.01502000      -0.00020245       0.00011688      -0.00201814
H        0.00000000      -1.01895700      -1.01502000      -0.00000000       0.00023376       0.00201814
H       -0.88244300       0.50947900      -1.01502000       0.00020245      -0.00011688       0.00201814
H        0.88244300       0.50947900      -1.01502000      -0.00020245      -0.00011688       0.00201814
