8
Properties=species:S:1:pos:R:3:forces:R:3 calculation_type=dimer_refinement calculation_label=C2H6/refinement_100/point_025_distance_1.28 d4_functional=wB97M d4_method=wb97m d4_energy_eV=-0.12227264983592427 source_geometry=/mnt/ceph/users/cwoodson/dft_calc/diatomics/dimer_jobs/C2H6/refinement_100/point_025_distance_1.28/geometry.in energy=-0.12227264983592427 free_energy=-0.12227264983592427 pbc="F F F"
C        0.00000000       0.00000000       0.64000000      -0.00000000       0.00000000      -0.00720875
C        0.00000000       0.00000000      -0.64000000      -0.00000000      -0.00000000       0.00720875
H        0.00000000       1.01895700       1.03502000      -0.00000000      -0.00033647      -0.00224841
H       -0.88244300      -0.50947900       1.03502000       0.00029139       0.00016823      -0.00224842
H        0.88244300      -0.50947900       1.03502000      -0.00029139       0.00016823      -0.00224842
H        0.00000000      -1.01895700      -1.03502000       0.00000000       0.00033647       0.00224841
H       -0.88244300       0.50947900      -1.03502000       0.00029139      -0.00016823       0.00224842
H        0.88244300       0.50947900      -1.03502000      -0.00029139      -0.00016823       0.00224842
