8
Properties=species:S:1:pos:R:3:forces:R:3 calculation_type=dimer_refinement calculation_label=CH3SiH3/refinement_100/point_001_distance_1.39 d4_functional=wB97M d4_method=wb97m d4_energy_eV=-0.1326512081088353 source_geometry=/mnt/ceph/users/cwoodson/dft_calc/diatomics/dimer_jobs/CH3SiH3/refinement_100/point_001_distance_1.39/geometry.in energy=-0.1326512081088353 free_energy=-0.1326512081088353 pbc="F F F"
C        0.00000000       0.00000000      -0.69500000       0.00000000      -0.00000000       0.01284452
Si       0.00000000       0.00000000       0.69500000       0.00000000       0.00000000       0.00072335
H        0.00000000      -1.01976200      -1.08689700       0.00000000      -0.00155860       0.00077178
H       -0.88314000       0.50988100      -1.08689700      -0.00134979       0.00077930       0.00077178
H        0.88314000       0.50988100      -1.08689700       0.00134979       0.00077930       0.00077178
H        0.00000000       1.39123400       1.21797900       0.00000000      -0.00529377      -0.00529440
H       -1.20484400      -0.69561700       1.21797900       0.00458454       0.00264689      -0.00529440
H        1.20484400      -0.69561700       1.21797900      -0.00458454       0.00264689      -0.00529440
