8
Properties=species:S:1:pos:R:3:forces:R:3 calculation_type=dimer_refinement calculation_label=CH3SiH3/refinement_100/point_019_distance_1.57 d4_functional=wB97M d4_method=wb97m d4_energy_eV=-0.1292016906450861 source_geometry=/mnt/ceph/users/cwoodson/dft_calc/diatomics/dimer_jobs/CH3SiH3/refinement_100/point_019_distance_1.57/geometry.in energy=-0.1292016906450861 free_energy=-0.1292016906450861 pbc="F F F"
C        0.00000000       0.00000000      -0.78500000      -0.00000000      -0.00000000       0.01418880
Si       0.00000000       0.00000000       0.78500000      -0.00000000       0.00000000      -0.00539879
H        0.00000000      -1.01976200      -1.17689700       0.00000000      -0.00047940       0.00281908
H       -0.88314000       0.50988100      -1.17689700      -0.00041517       0.00023970       0.00281908
H        0.88314000       0.50988100      -1.17689700       0.00041517       0.00023970       0.00281908
H        0.00000000       1.39123400       1.30797900      -0.00000000      -0.00510939      -0.00574909
H       -1.20484400      -0.69561700       1.30797900       0.00442486       0.00255469      -0.00574909
H        1.20484400      -0.69561700       1.30797900      -0.00442486       0.00255469      -0.00574909
