8
Properties=species:S:1:pos:R:3:forces:R:3 calculation_type=dimer_refinement calculation_label=CH3SiH3/refinement_41/point_007_distance_1.730000 d4_functional=wB97M d4_method=wb97m d4_energy_eV=-0.1254804441207257 source_geometry=/mnt/ceph/users/cwoodson/dft_calc/diatomics/dimer_jobs/CH3SiH3/refinement_41/point_007_distance_1.730000/geometry.in energy=-0.1254804441207257 free_energy=-0.1254804441207257 pbc="F F F"
C        0.00000000       0.00000278      -0.86500000       0.00000000      -0.00000005       0.01513347
Si       0.00000000      -0.00000278       0.86500000       0.00000000      -0.00000002      -0.00758044
H       -0.00000100      -1.01749222      -1.25273400      -0.00000000      -0.00011156       0.00347505
H       -0.88117700       0.50875178      -1.25272400      -0.00009662       0.00005580       0.00347507
H        0.88117800       0.50874978      -1.25272400       0.00009662       0.00005580       0.00347507
H       -0.00000100       1.38371122       1.38640200       0.00000000      -0.00508089      -0.00599272
H       -1.19833100      -0.69185278       1.38641500       0.00440020       0.00254046      -0.00599274
H        1.19833200      -0.69185078       1.38641500      -0.00440020       0.00254046      -0.00599275
