8
Properties=species:S:1:pos:R:3:forces:R:3 calculation_type=dimer_refinement calculation_label=CH3SiH3/refinement_41/point_021_distance_1.870000 d4_functional=wB97M d4_method=wb97m d4_energy_eV=-0.12185549098957829 source_geometry=/mnt/ceph/users/cwoodson/dft_calc/diatomics/dimer_jobs/CH3SiH3/refinement_41/point_021_distance_1.870000/geometry.in energy=-0.12185549098957829 free_energy=-0.12185549098957829 pbc="F F F"
C        0.00000000       0.00000300      -0.93500000       0.00000000      -0.00000004       0.01544759
Si      -0.00000000      -0.00000300       0.93500000       0.00000000      -0.00000001      -0.00801118
H       -0.00000100      -1.01749200      -1.32273400      -0.00000000      -0.00005731       0.00350295
H       -0.88117700       0.50875200      -1.32272400      -0.00004963       0.00002867       0.00350298
H        0.88117800       0.50875000      -1.32272400       0.00004963       0.00002867       0.00350298
H       -0.00000100       1.38371100       1.45640200       0.00000000      -0.00494489      -0.00598178
H       -1.19833100      -0.69185300       1.45641500       0.00428241       0.00247246      -0.00598177
H        1.19833200      -0.69185100       1.45641500      -0.00428241       0.00247245      -0.00598178
