8
Properties=species:S:1:pos:R:3:forces:R:3 calculation_type=dimer_refinement calculation_label=CH3SiH3/refinement_41/point_017_distance_1.830000 d4_functional=wB97M d4_method=wb97m d4_energy_eV=-0.1228952786265765 source_geometry=/mnt/ceph/users/cwoodson/dft_calc/diatomics/dimer_jobs/CH3SiH3/refinement_41/point_017_distance_1.830000/geometry.in energy=-0.1228952786265765 free_energy=-0.1228952786265765 pbc="F F F"
C        0.00000000       0.00000294      -0.91500000       0.00000000      -0.00000005       0.01545964
Si       0.00000000      -0.00000294       0.91500000       0.00000000      -0.00000001      -0.00799434
H       -0.00000100      -1.01749206      -1.30273400      -0.00000000      -0.00006036       0.00351633
H       -0.88117700       0.50875194      -1.30272400      -0.00005227       0.00003019       0.00351637
H        0.88117800       0.50874994      -1.30272400       0.00005227       0.00003019       0.00351637
H       -0.00000100       1.38371106       1.43640200       0.00000000      -0.00499588      -0.00600479
H       -1.19833100      -0.69185294       1.43641500       0.00432658       0.00249796      -0.00600479
H        1.19833200      -0.69185094       1.43641500      -0.00432658       0.00249795      -0.00600479
