8
Properties=species:S:1:pos:R:3:forces:R:3 calculation_type=dimer_refinement calculation_label=CH3SiH3/refinement_100/point_054_distance_1.92 d4_functional=wB97M d4_method=wb97m d4_energy_eV=-0.12038522602381968 source_geometry=/mnt/ceph/users/cwoodson/dft_calc/diatomics/dimer_jobs/CH3SiH3/refinement_100/point_054_distance_1.92/geometry.in energy=-0.12038522602381968 free_energy=-0.12038522602381968 pbc="F F F"
C        0.00000000       0.00000000      -0.96000000       0.00000000      -0.00000000       0.01526182
Si       0.00000000       0.00000000       0.96000000      -0.00000000       0.00000000      -0.00804575
H        0.00000000      -1.01976200      -1.35189700      -0.00000000      -0.00008961       0.00344217
H       -0.88314000       0.50988100      -1.35189700      -0.00007761       0.00004481       0.00344217
H        0.88314000       0.50988100      -1.35189700       0.00007761       0.00004481       0.00344217
H        0.00000000       1.39123400       1.48297900      -0.00000000      -0.00473288      -0.00584753
H       -1.20484400      -0.69561700       1.48297900       0.00409879       0.00236644      -0.00584753
H        1.20484400      -0.69561700       1.48297900      -0.00409879       0.00236644      -0.00584753
