8
Properties=species:S:1:pos:R:3:forces:R:3 calculation_type=dimer_refinement calculation_label=CH3SiH3/refinement_41/point_005_distance_1.710000 d4_functional=wB97M d4_method=wb97m d4_energy_eV=-0.12598974218634093 source_geometry=/mnt/ceph/users/cwoodson/dft_calc/diatomics/dimer_jobs/CH3SiH3/refinement_41/point_005_distance_1.710000/geometry.in energy=-0.12598974218634093 free_energy=-0.12598974218634093 pbc="F F F"
C        0.00000000       0.00000275      -0.85500000       0.00000000      -0.00000005       0.01502874
Si       0.00000000      -0.00000275       0.85500000       0.00000000      -0.00000002      -0.00742696
H       -0.00000100      -1.01749225      -1.24273400      -0.00000000      -0.00013190       0.00344525
H       -0.88117700       0.50875175      -1.24272400      -0.00011424       0.00006597       0.00344527
H        0.88117800       0.50874975      -1.24272400       0.00011424       0.00006597       0.00344527
H       -0.00000100       1.38371125       1.37640200       0.00000000      -0.00509383      -0.00597918
H       -1.19833100      -0.69185275       1.37641500       0.00441141       0.00254694      -0.00597920
H        1.19833200      -0.69185075       1.37641500      -0.00441141       0.00254693      -0.00597920
