8
Properties=species:S:1:pos:R:3:forces:R:3 calculation_type=dimer_refinement calculation_label=CH3SiH3/refinement_100/point_033_distance_1.71 d4_functional=wB97M d4_method=wb97m d4_energy_eV=-0.12580594614543783 source_geometry=/mnt/ceph/users/cwoodson/dft_calc/diatomics/dimer_jobs/CH3SiH3/refinement_100/point_033_distance_1.71/geometry.in energy=-0.12580594614543783 free_energy=-0.12580594614543783 pbc="F F F"
C        0.00000000       0.00000000      -0.85500000       0.00000000      -0.00000000       0.01509670
Si       0.00000000       0.00000000       0.85500000      -0.00000000       0.00000000      -0.00763557
H        0.00000000      -1.01976200      -1.24689700       0.00000000      -0.00014665       0.00342836
H       -0.88314000       0.50988100      -1.24689700      -0.00012701       0.00007333       0.00342836
H        0.88314000       0.50988100      -1.24689700       0.00012701       0.00007333       0.00342836
H        0.00000000       1.39123400       1.37797900       0.00000000      -0.00498351      -0.00591541
H       -1.20484400      -0.69561700       1.37797900       0.00431585       0.00249175      -0.00591541
H        1.20484400      -0.69561700       1.37797900      -0.00431585       0.00249175      -0.00591541
