8
Properties=species:S:1:pos:R:3:forces:R:3 calculation_type=dimer_refinement calculation_label=CH3SiH3/refinement_100/point_076_distance_2.14 d4_functional=wB97M d4_method=wb97m d4_energy_eV=-0.11555141754783962 source_geometry=/mnt/ceph/users/cwoodson/dft_calc/diatomics/dimer_jobs/CH3SiH3/refinement_100/point_076_distance_2.14/geometry.in energy=-0.11555141754783962 free_energy=-0.11555141754783962 pbc="F F F"
C        0.00000000       0.00000000      -1.07000000       0.00000000      -0.00000000       0.00418124
Si       0.00000000       0.00000000       1.07000000       0.00000000       0.00000000       0.00178367
H        0.00000000      -1.01976200      -1.46189700      -0.00000000      -0.00073590       0.00305656
H       -0.88314000       0.50988100      -1.46189700      -0.00063731       0.00036795       0.00305656
H        0.88314000       0.50988100      -1.46189700       0.00063731       0.00036795       0.00305656
H        0.00000000       1.39123400       1.59297900      -0.00000000      -0.00329845      -0.00504486
H       -1.20484400      -0.69561700       1.59297900       0.00285654       0.00164923      -0.00504486
H        1.20484400      -0.69561700       1.59297900      -0.00285654       0.00164923      -0.00504486
