8
Properties=species:S:1:pos:R:3:forces:R:3 calculation_type=dimer_refinement calculation_label=CH3SiH3/refinement_41/point_028_distance_1.940000 d4_functional=wB97M d4_method=wb97m d4_energy_eV=-0.12005288320435345 source_geometry=/mnt/ceph/users/cwoodson/dft_calc/diatomics/dimer_jobs/CH3SiH3/refinement_41/point_028_distance_1.940000/geometry.in energy=-0.12005288320435345 free_energy=-0.12005288320435345 pbc="F F F"
C        0.00000000       0.00000312      -0.97000000       0.00000000      -0.00000003       0.01507079
Si      -0.00000000      -0.00000312       0.97000000       0.00000000      -0.00000001      -0.00774126
H       -0.00000100      -1.01749188      -1.35773400      -0.00000000      -0.00007898       0.00345595
H       -0.88117700       0.50875212      -1.35772400      -0.00006840       0.00003950       0.00345599
H        0.88117800       0.50875012      -1.35772400       0.00006840       0.00003950       0.00345600
H       -0.00000100       1.38371088       1.49140200       0.00000000      -0.00481558      -0.00589917
H       -1.19833100      -0.69185312       1.49141500       0.00417042       0.00240781      -0.00589915
H        1.19833200      -0.69185112       1.49141500      -0.00417043       0.00240780      -0.00589915
