8
Properties=species:S:1:pos:R:3:forces:R:3 calculation_type=dimer_refinement calculation_label=CH3SiH3/refinement_100/point_044_distance_1.82 d4_functional=wB97M d4_method=wb97m d4_energy_eV=-0.12297212499953239 source_geometry=/mnt/ceph/users/cwoodson/dft_calc/diatomics/dimer_jobs/CH3SiH3/refinement_100/point_044_distance_1.82/geometry.in energy=-0.12297212499953239 free_energy=-0.12297212499953239 pbc="F F F"
C        0.00000000       0.00000000      -0.91000000      -0.00000000      -0.00000000       0.01549888
Si       0.00000000       0.00000000       0.91000000       0.00000000       0.00000000      -0.00816676
H        0.00000000      -1.01976200      -1.30189700      -0.00000000      -0.00008029       0.00349181
H       -0.88314000       0.50988100      -1.30189700      -0.00006954       0.00004015       0.00349181
H        0.88314000       0.50988100      -1.30189700       0.00006954       0.00004015       0.00349181
H        0.00000000       1.39123400       1.43297900       0.00000000      -0.00489168      -0.00593585
H       -1.20484400      -0.69561700       1.43297900       0.00423632       0.00244584      -0.00593585
H        1.20484400      -0.69561700       1.43297900      -0.00423632       0.00244584      -0.00593585
