8
Properties=species:S:1:pos:R:3:forces:R:3 calculation_type=dimer_refinement calculation_label=CH3SiH3/refinement_100/point_007_distance_1.45 d4_functional=wB97M d4_method=wb97m d4_energy_eV=-0.13165586922749237 source_geometry=/mnt/ceph/users/cwoodson/dft_calc/diatomics/dimer_jobs/CH3SiH3/refinement_100/point_007_distance_1.45/geometry.in energy=-0.13165586922749237 free_energy=-0.13165586922749237 pbc="F F F"
C        0.00000000       0.00000000      -0.72500000      -0.00000000      -0.00000000       0.01329198
Si       0.00000000       0.00000000       0.72500000      -0.00000000       0.00000000      -0.00148513
H        0.00000000      -1.01976200      -1.11689700      -0.00000000      -0.00113655       0.00156084
H       -0.88314000       0.50988100      -1.11689700      -0.00098428       0.00056827       0.00156084
H        0.88314000       0.50988100      -1.11689700       0.00098428       0.00056827       0.00156084
H        0.00000000       1.39123400       1.24797900      -0.00000000      -0.00528532      -0.00549646
H       -1.20484400      -0.69561700       1.24797900       0.00457722       0.00264266      -0.00549646
H        1.20484400      -0.69561700       1.24797900      -0.00457722       0.00264266      -0.00549646
