8
Properties=species:S:1:pos:R:3:forces:R:3 calculation_type=dimer_refinement calculation_label=CH3SiH3/refinement_100/point_027_distance_1.65 d4_functional=wB97M d4_method=wb97m d4_energy_eV=-0.12730639703827978 source_geometry=/mnt/ceph/users/cwoodson/dft_calc/diatomics/dimer_jobs/CH3SiH3/refinement_100/point_027_distance_1.65/geometry.in energy=-0.12730639703827978 free_energy=-0.12730639703827978 pbc="F F F"
C        0.00000000       0.00000000      -0.82500000      -0.00000000      -0.00000000       0.01473971
Si       0.00000000       0.00000000       0.82500000      -0.00000000       0.00000000      -0.00697941
H        0.00000000      -1.01976200      -1.21689700      -0.00000000      -0.00023859       0.00327345
H       -0.88314000       0.50988100      -1.21689700      -0.00020663       0.00011930       0.00327345
H        0.88314000       0.50988100      -1.21689700       0.00020663       0.00011930       0.00327345
H        0.00000000       1.39123400       1.34797900       0.00000000      -0.00502598      -0.00586022
H       -1.20484400      -0.69561700       1.34797900       0.00435263       0.00251299      -0.00586022
H        1.20484400      -0.69561700       1.34797900      -0.00435263       0.00251299      -0.00586022
