8
Properties=species:S:1:pos:R:3:forces:R:3 calculation_type=dimer_refinement calculation_label=CH3SiH3/refinement_41/point_039_distance_2.050000 d4_functional=wB97M d4_method=wb97m d4_energy_eV=-0.11738540153012832 source_geometry=/mnt/ceph/users/cwoodson/dft_calc/diatomics/dimer_jobs/CH3SiH3/refinement_41/point_039_distance_2.050000/geometry.in energy=-0.11738540153012832 free_energy=-0.11738540153012832 pbc="F F F"
C        0.00000000       0.00000329      -1.02500000       0.00000000      -0.00000001       0.01240718
Si      -0.00000000      -0.00000329       1.02500000       0.00000000      -0.00000002      -0.00547013
H       -0.00000100      -1.01749171      -1.41273400      -0.00000000      -0.00024574       0.00332030
H       -0.88117700       0.50875229      -1.41272400      -0.00021280       0.00012287       0.00332035
H        0.88117800       0.50875029      -1.41272400       0.00021280       0.00012287       0.00332035
H       -0.00000100       1.38371071       1.54640200       0.00000000      -0.00441121      -0.00563271
H       -1.19833100      -0.69185329       1.54641500       0.00382022       0.00220562      -0.00563267
H        1.19833200      -0.69185129       1.54641500      -0.00382022       0.00220561      -0.00563267
