8
Properties=species:S:1:pos:R:3:forces:R:3 calculation_type=dimer_refinement calculation_label=CH3SiH3/refinement_100/point_005_distance_1.43 d4_functional=wB97M d4_method=wb97m d4_energy_eV=-0.13200630843566724 source_geometry=/mnt/ceph/users/cwoodson/dft_calc/diatomics/dimer_jobs/CH3SiH3/refinement_100/point_005_distance_1.43/geometry.in energy=-0.13200630843566724 free_energy=-0.13200630843566724 pbc="F F F"
C        0.00000000       0.00000000      -0.71500000       0.00000000      -0.00000000       0.01314139
Si       0.00000000       0.00000000       0.71500000      -0.00000000       0.00000000      -0.00075516
H        0.00000000      -1.01976200      -1.10689700      -0.00000000      -0.00127061       0.00130784
H       -0.88314000       0.50988100      -1.10689700      -0.00110038       0.00063530       0.00130784
H        0.88314000       0.50988100      -1.10689700       0.00110038       0.00063530       0.00130784
H        0.00000000       1.39123400       1.23797900       0.00000000      -0.00529949      -0.00543658
H       -1.20484400      -0.69561700       1.23797900       0.00458949       0.00264974      -0.00543658
H        1.20484400      -0.69561700       1.23797900      -0.00458949       0.00264974      -0.00543658
