8
Properties=species:S:1:pos:R:3:forces:R:3 calculation_type=dimer_refinement calculation_label=CH3SiH3/refinement_100/point_010_distance_1.48 d4_functional=wB97M d4_method=wb97m d4_energy_eV=-0.13109678482829207 source_geometry=/mnt/ceph/users/cwoodson/dft_calc/diatomics/dimer_jobs/CH3SiH3/refinement_100/point_010_distance_1.48/geometry.in energy=-0.13109678482829207 free_energy=-0.13109678482829207 pbc="F F F"
C        0.00000000       0.00000000      -0.74000000      -0.00000000      -0.00000000       0.01351886
Si       0.00000000       0.00000000       0.74000000       0.00000000       0.00000000      -0.00256437
H        0.00000000      -1.01976200      -1.13189700       0.00000000      -0.00094632       0.00192263
H       -0.88314000       0.50988100      -1.13189700      -0.00081954       0.00047316       0.00192263
H        0.88314000       0.50988100      -1.13189700       0.00081954       0.00047316       0.00192263
H        0.00000000       1.39123400       1.26297900       0.00000000      -0.00524858      -0.00557413
H       -1.20484400      -0.69561700       1.26297900       0.00454540       0.00262429      -0.00557413
H        1.20484400      -0.69561700       1.26297900      -0.00454540       0.00262429      -0.00557413
