8
Properties=species:S:1:pos:R:3:forces:R:3 calculation_type=dimer_refinement calculation_label=CH3SiH3/refinement_100/point_090_distance_2.28 d4_functional=wB97M d4_method=wb97m d4_energy_eV=-0.11617960286473854 source_geometry=/mnt/ceph/users/cwoodson/dft_calc/diatomics/dimer_jobs/CH3SiH3/refinement_100/point_090_distance_2.28/geometry.in energy=-0.11617960286473854 free_energy=-0.11617960286473854 pbc="F F F"
C        0.00000000       0.00000000      -1.14000000       0.00000000      -0.00000001      -0.03424274
Si       0.00000000       0.00000000       1.14000000       0.00000000       0.00000000       0.03556776
H        0.00000000      -1.01976200      -1.53189700      -0.00000000      -0.00170299       0.00266488
H       -0.88314000       0.50988100      -1.53189700      -0.00147484       0.00085150       0.00266488
H        0.88314000       0.50988100      -1.53189700       0.00147484       0.00085150       0.00266488
H        0.00000000       1.39123400       1.66297900      -0.00000000       0.00138263      -0.00310655
H       -1.20484400      -0.69561700       1.66297900      -0.00119739      -0.00069131      -0.00310655
H        1.20484400      -0.69561700       1.66297900       0.00119739      -0.00069131      -0.00310655
