8
Properties=species:S:1:pos:R:3:forces:R:3 calculation_type=dimer_refinement calculation_label=CH3SiH3/refinement_41/point_012_distance_1.780000 d4_functional=wB97M d4_method=wb97m d4_energy_eV=-0.12419345816414636 source_geometry=/mnt/ceph/users/cwoodson/dft_calc/diatomics/dimer_jobs/CH3SiH3/refinement_41/point_012_distance_1.780000/geometry.in energy=-0.12419345816414636 free_energy=-0.12419345816414636 pbc="F F F"
C        0.00000000       0.00000286      -0.89000000       0.00000000      -0.00000005       0.01534569
Si       0.00000000      -0.00000286       0.89000000       0.00000000      -0.00000001      -0.00785303
H       -0.00000100      -1.01749214      -1.27773400      -0.00000000      -0.00007729       0.00351317
H       -0.88117700       0.50875186      -1.27772400      -0.00006694       0.00003866       0.00351320
H        0.88117800       0.50874986      -1.27772400       0.00006694       0.00003866       0.00351320
H       -0.00000100       1.38371114       1.41140200       0.00000000      -0.00504410      -0.00601074
H       -1.19833100      -0.69185286       1.41141500       0.00436833       0.00252207      -0.00601075
H        1.19833200      -0.69185086       1.41141500      -0.00436834       0.00252206      -0.00601075
