8
Properties=species:S:1:pos:R:3:forces:R:3 calculation_type=dimer_refinement calculation_label=CH3SiH3/refinement_100/point_060_distance_1.98 d4_functional=wB97M d4_method=wb97m d4_energy_eV=-0.11887390012625826 source_geometry=/mnt/ceph/users/cwoodson/dft_calc/diatomics/dimer_jobs/CH3SiH3/refinement_100/point_060_distance_1.98/geometry.in energy=-0.11887390012625826 free_energy=-0.11887390012625826 pbc="F F F"
C        0.00000000       0.00000000      -0.99000000      -0.00000000      -0.00000000       0.01451228
Si       0.00000000       0.00000000       0.99000000      -0.00000000       0.00000000      -0.00745914
H        0.00000000      -1.01976200      -1.38189700      -0.00000000      -0.00013989       0.00338436
H       -0.88314000       0.50988100      -1.38189700      -0.00012115       0.00006994       0.00338436
H        0.88314000       0.50988100      -1.38189700       0.00012115       0.00006994       0.00338436
H        0.00000000       1.39123400       1.51297900      -0.00000000      -0.00456552      -0.00573541
H       -1.20484400      -0.69561700       1.51297900       0.00395386       0.00228276      -0.00573541
H        1.20484400      -0.69561700       1.51297900      -0.00395386       0.00228276      -0.00573541
