8
Properties=species:S:1:pos:R:3:forces:R:3 calculation_type=dimer_refinement calculation_label=CH3SiH3/refinement_100/point_100_distance_2.38 d4_functional=wB97M d4_method=wb97m d4_energy_eV=-0.11916979242661546 source_geometry=/mnt/ceph/users/cwoodson/dft_calc/diatomics/dimer_jobs/CH3SiH3/refinement_100/point_100_distance_2.38/geometry.in energy=-0.11916979242661546 free_energy=-0.11916979242661546 pbc="F F F"
C        0.00000000       0.00000000      -1.19000000       0.00000000      -0.00000000      -0.03253394
Si       0.00000000       0.00000000       1.19000000      -0.00000000       0.00000000       0.02945200
H        0.00000000      -1.01976200      -1.58189700      -0.00000000      -0.00035848       0.00327410
H       -0.88314000       0.50988100      -1.58189700      -0.00031045       0.00017924       0.00327410
H        0.88314000       0.50988100      -1.58189700       0.00031045       0.00017924       0.00327410
H        0.00000000       1.39123400       1.71297900       0.00000000       0.00322278      -0.00224679
H       -1.20484400      -0.69561700       1.71297900      -0.00279101      -0.00161139      -0.00224679
H        1.20484400      -0.69561700       1.71297900       0.00279101      -0.00161139      -0.00224679
