8
Properties=species:S:1:pos:R:3:forces:R:3 calculation_type=dimer_refinement calculation_label=CH3SiH3/refinement_41/point_018_distance_1.840000 d4_functional=wB97M d4_method=wb97m d4_energy_eV=-0.12263518281276017 source_geometry=/mnt/ceph/users/cwoodson/dft_calc/diatomics/dimer_jobs/CH3SiH3/refinement_41/point_018_distance_1.840000/geometry.in energy=-0.12263518281276017 free_energy=-0.12263518281276017 pbc="F F F"
C        0.00000000       0.00000296      -0.92000000       0.00000000      -0.00000004       0.01546670
Si       0.00000000      -0.00000296       0.92000000       0.00000000      -0.00000001      -0.00800725
H       -0.00000100      -1.01749204      -1.30773400      -0.00000000      -0.00005872       0.00351409
H       -0.88117700       0.50875196      -1.30772400      -0.00005085       0.00002937       0.00351412
H        0.88117800       0.50874996      -1.30772400       0.00005085       0.00002937       0.00351412
H       -0.00000100       1.38371104       1.44140200       0.00000000      -0.00498433      -0.00600059
H       -1.19833100      -0.69185296       1.44141500       0.00431657       0.00249218      -0.00600060
H        1.19833200      -0.69185096       1.44141500      -0.00431658       0.00249218      -0.00600060
