8
Properties=species:S:1:pos:R:3:forces:R:3 calculation_type=dimer_refinement calculation_label=CH3SiH3/refinement_41/point_041_distance_2.070000 d4_functional=wB97M d4_method=wb97m d4_energy_eV=-0.11694926067699003 source_geometry=/mnt/ceph/users/cwoodson/dft_calc/diatomics/dimer_jobs/CH3SiH3/refinement_41/point_041_distance_2.070000/geometry.in energy=-0.11694926067699003 free_energy=-0.11694926067699003 pbc="F F F"
C        0.00000000       0.00000332      -1.03500000       0.00000000       0.00000000       0.01134614
Si      -0.00000000      -0.00000332       1.03500000       0.00000000      -0.00000003      -0.00452026
H       -0.00000100      -1.01749168      -1.42273400      -0.00000000      -0.00030825       0.00328362
H       -0.88117700       0.50875232      -1.42272400      -0.00026694       0.00015413       0.00328367
H        0.88117800       0.50875032      -1.42272400       0.00026694       0.00015413       0.00328367
H       -0.00000100       1.38371068       1.55640200       0.00000000      -0.00428726      -0.00555897
H       -1.19833100      -0.69185332       1.55641500       0.00371287       0.00214364      -0.00555894
H        1.19833200      -0.69185132       1.55641500      -0.00371288       0.00214364      -0.00555894
