8
Properties=species:S:1:pos:R:3:forces:R:3 calculation_type=dimer_refinement calculation_label=CH3SiH3/refinement_100/point_043_distance_1.81 d4_functional=wB97M d4_method=wb97m d4_energy_eV=-0.12323180849558767 source_geometry=/mnt/ceph/users/cwoodson/dft_calc/diatomics/dimer_jobs/CH3SiH3/refinement_100/point_043_distance_1.81/geometry.in energy=-0.12323180849558767 free_energy=-0.12323180849558767 pbc="F F F"
C        0.00000000       0.00000000      -0.90500000      -0.00000000      -0.00000000       0.01548258
Si       0.00000000       0.00000000       0.90500000       0.00000000       0.00000000      -0.00814470
H        0.00000000      -1.01976200      -1.29689700       0.00000000      -0.00008286       0.00349282
H       -0.88314000       0.50988100      -1.29689700      -0.00007176       0.00004143       0.00349282
H        0.88314000       0.50988100      -1.29689700       0.00007176       0.00004143       0.00349282
H        0.00000000       1.39123400       1.42797900       0.00000000      -0.00490245      -0.00593878
H       -1.20484400      -0.69561700       1.42797900       0.00424565       0.00245123      -0.00593878
H        1.20484400      -0.69561700       1.42797900      -0.00424565       0.00245123      -0.00593878
