8
Properties=species:S:1:pos:R:3:forces:R:3 calculation_type=dimer_refinement calculation_label=CH3SiH3/refinement_41/point_001_distance_1.670000 d4_functional=wB97M d4_method=wb97m d4_energy_eV=-0.12699456644181298 source_geometry=/mnt/ceph/users/cwoodson/dft_calc/diatomics/dimer_jobs/CH3SiH3/refinement_41/point_001_distance_1.670000/geometry.in energy=-0.12699456644181298 free_energy=-0.12699456644181298 pbc="F F F"
C        0.00000000       0.00000268      -0.83500000       0.00000000      -0.00000006       0.01479408
Si       0.00000000      -0.00000268       0.83500000       0.00000000      -0.00000002      -0.00701945
H       -0.00000100      -1.01749232      -1.22273400      -0.00000000      -0.00018860       0.00335041
H       -0.88117700       0.50875168      -1.22272400      -0.00016334       0.00009432       0.00335042
H        0.88117800       0.50874968      -1.22272400       0.00016334       0.00009432       0.00335042
H       -0.00000100       1.38371132       1.35640200       0.00000000      -0.00511926      -0.00594194
H       -1.19833100      -0.69185268       1.35641500       0.00443343       0.00255965      -0.00594197
H        1.19833200      -0.69185068       1.35641500      -0.00443343       0.00255964      -0.00594197
