8
Properties=species:S:1:pos:R:3:forces:R:3 calculation_type=dimer_refinement calculation_label=CH3SiH3/refinement_100/point_009_distance_1.47 d4_functional=wB97M d4_method=wb97m d4_energy_eV=-0.13128750918673143 source_geometry=/mnt/ceph/users/cwoodson/dft_calc/diatomics/dimer_jobs/CH3SiH3/refinement_100/point_009_distance_1.47/geometry.in energy=-0.13128750918673143 free_energy=-0.13128750918673143 pbc="F F F"
C        0.00000000       0.00000000      -0.73500000      -0.00000000      -0.00000000       0.01344321
Si       0.00000000       0.00000000       0.73500000       0.00000000       0.00000000      -0.00220767
H        0.00000000      -1.01976200      -1.12689700      -0.00000000      -0.00100826       0.00180452
H       -0.88314000       0.50988100      -1.12689700      -0.00087317       0.00050413       0.00180452
H        0.88314000       0.50988100      -1.12689700       0.00087317       0.00050413       0.00180452
H        0.00000000       1.39123400       1.25797900      -0.00000000      -0.00526243      -0.00554970
H       -1.20484400      -0.69561700       1.25797900       0.00455740       0.00263122      -0.00554970
H        1.20484400      -0.69561700       1.25797900      -0.00455740       0.00263122      -0.00554970
