8
Properties=species:S:1:pos:R:3:forces:R:3 calculation_type=dimer_refinement calculation_label=CH3SiH3/refinement_100/point_075_distance_2.13 d4_functional=wB97M d4_method=wb97m d4_energy_eV=-0.11569268549926004 source_geometry=/mnt/ceph/users/cwoodson/dft_calc/diatomics/dimer_jobs/CH3SiH3/refinement_100/point_075_distance_2.13/geometry.in energy=-0.11569268549926004 free_energy=-0.11569268549926004 pbc="F F F"
C        0.00000000       0.00000000      -1.06500000       0.00000000      -0.00000000       0.00560481
Si       0.00000000       0.00000000       1.06500000      -0.00000000       0.00000000       0.00047858
H        0.00000000      -1.01976200      -1.45689700       0.00000000      -0.00066394       0.00308930
H       -0.88314000       0.50988100      -1.45689700      -0.00057499       0.00033197       0.00308930
H        0.88314000       0.50988100      -1.45689700       0.00057499       0.00033197       0.00308930
H        0.00000000       1.39123400       1.58797900       0.00000000      -0.00345041      -0.00511710
H       -1.20484400      -0.69561700       1.58797900       0.00298814       0.00172520      -0.00511710
H        1.20484400      -0.69561700       1.58797900      -0.00298814       0.00172520      -0.00511710
