8
Properties=species:S:1:pos:R:3:forces:R:3 calculation_type=dimer_refinement calculation_label=CH3SiH3/refinement_100/point_095_distance_2.33 d4_functional=wB97M d4_method=wb97m d4_energy_eV=-0.11771966275161173 source_geometry=/mnt/ceph/users/cwoodson/dft_calc/diatomics/dimer_jobs/CH3SiH3/refinement_100/point_095_distance_2.33/geometry.in energy=-0.11771966275161173 free_energy=-0.11771966275161173 pbc="F F F"
C        0.00000000       0.00000000      -1.16500000       0.00000000      -0.00000000      -0.04147590
Si       0.00000000       0.00000000       1.16500000       0.00000000       0.00000000       0.03962129
H        0.00000000      -1.01976200      -1.55689700      -0.00000000      -0.00116674       0.00290678
H       -0.88314000       0.50988100      -1.55689700      -0.00101043       0.00058337       0.00290678
H        0.88314000       0.50988100      -1.55689700       0.00101043       0.00058337       0.00290678
H        0.00000000       1.39123400       1.68797900      -0.00000000       0.00338359      -0.00228857
H       -1.20484400      -0.69561700       1.68797900      -0.00293028      -0.00169180      -0.00228857
H        1.20484400      -0.69561700       1.68797900       0.00293028      -0.00169180      -0.00228857
