8
Properties=species:S:1:pos:R:3:forces:R:3 calculation_type=dimer_refinement calculation_label=CH3SiH3/refinement_100/point_035_distance_1.73 d4_functional=wB97M d4_method=wb97m d4_energy_eV=-0.1252963951775966 source_geometry=/mnt/ceph/users/cwoodson/dft_calc/diatomics/dimer_jobs/CH3SiH3/refinement_100/point_035_distance_1.73/geometry.in energy=-0.1252963951775966 free_energy=-0.1252963951775966 pbc="F F F"
C        0.00000000       0.00000000      -0.86500000       0.00000000      -0.00000000       0.01519928
Si       0.00000000       0.00000000       0.86500000       0.00000000       0.00000000      -0.00778472
H        0.00000000      -1.01976200      -1.25689700       0.00000000      -0.00012706       0.00345585
H       -0.88314000       0.50988100      -1.25689700      -0.00011004       0.00006353       0.00345585
H        0.88314000       0.50988100      -1.25689700       0.00011004       0.00006353       0.00345585
H        0.00000000       1.39123400       1.38797900       0.00000000      -0.00496978      -0.00592737
H       -1.20484400      -0.69561700       1.38797900       0.00430395       0.00248489      -0.00592737
H        1.20484400      -0.69561700       1.38797900      -0.00430395       0.00248489      -0.00592737
