8
Properties=species:S:1:pos:R:3:forces:R:3 calculation_type=dimer_refinement calculation_label=CH3SiH3/refinement_100/point_098_distance_2.36 d4_functional=wB97M d4_method=wb97m d4_energy_eV=-0.1186541546756035 source_geometry=/mnt/ceph/users/cwoodson/dft_calc/diatomics/dimer_jobs/CH3SiH3/refinement_100/point_098_distance_2.36/geometry.in energy=-0.1186541546756035 free_energy=-0.1186541546756035 pbc="F F F"
C        0.00000000       0.00000000      -1.18000000      -0.00000000      -0.00000000      -0.03792149
Si       0.00000000       0.00000000       1.18000000       0.00000000       0.00000000       0.03495818
H        0.00000000      -1.01976200      -1.57189700       0.00000000      -0.00066757       0.00313148
H       -0.88314000       0.50988100      -1.57189700      -0.00057813       0.00033379       0.00313148
H        0.88314000       0.50988100      -1.57189700       0.00057813       0.00033379       0.00313148
H        0.00000000       1.39123400       1.70297900       0.00000000       0.00361910      -0.00214371
H       -1.20484400      -0.69561700       1.70297900      -0.00313423      -0.00180955      -0.00214371
H        1.20484400      -0.69561700       1.70297900       0.00313423      -0.00180955      -0.00214371
