8
Properties=species:S:1:pos:R:3:forces:R:3 calculation_type=dimer_refinement calculation_label=CH3SiH3/refinement_100/point_096_distance_2.34 d4_functional=wB97M d4_method=wb97m d4_energy_eV=-0.1180441961301118 source_geometry=/mnt/ceph/users/cwoodson/dft_calc/diatomics/dimer_jobs/CH3SiH3/refinement_100/point_096_distance_2.34/geometry.in energy=-0.1180441961301118 free_energy=-0.1180441961301118 pbc="F F F"
C        0.00000000       0.00000000      -1.17000000      -0.00000000      -0.00000000      -0.04097225
Si       0.00000000       0.00000000       1.17000000      -0.00000000       0.00000000       0.03863517
H        0.00000000      -1.01976200      -1.56189700      -0.00000000      -0.00100274       0.00298009
H       -0.88314000       0.50988100      -1.56189700      -0.00086840       0.00050137       0.00298009
H        0.88314000       0.50988100      -1.56189700       0.00086840       0.00050137       0.00298009
H        0.00000000       1.39123400       1.69297900      -0.00000000       0.00357091      -0.00220106
H       -1.20484400      -0.69561700       1.69297900      -0.00309250      -0.00178546      -0.00220106
H        1.20484400      -0.69561700       1.69297900       0.00309250      -0.00178546      -0.00220106
