8
Properties=species:S:1:pos:R:3:forces:R:3 calculation_type=dimer_refinement calculation_label=CH3SiH3/refinement_100/point_061_distance_1.99 d4_functional=wB97M d4_method=wb97m d4_energy_eV=-0.11862840866303219 source_geometry=/mnt/ceph/users/cwoodson/dft_calc/diatomics/dimer_jobs/CH3SiH3/refinement_100/point_061_distance_1.99/geometry.in energy=-0.11862840866303219 free_energy=-0.11862840866303219 pbc="F F F"
C        0.00000000       0.00000000      -0.99500000       0.00000000      -0.00000000       0.01431044
Si       0.00000000       0.00000000       0.99500000       0.00000000       0.00000000      -0.00729354
H        0.00000000      -1.01976200      -1.38689700      -0.00000000      -0.00015347       0.00337250
H       -0.88314000       0.50988100      -1.38689700      -0.00013291       0.00007674       0.00337250
H        0.88314000       0.50988100      -1.38689700       0.00013291       0.00007674       0.00337250
H        0.00000000       1.39123400       1.51797900      -0.00000000      -0.00452918      -0.00571147
H       -1.20484400      -0.69561700       1.51797900       0.00392238       0.00226459      -0.00571147
H        1.20484400      -0.69561700       1.51797900      -0.00392238       0.00226459      -0.00571147
