2
Properties=species:S:1:pos:R:3:forces:R:3 calculation_type=dimer_refinement calculation_label=LiCl/refinement_100/point_082_distance_2.33 d4_functional=wB97M d4_method=wb97m d4_energy_eV=-0.006858243945722097 source_geometry=/mnt/ceph/users/cwoodson/dft_calc/diatomics/dimer_jobs/LiCl/refinement_100/point_082_distance_2.33/geometry.in energy=-0.006858243945722097 free_energy=-0.006858243945722097 pbc="F F F"
Li       0.00000000       0.00000000      -1.16500000      -0.00000000      -0.00000000      -0.00112109
Cl       0.00000000       0.00000000       1.16500000      -0.00000000      -0.00000000       0.00112109
