2
Properties=species:S:1:pos:R:3:forces:R:3 calculation_type=dimer_refinement calculation_label=LiCl/refinement_41/point_037_distance_2.180000 d4_functional=wB97M d4_method=wb97m d4_energy_eV=-0.006772902347617429 source_geometry=/mnt/ceph/users/cwoodson/dft_calc/diatomics/dimer_jobs/LiCl/refinement_41/point_037_distance_2.180000/geometry.in energy=-0.006772902347617429 free_energy=-0.006772902347617429 pbc="F F F"
Li       0.00000000       0.00000000      -1.09000000      -0.00000000      -0.00000000      -0.00021502
Cl       0.00000000       0.00000000       1.09000000      -0.00000000      -0.00000000       0.00021502
