2
Properties=species:S:1:pos:R:3:forces:R:3 calculation_type=dimer_refinement calculation_label=LiCl/refinement_100/point_046_distance_1.97 d4_functional=wB97M d4_method=wb97m d4_energy_eV=-0.0067581623596300894 source_geometry=/mnt/ceph/users/cwoodson/dft_calc/diatomics/dimer_jobs/LiCl/refinement_100/point_046_distance_1.97/geometry.in energy=-0.0067581623596300894 free_energy=-0.0067581623596300894 pbc="F F F"
Li       0.00000000       0.00000000      -0.98500000      -0.00000000      -0.00000000      -0.00001847
Cl       0.00000000       0.00000000       0.98500000      -0.00000000      -0.00000000       0.00001847
