2
Properties=species:S:1:pos:R:3:forces:R:3 calculation_type=dimer_refinement calculation_label=LiCl/refinement_100/point_047_distance_1.98 d4_functional=wB97M d4_method=wb97m d4_energy_eV=-0.006758345679264319 source_geometry=/mnt/ceph/users/cwoodson/dft_calc/diatomics/dimer_jobs/LiCl/refinement_100/point_047_distance_1.98/geometry.in energy=-0.006758345679264319 free_energy=-0.006758345679264319 pbc="F F F"
Li       0.00000000       0.00000000      -0.99000000      -0.00000000      -0.00000000      -0.00001827
Cl       0.00000000       0.00000000       0.99000000      -0.00000000      -0.00000000       0.00001827
