2
Properties=species:S:1:pos:R:3:forces:R:3 calculation_type=dimer_refinement calculation_label=LiCl/refinement_100/point_064_distance_2.15 d4_functional=wB97M d4_method=wb97m d4_energy_eV=-0.0067675664123698605 source_geometry=/mnt/ceph/users/cwoodson/dft_calc/diatomics/dimer_jobs/LiCl/refinement_100/point_064_distance_2.15/geometry.in energy=-0.0067675664123698605 free_energy=-0.0067675664123698605 pbc="F F F"
Li       0.00000000       0.00000000      -1.07500000      -0.00000000      -0.00000000      -0.00014453
Cl       0.00000000       0.00000000       1.07500000      -0.00000000      -0.00000000       0.00014453
