2
Properties=species:S:1:pos:R:3:forces:R:3 calculation_type=dimer_refinement calculation_label=LiCl/refinement_41/point_004_distance_1.850000 d4_functional=wB97M d4_method=wb97m d4_energy_eV=-0.0067547945573568115 source_geometry=/mnt/ceph/users/cwoodson/dft_calc/diatomics/dimer_jobs/LiCl/refinement_41/point_004_distance_1.850000/geometry.in energy=-0.0067547945573568115 free_energy=-0.0067547945573568115 pbc="F F F"
Li       0.00000000       0.00000000      -0.92500000      -0.00000000      -0.00000000      -0.00004268
Cl       0.00000000       0.00000000       0.92500000      -0.00000000      -0.00000000       0.00004268
