2
Properties=species:S:1:pos:R:3:forces:R:3 calculation_type=dimer_refinement calculation_label=LiCl/refinement_41/point_014_distance_1.950000 d4_functional=wB97M d4_method=wb97m d4_energy_eV=-0.006757779598986274 source_geometry=/mnt/ceph/users/cwoodson/dft_calc/diatomics/dimer_jobs/LiCl/refinement_41/point_014_distance_1.950000/geometry.in energy=-0.006757779598986274 free_energy=-0.006757779598986274 pbc="F F F"
Li       0.00000000       0.00000000      -0.97500000      -0.00000000      -0.00000000      -0.00002005
Cl       0.00000000       0.00000000       0.97500000      -0.00000000      -0.00000000       0.00002005
