2
Properties=species:S:1:pos:R:3:forces:R:3 calculation_type=dimer_refinement calculation_label=LiCl/refinement_100/point_025_distance_1.76 d4_functional=wB97M d4_method=wb97m d4_energy_eV=-0.006749662668350301 source_geometry=/mnt/ceph/users/cwoodson/dft_calc/diatomics/dimer_jobs/LiCl/refinement_100/point_025_distance_1.76/geometry.in energy=-0.006749662668350301 free_energy=-0.006749662668350301 pbc="F F F"
Li       0.00000000       0.00000000      -0.88000000      -0.00000000      -0.00000000      -0.00007197
Cl       0.00000000       0.00000000       0.88000000      -0.00000000      -0.00000000       0.00007197
