2
Properties=species:S:1:pos:R:3:forces:R:3 calculation_type=dimer_refinement calculation_label=LiCl/refinement_100/point_081_distance_2.32 d4_functional=wB97M d4_method=wb97m d4_energy_eV=-0.006847560544069658 source_geometry=/mnt/ceph/users/cwoodson/dft_calc/diatomics/dimer_jobs/LiCl/refinement_100/point_081_distance_2.32/geometry.in energy=-0.006847560544069658 free_energy=-0.006847560544069658 pbc="F F F"
Li       0.00000000       0.00000000      -1.16000000      -0.00000000      -0.00000000      -0.00101705
Cl       0.00000000       0.00000000       1.16000000      -0.00000000      -0.00000000       0.00101705
