2
Properties=species:S:1:pos:R:3:forces:R:3 calculation_type=dimer_refinement calculation_label=LiCl/refinement_100/point_003_distance_1.54 d4_functional=wB97M d4_method=wb97m d4_energy_eV=-0.006725442597086843 source_geometry=/mnt/ceph/users/cwoodson/dft_calc/diatomics/dimer_jobs/LiCl/refinement_100/point_003_distance_1.54/geometry.in energy=-0.006725442597086843 free_energy=-0.006725442597086843 pbc="F F F"
Li       0.00000000       0.00000000      -0.77000000      -0.00000000      -0.00000000      -0.00014843
Cl       0.00000000       0.00000000       0.77000000      -0.00000000      -0.00000000       0.00014843
