2
Properties=species:S:1:pos:R:3:forces:R:3 calculation_type=dimer_refinement calculation_label=LiCl/refinement_100/point_019_distance_1.70 d4_functional=wB97M d4_method=wb97m d4_energy_eV=-0.006744725238837339 source_geometry=/mnt/ceph/users/cwoodson/dft_calc/diatomics/dimer_jobs/LiCl/refinement_100/point_019_distance_1.70/geometry.in energy=-0.006744725238837339 free_energy=-0.006744725238837339 pbc="F F F"
Li       0.00000000       0.00000000      -0.85000000      -0.00000000      -0.00000000      -0.00009267
Cl       0.00000000       0.00000000       0.85000000      -0.00000000      -0.00000000       0.00009267
