2
Properties=species:S:1:pos:R:3:forces:R:3 calculation_type=dimer_refinement calculation_label=LiCl/refinement_100/point_068_distance_2.19 d4_functional=wB97M d4_method=wb97m d4_energy_eV=-0.006775194847914154 source_geometry=/mnt/ceph/users/cwoodson/dft_calc/diatomics/dimer_jobs/LiCl/refinement_100/point_068_distance_2.19/geometry.in energy=-0.006775194847914154 free_energy=-0.006775194847914154 pbc="F F F"
Li       0.00000000       0.00000000      -1.09500000      -0.00000000      -0.00000000      -0.00024397
Cl       0.00000000       0.00000000       1.09500000      -0.00000000      -0.00000000       0.00024397
