2
Properties=species:S:1:pos:R:3:forces:R:3 calculation_type=dimer_refinement calculation_label=LiF/refinement_100/point_073_distance_1.78 d4_functional=wB97M d4_method=wb97m d4_energy_eV=-0.00566999170660593 source_geometry=/mnt/ceph/users/cwoodson/dft_calc/diatomics/dimer_jobs/LiF/refinement_100/point_073_distance_1.78/geometry.in energy=-0.00566999170660593 free_energy=-0.00566999170660593 pbc="F F F"
Li       0.00000000       0.00000000      -0.89000000      -0.00000000      -0.00000000       0.00005320
F        0.00000000       0.00000000       0.89000000      -0.00000000      -0.00000000      -0.00005320
