2
Properties=species:S:1:pos:R:3:forces:R:3 calculation_type=dimer_refinement calculation_label=LiF/refinement_100/point_077_distance_1.82 d4_functional=wB97M d4_method=wb97m d4_energy_eV=-0.005671071859103834 source_geometry=/mnt/ceph/users/cwoodson/dft_calc/diatomics/dimer_jobs/LiF/refinement_100/point_077_distance_1.82/geometry.in energy=-0.005671071859103834 free_energy=-0.005671071859103834 pbc="F F F"
Li       0.00000000       0.00000000      -0.91000000      -0.00000000      -0.00000000      -0.00011990
F        0.00000000       0.00000000       0.91000000      -0.00000000      -0.00000000       0.00011990
