2
Properties=species:S:1:pos:R:3:forces:R:3 calculation_type=dimer_refinement calculation_label=LiF/refinement_100/point_001_distance_1.06 d4_functional=wB97M d4_method=wb97m d4_energy_eV=-0.005929939780744665 source_geometry=/mnt/ceph/users/cwoodson/dft_calc/diatomics/dimer_jobs/LiF/refinement_100/point_001_distance_1.06/geometry.in energy=-0.005929939780744665 free_energy=-0.005929939780744665 pbc="F F F"
Li       0.00000000       0.00000000      -0.53000000      -0.00000000      -0.00000000       0.00053612
F        0.00000000       0.00000000       0.53000000      -0.00000000      -0.00000000      -0.00053612
