2
Properties=species:S:1:pos:R:3:forces:R:3 calculation_type=dimer_refinement calculation_label=LiF/refinement_100/point_030_distance_1.35 d4_functional=wB97M d4_method=wb97m d4_energy_eV=-0.00579759526064693 source_geometry=/mnt/ceph/users/cwoodson/dft_calc/diatomics/dimer_jobs/LiF/refinement_100/point_030_distance_1.35/geometry.in energy=-0.00579759526064693 free_energy=-0.00579759526064693 pbc="F F F"
Li       0.00000000       0.00000000      -0.67500000      -0.00000000      -0.00000000       0.00038884
F        0.00000000       0.00000000       0.67500000      -0.00000000      -0.00000000      -0.00038884
