2
Properties=species:S:1:pos:R:3:forces:R:3 calculation_type=dimer_refinement calculation_label=MgO/refinement_100/point_090_distance_2.14 d4_functional=wB97M d4_method=wb97m d4_energy_eV=-0.015939143214466284 source_geometry=/mnt/ceph/users/cwoodson/dft_calc/diatomics/dimer_jobs/MgO/refinement_100/point_090_distance_2.14/geometry.in energy=-0.015939143214466284 free_energy=-0.015939143214466284 pbc="F F F"
Mg       0.00000000       0.00000000      -1.07000000      -0.00000000      -0.00000000      -0.00055132
O        0.00000000       0.00000000       1.07000000      -0.00000000      -0.00000000       0.00055132
