2
Properties=species:S:1:pos:R:3:forces:R:3 calculation_type=dimer_refinement calculation_label=MgO/refinement_100/point_082_distance_2.06 d4_functional=wB97M d4_method=wb97m d4_energy_eV=-0.01595185400094609 source_geometry=/mnt/ceph/users/cwoodson/dft_calc/diatomics/dimer_jobs/MgO/refinement_100/point_082_distance_2.06/geometry.in energy=-0.01595185400094609 free_energy=-0.01595185400094609 pbc="F F F"
Mg       0.00000000       0.00000000      -1.03000000      -0.00000000      -0.00000000       0.00072989
O        0.00000000       0.00000000       1.03000000      -0.00000000      -0.00000000      -0.00072989
