2
Properties=species:S:1:pos:R:3:forces:R:3 calculation_type=dimer_refinement calculation_label=MgO/refinement_41/point_041_distance_1.950000 d4_functional=wB97M d4_method=wb97m d4_energy_eV=-0.016086389948504004 source_geometry=/mnt/ceph/users/cwoodson/dft_calc/diatomics/dimer_jobs/MgO/refinement_41/point_041_distance_1.950000/geometry.in energy=-0.016086389948504004 free_energy=-0.016086389948504004 pbc="F F F"
Mg       0.00000000       0.00000000      -0.97500000      -0.00000000      -0.00000000       0.00161118
O        0.00000000       0.00000000       0.97500000      -0.00000000      -0.00000000      -0.00161118
