2
Properties=species:S:1:pos:R:3:forces:R:3 calculation_type=dimer_refinement calculation_label=MgO/refinement_100/point_064_distance_1.88 d4_functional=wB97M d4_method=wb97m d4_energy_eV=-0.016211534031741477 source_geometry=/mnt/ceph/users/cwoodson/dft_calc/diatomics/dimer_jobs/MgO/refinement_100/point_064_distance_1.88/geometry.in energy=-0.016211534031741477 free_energy=-0.016211534031741477 pbc="F F F"
Mg       0.00000000       0.00000000      -0.94000000      -0.00000000      -0.00000000       0.00194839
O        0.00000000       0.00000000       0.94000000      -0.00000000      -0.00000000      -0.00194839
