2
Properties=species:S:1:pos:R:3:forces:R:3 calculation_type=dimer_refinement calculation_label=MgO/refinement_41/point_018_distance_1.720000 d4_functional=wB97M d4_method=wb97m d4_energy_eV=-0.016574023299301566 source_geometry=/mnt/ceph/users/cwoodson/dft_calc/diatomics/dimer_jobs/MgO/refinement_41/point_018_distance_1.720000/geometry.in energy=-0.016574023299301566 free_energy=-0.016574023299301566 pbc="F F F"
Mg       0.00000000       0.00000000      -0.86000000      -0.00000000      -0.00000000       0.00258538
O        0.00000000       0.00000000       0.86000000      -0.00000000      -0.00000000      -0.00258538
