2
Properties=species:S:1:pos:R:3:forces:R:3 calculation_type=dimer_refinement calculation_label=MgO/refinement_100/point_098_distance_2.22 d4_functional=wB97M d4_method=wb97m d4_energy_eV=-0.016074231114837197 source_geometry=/mnt/ceph/users/cwoodson/dft_calc/diatomics/dimer_jobs/MgO/refinement_100/point_098_distance_2.22/geometry.in energy=-0.016074231114837197 free_energy=-0.016074231114837197 pbc="F F F"
Mg       0.00000000       0.00000000      -1.11000000      -0.00000000      -0.00000000      -0.00314267
O        0.00000000       0.00000000       1.11000000      -0.00000000      -0.00000000       0.00314267
