2
Properties=species:S:1:pos:R:3:forces:R:3 calculation_type=dimer_refinement calculation_label=MgO/refinement_100/point_037_distance_1.61 d4_functional=wB97M d4_method=wb97m d4_energy_eV=-0.016886879400959898 source_geometry=/mnt/ceph/users/cwoodson/dft_calc/diatomics/dimer_jobs/MgO/refinement_100/point_037_distance_1.61/geometry.in energy=-0.016886879400959898 free_energy=-0.016886879400959898 pbc="F F F"
Mg       0.00000000       0.00000000      -0.80500000      -0.00000000      -0.00000000       0.00313041
O        0.00000000       0.00000000       0.80500000      -0.00000000      -0.00000000      -0.00313041
