2
Properties=species:S:1:pos:R:3:forces:R:3 calculation_type=dimer_refinement calculation_label=MgO/refinement_100/point_089_distance_2.13 d4_functional=wB97M d4_method=wb97m d4_energy_eV=-0.01593469870264791 source_geometry=/mnt/ceph/users/cwoodson/dft_calc/diatomics/dimer_jobs/MgO/refinement_100/point_089_distance_2.13/geometry.in energy=-0.01593469870264791 free_energy=-0.01593469870264791 pbc="F F F"
Mg       0.00000000       0.00000000      -1.06500000      -0.00000000      -0.00000000      -0.00034064
O        0.00000000       0.00000000       1.06500000      -0.00000000      -0.00000000       0.00034064
