5
Properties=species:S:1:pos:R:3:forces:R:3 calculation_type=dimer_refinement calculation_label=MgOH2/refinement_41/point_015_distance_1.710000 d4_functional=wB97M d4_method=wb97m d4_energy_eV=-0.04597712897874528 source_geometry=/mnt/ceph/users/cwoodson/dft_calc/diatomics/dimer_jobs/MgOH2/refinement_41/point_015_distance_1.710000/geometry.in energy=-0.04597712897874528 free_energy=-0.04597712897874528 pbc="F F F"
Mg       0.00000000       0.00000000       0.00000000       0.00000000      -0.00000000      -0.00000000
O       -1.69287584       0.24139467       0.00000000       0.01689138      -0.00292796      -0.00000000
O        1.69287584      -0.24139467       0.00000000      -0.01689138       0.00292796      -0.00000000
H       -2.50927784       0.72123767       0.00000000      -0.00149039       0.00077875      -0.00000000
H        2.50927784      -0.72123767       0.00000000       0.00149039      -0.00077875      -0.00000000
