5
Properties=species:S:1:pos:R:3:forces:R:3 calculation_type=dimer_refinement calculation_label=MgOH2/refinement_41/point_004_distance_1.600000 d4_functional=wB97M d4_method=wb97m d4_energy_eV=-0.04961883245125202 source_geometry=/mnt/ceph/users/cwoodson/dft_calc/diatomics/dimer_jobs/MgOH2/refinement_41/point_004_distance_1.600000/geometry.in energy=-0.04961883245125202 free_energy=-0.04961883245125202 pbc="F F F"
Mg       0.00000000       0.00000000       0.00000000       0.00000000      -0.00000000      -0.00000000
O       -1.58397739       0.22586636       0.00000000       0.02022581      -0.00270836      -0.00000000
O        1.58397739      -0.22586636       0.00000000      -0.02022581       0.00270836      -0.00000000
H       -2.40037939       0.70570936       0.00000000      -0.00300190       0.00076659      -0.00000000
H        2.40037939      -0.70570936       0.00000000       0.00300190      -0.00076659      -0.00000000
