5
Properties=species:S:1:pos:R:3:forces:R:3 calculation_type=dimer_refinement calculation_label=MgOH2/refinement_41/point_025_distance_1.810000 d4_functional=wB97M d4_method=wb97m d4_energy_eV=-0.04313705431310739 source_geometry=/mnt/ceph/users/cwoodson/dft_calc/diatomics/dimer_jobs/MgOH2/refinement_41/point_025_distance_1.810000/geometry.in energy=-0.04313705431310739 free_energy=-0.04313705431310739 pbc="F F F"
Mg       0.00000000       0.00000000       0.00000000      -0.00000000       0.00000000      -0.00000000
O       -1.79187443       0.25551132       0.00000000       0.01383937      -0.00290060      -0.00000000
O        1.79187443      -0.25551132       0.00000000      -0.01383937       0.00290060      -0.00000000
H       -2.60827643       0.73535432       0.00000000      -0.00128454       0.00099912      -0.00000000
H        2.60827643      -0.73535432       0.00000000       0.00128454      -0.00099912      -0.00000000
