5
Properties=species:S:1:pos:R:3:forces:R:3 calculation_type=dimer_refinement calculation_label=MgOH2/refinement_41/point_002_distance_1.580000 d4_functional=wB97M d4_method=wb97m d4_energy_eV=-0.05031680832780285 source_geometry=/mnt/ceph/users/cwoodson/dft_calc/diatomics/dimer_jobs/MgOH2/refinement_41/point_002_distance_1.580000/geometry.in energy=-0.05031680832780285 free_energy=-0.05031680832780285 pbc="F F F"
Mg       0.00000000       0.00000000       0.00000000      -0.00000000       0.00000000      -0.00000000
O       -1.56417768       0.22304303       0.00000000       0.02082391      -0.00263103      -0.00000000
O        1.56417768      -0.22304303       0.00000000      -0.02082391       0.00263103      -0.00000000
H       -2.38057968       0.70288603       0.00000000      -0.00333268       0.00076169      -0.00000000
H        2.38057968      -0.70288603       0.00000000       0.00333268      -0.00076169      -0.00000000
