5
Properties=species:S:1:pos:R:3:forces:R:3 calculation_type=dimer_refinement calculation_label=MgOH2/refinement_41/point_034_distance_1.900000 d4_functional=wB97M d4_method=wb97m d4_energy_eV=-0.04112849754227139 source_geometry=/mnt/ceph/users/cwoodson/dft_calc/diatomics/dimer_jobs/MgOH2/refinement_41/point_034_distance_1.900000/geometry.in energy=-0.04112849754227139 free_energy=-0.04112849754227139 pbc="F F F"
Mg       0.00000000       0.00000000       0.00000000      -0.00000000       0.00000000      -0.00000000
O       -1.88097316       0.26821631       0.00000000       0.01093442      -0.00272691      -0.00000000
O        1.88097316      -0.26821631       0.00000000      -0.01093442       0.00272691      -0.00000000
H       -2.69737516       0.74805931       0.00000000      -0.00151128       0.00123341      -0.00000000
H        2.69737516      -0.74805931       0.00000000       0.00151128      -0.00123341      -0.00000000
