5
Properties=species:S:1:pos:R:3:forces:R:3 calculation_type=dimer_refinement calculation_label=MgOH2/refinement_41/point_009_distance_1.650000 d4_functional=wB97M d4_method=wb97m d4_energy_eV=-0.04791671654752439 source_geometry=/mnt/ceph/users/cwoodson/dft_calc/diatomics/dimer_jobs/MgOH2/refinement_41/point_009_distance_1.650000/geometry.in energy=-0.04791671654752439 free_energy=-0.04791671654752439 pbc="F F F"
Mg       0.00000000       0.00000000       0.00000000      -0.00000000       0.00000000      -0.00000000
O       -1.63347669       0.23292469       0.00000000       0.01871684      -0.00284755      -0.00000000
O        1.63347669      -0.23292469       0.00000000      -0.01871684       0.00284755      -0.00000000
H       -2.44987869       0.71276769       0.00000000      -0.00215659       0.00074654      -0.00000000
H        2.44987869      -0.71276769       0.00000000       0.00215659      -0.00074654      -0.00000000
