5
Properties=species:S:1:pos:R:3:forces:R:3 calculation_type=dimer_refinement calculation_label=MgOH2/refinement_41/point_033_distance_1.890000 d4_functional=wB97M d4_method=wb97m d4_energy_eV=-0.04132306501146995 source_geometry=/mnt/ceph/users/cwoodson/dft_calc/diatomics/dimer_jobs/MgOH2/refinement_41/point_033_distance_1.890000/geometry.in energy=-0.04132306501146995 free_energy=-0.04132306501146995 pbc="F F F"
Mg       0.00000000       0.00000000       0.00000000       0.00000000      -0.00000000      -0.00000000
O       -1.87107330       0.26680464       0.00000000       0.01127777      -0.00275386      -0.00000000
O        1.87107330      -0.26680464       0.00000000      -0.01127777       0.00275386      -0.00000000
H       -2.68747530       0.74664764       0.00000000      -0.00148187       0.00120937      -0.00000000
H        2.68747530      -0.74664764       0.00000000       0.00148187      -0.00120937      -0.00000000
