5
Properties=species:S:1:pos:R:3:forces:R:3 calculation_type=dimer_refinement calculation_label=MgOH2/refinement_41/point_038_distance_1.940000 d4_functional=wB97M d4_method=wb97m d4_energy_eV=-0.04042815734005768 source_geometry=/mnt/ceph/users/cwoodson/dft_calc/diatomics/dimer_jobs/MgOH2/refinement_41/point_038_distance_1.940000/geometry.in energy=-0.04042815734005768 free_energy=-0.04042815734005768 pbc="F F F"
Mg       0.00000000       0.00000000       0.00000000       0.00000000       0.00000000      -0.00000000
O       -1.92057259       0.27386296       0.00000000       0.00946450      -0.00259531      -0.00000000
O        1.92057259      -0.27386296       0.00000000      -0.00946450       0.00259531      -0.00000000
H       -2.73697459       0.75370596       0.00000000      -0.00162504       0.00132164      -0.00000000
H        2.73697459      -0.75370596       0.00000000       0.00162504      -0.00132164      -0.00000000
