2
Properties=species:S:1:pos:R:3:forces:R:3 calculation_type=dimer_refinement calculation_label=MgS/refinement_100/point_011_distance_1.77 d4_functional=wB97M d4_method=wb97m d4_energy_eV=-0.01904144682215005 source_geometry=/mnt/ceph/users/cwoodson/dft_calc/diatomics/dimer_jobs/MgS/refinement_100/point_011_distance_1.77/geometry.in energy=-0.01904144682215005 free_energy=-0.01904144682215005 pbc="F F F"
Mg       0.00000000       0.00000000      -0.88500000      -0.00000000      -0.00000000       0.00043312
S        0.00000000       0.00000000       0.88500000      -0.00000000      -0.00000000      -0.00043312
