2
Properties=species:S:1:pos:R:3:forces:R:3 calculation_type=dimer_refinement calculation_label=MgS/refinement_100/point_008_distance_1.74 d4_functional=wB97M d4_method=wb97m d4_energy_eV=-0.01905445034612153 source_geometry=/mnt/ceph/users/cwoodson/dft_calc/diatomics/dimer_jobs/MgS/refinement_100/point_008_distance_1.74/geometry.in energy=-0.01905445034612153 free_energy=-0.01905445034612153 pbc="F F F"
Mg       0.00000000       0.00000000      -0.87000000      -0.00000000      -0.00000000       0.00043398
S        0.00000000       0.00000000       0.87000000      -0.00000000      -0.00000000      -0.00043398
