2
Properties=species:S:1:pos:R:3:forces:R:3 calculation_type=dimer_refinement calculation_label=MgS/refinement_41/point_023_distance_2.190000 d4_functional=wB97M d4_method=wb97m d4_energy_eV=-0.01884444241495962 source_geometry=/mnt/ceph/users/cwoodson/dft_calc/diatomics/dimer_jobs/MgS/refinement_41/point_023_distance_2.190000/geometry.in energy=-0.01884444241495962 free_energy=-0.01884444241495962 pbc="F F F"
Mg       0.00000000       0.00000000      -1.09500000      -0.00000000      -0.00000000       0.00053139
S        0.00000000       0.00000000       1.09500000      -0.00000000      -0.00000000      -0.00053139
