2
Properties=species:S:1:pos:R:3:forces:R:3 calculation_type=dimer_refinement calculation_label=MgS/refinement_100/point_078_distance_2.44 d4_functional=wB97M d4_method=wb97m d4_energy_eV=-0.01871258546461335 source_geometry=/mnt/ceph/users/cwoodson/dft_calc/diatomics/dimer_jobs/MgS/refinement_100/point_078_distance_2.44/geometry.in energy=-0.01871258546461335 free_energy=-0.01871258546461335 pbc="F F F"
Mg       0.00000000       0.00000000      -1.22000000      -0.00000000      -0.00000000       0.00045159
S        0.00000000       0.00000000       1.22000000      -0.00000000      -0.00000000      -0.00045159
