2
Properties=species:S:1:pos:R:3:forces:R:3 calculation_type=dimer_refinement calculation_label=MgS/refinement_100/point_086_distance_2.52 d4_functional=wB97M d4_method=wb97m d4_energy_eV=-0.018682856128522402 source_geometry=/mnt/ceph/users/cwoodson/dft_calc/diatomics/dimer_jobs/MgS/refinement_100/point_086_distance_2.52/geometry.in energy=-0.018682856128522402 free_energy=-0.018682856128522402 pbc="F F F"
Mg       0.00000000       0.00000000      -1.26000000      -0.00000000      -0.00000000       0.00026834
S        0.00000000       0.00000000       1.26000000      -0.00000000      -0.00000000      -0.00026834
