5
Properties=species:S:1:pos:R:3:forces:R:3 calculation_type=dimer_refinement calculation_label=MgSH2/refinement_41/point_009_distance_2.170000 d4_functional=wB97M d4_method=wb97m d4_energy_eV=-0.06183817986900028 source_geometry=/mnt/ceph/users/cwoodson/dft_calc/diatomics/dimer_jobs/MgSH2/refinement_41/point_009_distance_2.170000/geometry.in energy=-0.06183817986900028 free_energy=-0.06183817986900028 pbc="F F F"
Mg       0.00000000       0.00000000       0.00000000      -0.00000000      -0.00000000      -0.00000000
S       -2.15928631      -0.21536631       0.00000000       0.01092793      -0.00253528      -0.00000000
S        2.15928631       0.21536631       0.00000000      -0.01092793       0.00253528      -0.00000000
H       -2.34359831       1.11353069      -0.00000000       0.00313635       0.00184993      -0.00000000
H        2.34359831      -1.11353069      -0.00000000      -0.00313635      -0.00184993      -0.00000000
