5
Properties=species:S:1:pos:R:3:forces:R:3 calculation_type=dimer_refinement calculation_label=MgSH2/refinement_41/point_034_distance_2.420000 d4_functional=wB97M d4_method=wb97m d4_energy_eV=-0.055828603152622364 source_geometry=/mnt/ceph/users/cwoodson/dft_calc/diatomics/dimer_jobs/MgSH2/refinement_41/point_034_distance_2.420000/geometry.in energy=-0.055828603152622364 free_energy=-0.055828603152622364 pbc="F F F"
Mg       0.00000000       0.00000000       0.00000000       0.00000000      -0.00000000      -0.00000000
S       -2.40805201      -0.24017809       0.00000000       0.00702922      -0.00246133      -0.00000000
S        2.40805201       0.24017809       0.00000000      -0.00702922       0.00246133      -0.00000000
H       -2.59236401       1.08871891       0.00000000       0.00280842       0.00175812      -0.00000000
H        2.59236401      -1.08871891       0.00000000      -0.00280842      -0.00175812      -0.00000000
