5
Properties=species:S:1:pos:R:3:forces:R:3 calculation_type=dimer_refinement calculation_label=MgSH2/refinement_41/point_010_distance_2.180000 d4_functional=wB97M d4_method=wb97m d4_energy_eV=-0.06156080880033215 source_geometry=/mnt/ceph/users/cwoodson/dft_calc/diatomics/dimer_jobs/MgSH2/refinement_41/point_010_distance_2.180000/geometry.in energy=-0.06156080880033215 free_energy=-0.06156080880033215 pbc="F F F"
Mg       0.00000000       0.00000000       0.00000000       0.00000000      -0.00000000      -0.00000000
S       -2.16923693      -0.21635878       0.00000000       0.01081011      -0.00252356      -0.00000000
S        2.16923693       0.21635878       0.00000000      -0.01081011       0.00252356      -0.00000000
H       -2.35354893       1.11253822      -0.00000000       0.00313621       0.00183718      -0.00000000
H        2.35354893      -1.11253822      -0.00000000      -0.00313621      -0.00183718      -0.00000000
