5
Properties=species:S:1:pos:R:3:forces:R:3 calculation_type=dimer_refinement calculation_label=MgSH2/refinement_41/point_004_distance_2.120000 d4_functional=wB97M d4_method=wb97m d4_energy_eV=-0.0632570377051054 source_geometry=/mnt/ceph/users/cwoodson/dft_calc/diatomics/dimer_jobs/MgSH2/refinement_41/point_004_distance_2.120000/geometry.in energy=-0.0632570377051054 free_energy=-0.0632570377051054 pbc="F F F"
Mg       0.00000000       0.00000000       0.00000000      -0.00000000      -0.00000000      -0.00000000
S       -2.10953317      -0.21040395       0.00000000       0.01145637      -0.00260699      -0.00000000
S        2.10953317       0.21040395       0.00000000      -0.01145637       0.00260699      -0.00000000
H       -2.29384517       1.11849305      -0.00000000       0.00310751       0.00193312      -0.00000000
H        2.29384517      -1.11849305      -0.00000000      -0.00310751      -0.00193312      -0.00000000
