5
Properties=species:S:1:pos:R:3:forces:R:3 calculation_type=dimer_refinement calculation_label=MgSH2/refinement_41/point_024_distance_2.320000 d4_functional=wB97M d4_method=wb97m d4_energy_eV=-0.057974292734875595 source_geometry=/mnt/ceph/users/cwoodson/dft_calc/diatomics/dimer_jobs/MgSH2/refinement_41/point_024_distance_2.320000/geometry.in energy=-0.057974292734875595 free_energy=-0.057974292734875595 pbc="F F F"
Mg       0.00000000       0.00000000       0.00000000      -0.00000000      -0.00000000      -0.00000000
S       -2.30854573      -0.23025338       0.00000000       0.00882158      -0.00243867      -0.00000000
S        2.30854573       0.23025338       0.00000000      -0.00882158       0.00243867      -0.00000000
H       -2.49285773       1.09864362       0.00000000       0.00297876       0.00176038      -0.00000000
H        2.49285773      -1.09864362       0.00000000      -0.00297876      -0.00176038      -0.00000000
