5
Properties=species:S:1:pos:R:3:forces:R:3 calculation_type=dimer_refinement calculation_label=MgSH2/refinement_41/point_040_distance_2.480000 d4_functional=wB97M d4_method=wb97m d4_energy_eV=-0.05474563489367844 source_geometry=/mnt/ceph/users/cwoodson/dft_calc/diatomics/dimer_jobs/MgSH2/refinement_41/point_040_distance_2.480000/geometry.in energy=-0.05474563489367844 free_energy=-0.05474563489367844 pbc="F F F"
Mg       0.00000000       0.00000000       0.00000000      -0.00000000       0.00000000      -0.00000000
S       -2.46775578      -0.24613292       0.00000000       0.00567234      -0.00251934      -0.00000000
S        2.46775578       0.24613292       0.00000000      -0.00567234       0.00251934      -0.00000000
H       -2.65206778       1.08276408       0.00000000       0.00272211       0.00175933      -0.00000000
H        2.65206778      -1.08276408       0.00000000      -0.00272211      -0.00175933      -0.00000000
