5
Properties=species:S:1:pos:R:3:forces:R:3 calculation_type=dimer_refinement calculation_label=MgSH2/refinement_41/point_028_distance_2.360000 d4_functional=wB97M d4_method=wb97m d4_energy_eV=-0.05706950362373229 source_geometry=/mnt/ceph/users/cwoodson/dft_calc/diatomics/dimer_jobs/MgSH2/refinement_41/point_028_distance_2.360000/geometry.in energy=-0.05706950362373229 free_energy=-0.05706950362373229 pbc="F F F"
Mg       0.00000000       0.00000000       0.00000000      -0.00000000      -0.00000000      -0.00000000
S       -2.34834824      -0.23422327       0.00000000       0.00814959      -0.00243902      -0.00000000
S        2.34834824       0.23422327       0.00000000      -0.00814959       0.00243902      -0.00000000
H       -2.53266024       1.09467373       0.00000000       0.00290915       0.00175780      -0.00000000
H        2.53266024      -1.09467373       0.00000000      -0.00290915      -0.00175780      -0.00000000
