2
Properties=species:S:1:pos:R:3:forces:R:3 calculation_type=dimer_refinement calculation_label=NaCl/refinement_100/point_033_distance_2.18 d4_functional=wB97M d4_method=wb97m d4_energy_eV=-0.00684279606714775 source_geometry=/mnt/ceph/users/cwoodson/dft_calc/diatomics/dimer_jobs/NaCl/refinement_100/point_033_distance_2.18/geometry.in energy=-0.00684279606714775 free_energy=-0.00684279606714775 pbc="F F F"
Na       0.00000000       0.00000000      -1.09000000      -0.00000000      -0.00000000       0.00013188
Cl       0.00000000       0.00000000       1.09000000      -0.00000000      -0.00000000      -0.00013188
