2
Properties=species:S:1:pos:R:3:forces:R:3 calculation_type=dimer_refinement calculation_label=NaCl/refinement_41/point_030_distance_2.450000 d4_functional=wB97M d4_method=wb97m d4_energy_eV=-0.006831592719924234 source_geometry=/mnt/ceph/users/cwoodson/dft_calc/diatomics/dimer_jobs/NaCl/refinement_41/point_030_distance_2.450000/geometry.in energy=-0.006831592719924234 free_energy=-0.006831592719924234 pbc="F F F"
Na       0.00000000       0.00000000      -1.22500000      -0.00000000      -0.00000000      -0.00017685
Cl       0.00000000       0.00000000       1.22500000      -0.00000000      -0.00000000       0.00017685
