2
Properties=species:S:1:pos:R:3:forces:R:3 calculation_type=dimer_refinement calculation_label=NaCl/refinement_100/point_071_distance_2.56 d4_functional=wB97M d4_method=wb97m d4_energy_eV=-0.0068771891076976534 source_geometry=/mnt/ceph/users/cwoodson/dft_calc/diatomics/dimer_jobs/NaCl/refinement_100/point_071_distance_2.56/geometry.in energy=-0.0068771891076976534 free_energy=-0.0068771891076976534 pbc="F F F"
Na       0.00000000       0.00000000      -1.28000000      -0.00000000      -0.00000000      -0.00073022
Cl       0.00000000       0.00000000       1.28000000      -0.00000000      -0.00000000       0.00073022
