2
Properties=species:S:1:pos:R:3:forces:R:3 calculation_type=dimer_refinement calculation_label=NaCl/refinement_41/point_004_distance_2.190000 d4_functional=wB97M d4_method=wb97m d4_energy_eV=-0.006841484625381239 source_geometry=/mnt/ceph/users/cwoodson/dft_calc/diatomics/dimer_jobs/NaCl/refinement_41/point_004_distance_2.190000/geometry.in energy=-0.006841484625381239 free_energy=-0.006841484625381239 pbc="F F F"
Na       0.00000000       0.00000000      -1.09500000      -0.00000000      -0.00000000       0.00013036
Cl       0.00000000       0.00000000       1.09500000      -0.00000000      -0.00000000      -0.00013036
