2
Properties=species:S:1:pos:R:3:forces:R:3 calculation_type=dimer_refinement calculation_label=NaCl/refinement_100/point_018_distance_2.03 d4_functional=wB97M d4_method=wb97m d4_energy_eV=-0.006863088291511159 source_geometry=/mnt/ceph/users/cwoodson/dft_calc/diatomics/dimer_jobs/NaCl/refinement_100/point_018_distance_2.03/geometry.in energy=-0.006863088291511159 free_energy=-0.006863088291511159 pbc="F F F"
Na       0.00000000       0.00000000      -1.01500000      -0.00000000      -0.00000000       0.00013438
Cl       0.00000000       0.00000000       1.01500000      -0.00000000      -0.00000000      -0.00013438
