2
Properties=species:S:1:pos:R:3:forces:R:3 calculation_type=dimer_refinement calculation_label=NaCl/refinement_41/point_036_distance_2.510000 d4_functional=wB97M d4_method=wb97m d4_energy_eV=-0.006848921971980171 source_geometry=/mnt/ceph/users/cwoodson/dft_calc/diatomics/dimer_jobs/NaCl/refinement_41/point_036_distance_2.510000/geometry.in energy=-0.006848921971980171 free_energy=-0.006848921971980171 pbc="F F F"
Na       0.00000000       0.00000000      -1.25500000      -0.00000000      -0.00000000      -0.00042011
Cl       0.00000000       0.00000000       1.25500000      -0.00000000      -0.00000000       0.00042011
