2
Properties=species:S:1:pos:R:3:forces:R:3 calculation_type=dimer_refinement calculation_label=NaCl/refinement_100/point_027_distance_2.12 d4_functional=wB97M d4_method=wb97m d4_energy_eV=-0.00685087300868661 source_geometry=/mnt/ceph/users/cwoodson/dft_calc/diatomics/dimer_jobs/NaCl/refinement_100/point_027_distance_2.12/geometry.in energy=-0.00685087300868661 free_energy=-0.00685087300868661 pbc="F F F"
Na       0.00000000       0.00000000      -1.06000000      -0.00000000      -0.00000000       0.00013617
Cl       0.00000000       0.00000000       1.06000000      -0.00000000      -0.00000000      -0.00013617
