2
Properties=species:S:1:pos:R:3:forces:R:3 calculation_type=dimer_refinement calculation_label=NaCl/refinement_100/point_040_distance_2.25 d4_functional=wB97M d4_method=wb97m d4_energy_eV=-0.006834093133762666 source_geometry=/mnt/ceph/users/cwoodson/dft_calc/diatomics/dimer_jobs/NaCl/refinement_100/point_040_distance_2.25/geometry.in energy=-0.006834093133762666 free_energy=-0.006834093133762666 pbc="F F F"
Na       0.00000000       0.00000000      -1.12500000      -0.00000000      -0.00000000       0.00011352
Cl       0.00000000       0.00000000       1.12500000      -0.00000000      -0.00000000      -0.00011352
