2
Properties=species:S:1:pos:R:3:forces:R:3 calculation_type=dimer_refinement calculation_label=NaCl/refinement_100/point_096_distance_2.81 d4_functional=wB97M d4_method=wb97m d4_energy_eV=-0.00754288062754594 source_geometry=/mnt/ceph/users/cwoodson/dft_calc/diatomics/dimer_jobs/NaCl/refinement_100/point_096_distance_2.81/geometry.in energy=-0.00754288062754594 free_energy=-0.00754288062754594 pbc="F F F"
Na       0.00000000       0.00000000      -1.40500000      -0.00000000      -0.00000000      -0.00623954
Cl       0.00000000       0.00000000       1.40500000      -0.00000000      -0.00000000       0.00623954
