2
Properties=species:S:1:pos:R:3:forces:R:3 calculation_type=dimer_refinement calculation_label=NaF/refinement_41/point_003_distance_1.760000 d4_functional=wB97M d4_method=wb97m d4_energy_eV=-0.005930926241120326 source_geometry=/mnt/ceph/users/cwoodson/dft_calc/diatomics/dimer_jobs/NaF/refinement_41/point_003_distance_1.760000/geometry.in energy=-0.005930926241120326 free_energy=-0.005930926241120326 pbc="F F F"
Na       0.00000000       0.00000000      -0.88000000      -0.00000000      -0.00000000       0.00049405
F        0.00000000       0.00000000       0.88000000      -0.00000000      -0.00000000      -0.00049405
