2
Properties=species:S:1:pos:R:3:forces:R:3 calculation_type=dimer_refinement calculation_label=NaF/refinement_100/point_049_distance_1.92 d4_functional=wB97M d4_method=wb97m d4_energy_eV=-0.0058597986753432686 source_geometry=/mnt/ceph/users/cwoodson/dft_calc/diatomics/dimer_jobs/NaF/refinement_100/point_049_distance_1.92/geometry.in energy=-0.0058597986753432686 free_energy=-0.0058597986753432686 pbc="F F F"
Na       0.00000000       0.00000000      -0.96000000      -0.00000000      -0.00000000       0.00037188
F        0.00000000       0.00000000       0.96000000      -0.00000000      -0.00000000      -0.00037188
