2
Properties=species:S:1:pos:R:3:forces:R:3 calculation_type=dimer_refinement calculation_label=NaF/refinement_100/point_074_distance_2.17 d4_functional=wB97M d4_method=wb97m d4_energy_eV=-0.005875613549079616 source_geometry=/mnt/ceph/users/cwoodson/dft_calc/diatomics/dimer_jobs/NaF/refinement_100/point_074_distance_2.17/geometry.in energy=-0.005875613549079616 free_energy=-0.005875613549079616 pbc="F F F"
Na       0.00000000       0.00000000      -1.08500000      -0.00000000      -0.00000000      -0.00094846
F        0.00000000       0.00000000       1.08500000      -0.00000000      -0.00000000       0.00094846
