8
Properties=species:S:1:pos:R:3:forces:R:3 calculation_type=dimer_refinement calculation_label=Si2H6/refinement_100/point_080_distance_2.62 d4_functional=wB97M d4_method=wb97m d4_energy_eV=-0.11781383624282171 source_geometry=/mnt/ceph/users/cwoodson/dft_calc/diatomics/dimer_jobs/Si2H6/refinement_100/point_080_distance_2.62/geometry.in energy=-0.11781383624282171 free_energy=-0.11781383624282171 pbc="F F F"
Si       0.00000000       0.00000000       1.31000000       0.00000000      -0.00000000       0.00956726
Si       0.00000000       0.00000000      -1.31000000      -0.00000000       0.00000000      -0.00956726
H        0.00000000       1.39328600       1.82833700      -0.00000000      -0.00121145      -0.00329616
H       -1.20662100      -0.69664300       1.82833700       0.00104915       0.00060573      -0.00329616
H        1.20662100      -0.69664300       1.82833700      -0.00104915       0.00060573      -0.00329616
H        0.00000000      -1.39328600      -1.82833700      -0.00000000       0.00121145       0.00329616
H       -1.20662100       0.69664300      -1.82833700       0.00104915      -0.00060573       0.00329616
H        1.20662100       0.69664300      -1.82833700      -0.00104915      -0.00060573       0.00329616
