8
Properties=species:S:1:pos:R:3:forces:R:3 calculation_type=dimer_refinement calculation_label=Si2H6/refinement_100/point_036_distance_2.18 d4_functional=wB97M d4_method=wb97m d4_energy_eV=-0.12726430845926567 source_geometry=/mnt/ceph/users/cwoodson/dft_calc/diatomics/dimer_jobs/Si2H6/refinement_100/point_036_distance_2.18/geometry.in energy=-0.12726430845926567 free_energy=-0.12726430845926567 pbc="F F F"
Si       0.00000000       0.00000000       1.09000000      -0.00000000      -0.00000000      -0.01230120
Si       0.00000000       0.00000000      -1.09000000       0.00000000       0.00000000       0.01230120
H        0.00000000       1.39328600       1.60833700       0.00000000      -0.00411585      -0.00466075
H       -1.20662100      -0.69664300       1.60833700       0.00356443       0.00205793      -0.00466075
H        1.20662100      -0.69664300       1.60833700      -0.00356443       0.00205793      -0.00466075
H        0.00000000      -1.39328600      -1.60833700      -0.00000000       0.00411585       0.00466075
H       -1.20662100       0.69664300      -1.60833700       0.00356443      -0.00205793       0.00466075
H        1.20662100       0.69664300      -1.60833700      -0.00356443      -0.00205793       0.00466075
