8
Properties=species:S:1:pos:R:3:forces:R:3 calculation_type=dimer_refinement calculation_label=Si2H6/refinement_41/point_017_distance_2.290000 d4_functional=wB97M d4_method=wb97m d4_energy_eV=-0.1247254795893708 source_geometry=/mnt/ceph/users/cwoodson/dft_calc/diatomics/dimer_jobs/Si2H6/refinement_41/point_017_distance_2.290000/geometry.in energy=-0.1247254795893708 free_energy=-0.1247254795893708 pbc="F F F"
Si       0.00000000      -0.00000688       1.14500000       0.00000001       0.00000001      -0.01208046
Si       0.00000000       0.00000688      -1.14500000      -0.00000001      -0.00000001       0.01208046
H       -0.00000200       1.38690912       1.65662100       0.00000000      -0.00413579      -0.00465450
H       -1.20110300      -0.69345888       1.65663300       0.00358173       0.00206792      -0.00465453
H        1.20110400      -0.69345588       1.65663300      -0.00358175       0.00206792      -0.00465453
H       -0.00000200      -1.38690912      -1.65662100       0.00000001       0.00413579       0.00465450
H       -1.20110300       0.69345888      -1.65663200       0.00358174      -0.00206793       0.00465453
H        1.20110500       0.69345588      -1.65663300      -0.00358174      -0.00206791       0.00465453
