8
Properties=species:S:1:pos:R:3:forces:R:3 calculation_type=dimer_refinement calculation_label=Si2H6/refinement_100/point_023_distance_2.05 d4_functional=wB97M d4_method=wb97m d4_energy_eV=-0.13066622729755933 source_geometry=/mnt/ceph/users/cwoodson/dft_calc/diatomics/dimer_jobs/Si2H6/refinement_100/point_023_distance_2.05/geometry.in energy=-0.13066622729755933 free_energy=-0.13066622729755933 pbc="F F F"
Si       0.00000000       0.00000000       1.02500000      -0.00000000      -0.00000000      -0.01174060
Si       0.00000000       0.00000000      -1.02500000      -0.00000000       0.00000000       0.01174060
H        0.00000000       1.39328600       1.54333700       0.00000000      -0.00414449      -0.00474533
H       -1.20662100      -0.69664300       1.54333700       0.00358923       0.00207224      -0.00474533
H        1.20662100      -0.69664300       1.54333700      -0.00358923       0.00207224      -0.00474533
H        0.00000000      -1.39328600      -1.54333700       0.00000000       0.00414449       0.00474533
H       -1.20662100       0.69664300      -1.54333700       0.00358923      -0.00207224       0.00474533
H        1.20662100       0.69664300      -1.54333700      -0.00358923      -0.00207224       0.00474533
