8
Properties=species:S:1:pos:R:3:forces:R:3 calculation_type=dimer_refinement calculation_label=Si2H6/refinement_100/point_015_distance_1.97 d4_functional=wB97M d4_method=wb97m d4_energy_eV=-0.13273090712667615 source_geometry=/mnt/ceph/users/cwoodson/dft_calc/diatomics/dimer_jobs/Si2H6/refinement_100/point_015_distance_1.97/geometry.in energy=-0.13273090712667615 free_energy=-0.13273090712667615 pbc="F F F"
Si       0.00000000       0.00000000       0.98500000       0.00000000      -0.00000000      -0.01123294
Si       0.00000000       0.00000000      -0.98500000      -0.00000000       0.00000000       0.01123294
H        0.00000000       1.39328600       1.50333700       0.00000000      -0.00415482      -0.00479886
H       -1.20662100      -0.69664300       1.50333700       0.00359818       0.00207741      -0.00479886
H        1.20662100      -0.69664300       1.50333700      -0.00359818       0.00207741      -0.00479886
H        0.00000000      -1.39328600      -1.50333700       0.00000000       0.00415482       0.00479886
H       -1.20662100       0.69664300      -1.50333700       0.00359818      -0.00207741       0.00479886
H        1.20662100       0.69664300      -1.50333700      -0.00359818      -0.00207741       0.00479886
