8
Properties=species:S:1:pos:R:3:forces:R:3 calculation_type=dimer_refinement calculation_label=Si2H6/refinement_100/point_079_distance_2.61 d4_functional=wB97M d4_method=wb97m d4_energy_eV=-0.11783188613574996 source_geometry=/mnt/ceph/users/cwoodson/dft_calc/diatomics/dimer_jobs/Si2H6/refinement_100/point_079_distance_2.61/geometry.in energy=-0.11783188613574996 free_energy=-0.11783188613574996 pbc="F F F"
Si       0.00000000       0.00000000       1.30500000       0.00000000      -0.00000000       0.00701184
Si       0.00000000       0.00000000      -1.30500000       0.00000000       0.00000000      -0.00701184
H        0.00000000       1.39328600       1.82333700       0.00000000      -0.00151935      -0.00341630
H       -1.20662100      -0.69664300       1.82333700       0.00131579       0.00075967      -0.00341630
H        1.20662100      -0.69664300       1.82333700      -0.00131579       0.00075967      -0.00341630
H        0.00000000      -1.39328600      -1.82333700       0.00000000       0.00151935       0.00341630
H       -1.20662100       0.69664300      -1.82333700       0.00131579      -0.00075967       0.00341630
H        1.20662100       0.69664300      -1.82333700      -0.00131579      -0.00075967       0.00341630
