8
Properties=species:S:1:pos:R:3:forces:R:3 calculation_type=dimer_refinement calculation_label=Si2H6/refinement_41/point_014_distance_2.260000 d4_functional=wB97M d4_method=wb97m d4_energy_eV=-0.12550926807899526 source_geometry=/mnt/ceph/users/cwoodson/dft_calc/diatomics/dimer_jobs/Si2H6/refinement_41/point_014_distance_2.260000/geometry.in energy=-0.12550926807899526 free_energy=-0.12550926807899526 pbc="F F F"
Si       0.00000000      -0.00000678       1.13000000       0.00000001       0.00000001      -0.01215772
Si       0.00000000       0.00000678      -1.13000000      -0.00000001      -0.00000001       0.01215772
H       -0.00000200       1.38690922       1.64162100       0.00000000      -0.00415715      -0.00467968
H       -1.20110300      -0.69345878       1.64163300       0.00360023       0.00207860      -0.00467971
H        1.20110400      -0.69345578       1.64163300      -0.00360024       0.00207860      -0.00467971
H       -0.00000200      -1.38690922      -1.64162100       0.00000001       0.00415715       0.00467968
H       -1.20110300       0.69345878      -1.64163200       0.00360024      -0.00207861       0.00467971
H        1.20110500       0.69345578      -1.64163300      -0.00360024      -0.00207859       0.00467971
