8
Properties=species:S:1:pos:R:3:forces:R:3 calculation_type=dimer_refinement calculation_label=Si2H6/refinement_100/point_040_distance_2.22 d4_functional=wB97M d4_method=wb97m d4_energy_eV=-0.12621325003629286 source_geometry=/mnt/ceph/users/cwoodson/dft_calc/diatomics/dimer_jobs/Si2H6/refinement_100/point_040_distance_2.22/geometry.in energy=-0.12621325003629286 free_energy=-0.12621325003629286 pbc="F F F"
Si       0.00000000       0.00000000       1.11000000       0.00000000      -0.00000000      -0.01235849
Si       0.00000000       0.00000000      -1.11000000      -0.00000000       0.00000000       0.01235849
H        0.00000000       1.39328600       1.62833700       0.00000000      -0.00409915      -0.00463261
H       -1.20662100      -0.69664300       1.62833700       0.00354997       0.00204958      -0.00463261
H        1.20662100      -0.69664300       1.62833700      -0.00354997       0.00204958      -0.00463261
H        0.00000000      -1.39328600      -1.62833700      -0.00000000       0.00409915       0.00463261
H       -1.20662100       0.69664300      -1.62833700       0.00354997      -0.00204958       0.00463261
H        1.20662100       0.69664300      -1.62833700      -0.00354997      -0.00204958       0.00463261
