8
Properties=species:S:1:pos:R:3:forces:R:3 calculation_type=dimer_refinement calculation_label=Si2H6/refinement_100/point_089_distance_2.71 d4_functional=wB97M d4_method=wb97m d4_energy_eV=-0.11937699656208142 source_geometry=/mnt/ceph/users/cwoodson/dft_calc/diatomics/dimer_jobs/Si2H6/refinement_100/point_089_distance_2.71/geometry.in energy=-0.11937699656208142 free_energy=-0.11937699656208142 pbc="F F F"
Si       0.00000000       0.00000000       1.35500000       0.00000000      -0.00000000       0.04302670
Si       0.00000000       0.00000000      -1.35500000       0.00000000       0.00000000      -0.04302670
H        0.00000000       1.39328600       1.87333700       0.00000000       0.00262777      -0.00185208
H       -1.20662100      -0.69664300       1.87333700      -0.00227571      -0.00131388      -0.00185208
H        1.20662100      -0.69664300       1.87333700       0.00227571      -0.00131388      -0.00185208
H        0.00000000      -1.39328600      -1.87333700      -0.00000000      -0.00262777       0.00185208
H       -1.20662100       0.69664300      -1.87333700      -0.00227571       0.00131388       0.00185208
H        1.20662100       0.69664300      -1.87333700       0.00227571       0.00131388       0.00185208
