8
Properties=species:S:1:pos:R:3:forces:R:3 calculation_type=dimer_refinement calculation_label=Si2H6/refinement_41/point_003_distance_2.150000 d4_functional=wB97M d4_method=wb97m d4_energy_eV=-0.1284017651666395 source_geometry=/mnt/ceph/users/cwoodson/dft_calc/diatomics/dimer_jobs/Si2H6/refinement_41/point_003_distance_2.150000/geometry.in energy=-0.1284017651666395 free_energy=-0.1284017651666395 pbc="F F F"
Si       0.00000000      -0.00000645       1.07500000       0.00000001       0.00000002      -0.01201836
Si       0.00000000       0.00000645      -1.07500000      -0.00000001      -0.00000002       0.01201836
H       -0.00000200       1.38690955       1.58662100       0.00000000      -0.00420244      -0.00475864
H       -1.20110300      -0.69345845       1.58663300       0.00363946       0.00210125      -0.00475867
H        1.20110400      -0.69345545       1.58663300      -0.00363947       0.00210124      -0.00475867
H       -0.00000200      -1.38690955      -1.58662100       0.00000001       0.00420244       0.00475864
H       -1.20110300       0.69345845      -1.58663200       0.00363946      -0.00210125       0.00475867
H        1.20110500       0.69345545      -1.58663300      -0.00363946      -0.00210124       0.00475867
