8
Properties=species:S:1:pos:R:3:forces:R:3 calculation_type=dimer_refinement calculation_label=Si2H6/refinement_41/point_039_distance_2.510000 d4_functional=wB97M d4_method=wb97m d4_energy_eV=-0.11942265426361451 source_geometry=/mnt/ceph/users/cwoodson/dft_calc/diatomics/dimer_jobs/Si2H6/refinement_41/point_039_distance_2.510000/geometry.in energy=-0.11942265426361451 free_energy=-0.11942265426361451 pbc="F F F"
Si      -0.00000000      -0.00000754       1.25500000       0.00000001      -0.00000005      -0.00707359
Si       0.00000000       0.00000754      -1.25500000      -0.00000001       0.00000004       0.00707359
H       -0.00000200       1.38690846       1.76662100       0.00000000      -0.00348745      -0.00426768
H       -1.20110300      -0.69345954       1.76663300       0.00302025       0.00174376      -0.00426768
H        1.20110400      -0.69345654       1.76663300      -0.00302026       0.00174376      -0.00426769
H       -0.00000200      -1.38690846      -1.76662100       0.00000000       0.00348745       0.00426768
H       -1.20110300       0.69345954      -1.76663200       0.00302026      -0.00174376       0.00426768
H        1.20110500       0.69345654      -1.76663300      -0.00302025      -0.00174375       0.00426768
