8
Properties=species:S:1:pos:R:3:forces:R:3 calculation_type=dimer_refinement calculation_label=Si2H6/refinement_100/point_072_distance_2.54 d4_functional=wB97M d4_method=wb97m d4_energy_eV=-0.11858385258726212 source_geometry=/mnt/ceph/users/cwoodson/dft_calc/diatomics/dimer_jobs/Si2H6/refinement_100/point_072_distance_2.54/geometry.in energy=-0.11858385258726212 free_energy=-0.11858385258726212 pbc="F F F"
Si       0.00000000       0.00000000       1.27000000      -0.00000000      -0.00000000      -0.00442190
Si       0.00000000       0.00000000      -1.27000000      -0.00000000       0.00000000       0.00442190
H        0.00000000       1.39328600       1.78833700       0.00000000      -0.00295041      -0.00399721
H       -1.20662100      -0.69664300       1.78833700       0.00255513       0.00147520      -0.00399721
H        1.20662100      -0.69664300       1.78833700      -0.00255513       0.00147520      -0.00399721
H        0.00000000      -1.39328600      -1.78833700      -0.00000000       0.00295041       0.00399721
H       -1.20662100       0.69664300      -1.78833700       0.00255513      -0.00147520       0.00399721
H        1.20662100       0.69664300      -1.78833700      -0.00255513      -0.00147520       0.00399721
