8
Properties=species:S:1:pos:R:3:forces:R:3 calculation_type=dimer_refinement calculation_label=Si2H6/refinement_100/point_070_distance_2.52 d4_functional=wB97M d4_method=wb97m d4_energy_eV=-0.11893403698917553 source_geometry=/mnt/ceph/users/cwoodson/dft_calc/diatomics/dimer_jobs/Si2H6/refinement_100/point_070_distance_2.52/geometry.in energy=-0.11893403698917553 free_energy=-0.11893403698917553 pbc="F F F"
Si       0.00000000       0.00000000       1.26000000      -0.00000000      -0.00000000      -0.00621679
Si       0.00000000       0.00000000      -1.26000000       0.00000000       0.00000000       0.00621679
H        0.00000000       1.39328600       1.77833700       0.00000000      -0.00318699      -0.00410036
H       -1.20662100      -0.69664300       1.77833700       0.00276001       0.00159349      -0.00410036
H        1.20662100      -0.69664300       1.77833700      -0.00276001       0.00159349      -0.00410036
H        0.00000000      -1.39328600      -1.77833700      -0.00000000       0.00318699       0.00410036
H       -1.20662100       0.69664300      -1.77833700       0.00276001      -0.00159349       0.00410036
H        1.20662100       0.69664300      -1.77833700      -0.00276001      -0.00159349       0.00410036
