8
Properties=species:S:1:pos:R:3:forces:R:3 calculation_type=dimer_refinement calculation_label=Si2H6/refinement_41/point_016_distance_2.280000 d4_functional=wB97M d4_method=wb97m d4_energy_eV=-0.12498622099466145 source_geometry=/mnt/ceph/users/cwoodson/dft_calc/diatomics/dimer_jobs/Si2H6/refinement_41/point_016_distance_2.280000/geometry.in energy=-0.12498622099466145 free_energy=-0.12498622099466145 pbc="F F F"
Si       0.00000000      -0.00000685       1.14000000       0.00000001       0.00000001      -0.01211330
Si       0.00000000       0.00000685      -1.14000000      -0.00000001      -0.00000001       0.01211331
H       -0.00000200       1.38690915       1.65162100       0.00000000      -0.00414354      -0.00466317
H       -1.20110300      -0.69345885       1.65163300       0.00358845       0.00207180      -0.00466319
H        1.20110400      -0.69345585       1.65163300      -0.00358846       0.00207179      -0.00466320
H       -0.00000200      -1.38690915      -1.65162100       0.00000001       0.00414354       0.00466317
H       -1.20110300       0.69345885      -1.65163200       0.00358845      -0.00207180       0.00466320
H        1.20110500       0.69345585      -1.65163300      -0.00358845      -0.00207179       0.00466319
