8
Properties=species:S:1:pos:R:3:forces:R:3 calculation_type=dimer_refinement calculation_label=Si2H6/refinement_41/point_028_distance_2.400000 d4_functional=wB97M d4_method=wb97m d4_energy_eV=-0.1219231837438427 source_geometry=/mnt/ceph/users/cwoodson/dft_calc/diatomics/dimer_jobs/Si2H6/refinement_41/point_028_distance_2.400000/geometry.in energy=-0.1219231837438427 free_energy=-0.1219231837438427 pbc="F F F"
Si      -0.00000000      -0.00000721       1.20000000       0.00000001      -0.00000001      -0.01103753
Si       0.00000000       0.00000721      -1.20000000      -0.00000001       0.00000000       0.01103753
H       -0.00000200       1.38690879       1.71162100       0.00000000      -0.00398021      -0.00452881
H       -1.20110300      -0.69345921       1.71163300       0.00344700       0.00199014      -0.00452883
H        1.20110400      -0.69345621       1.71163300      -0.00344701       0.00199013      -0.00452883
H       -0.00000200      -1.38690879      -1.71162100       0.00000001       0.00398021       0.00452881
H       -1.20110300       0.69345921      -1.71163200       0.00344700      -0.00199014       0.00452883
H        1.20110500       0.69345621      -1.71163300      -0.00344700      -0.00199013       0.00452883
