8
Properties=species:S:1:pos:R:3:forces:R:3 calculation_type=dimer_refinement calculation_label=Si2H6/refinement_100/point_082_distance_2.64 d4_functional=wB97M d4_method=wb97m d4_energy_eV=-0.11787312610094158 source_geometry=/mnt/ceph/users/cwoodson/dft_calc/diatomics/dimer_jobs/Si2H6/refinement_100/point_082_distance_2.64/geometry.in energy=-0.11787312610094158 free_energy=-0.11787312610094158 pbc="F F F"
Si       0.00000000       0.00000000       1.32000000       0.00000000      -0.00000000       0.01553509
Si       0.00000000       0.00000000      -1.32000000      -0.00000000       0.00000000      -0.01553509
H        0.00000000       1.39328600       1.83833700      -0.00000000      -0.00050361      -0.00302340
H       -1.20662100      -0.69664300       1.83833700       0.00043614       0.00025181      -0.00302340
H        1.20662100      -0.69664300       1.83833700      -0.00043614       0.00025181      -0.00302340
H        0.00000000      -1.39328600      -1.83833700       0.00000000       0.00050361       0.00302340
H       -1.20662100       0.69664300      -1.83833700       0.00043614      -0.00025181       0.00302340
H        1.20662100       0.69664300      -1.83833700      -0.00043614      -0.00025181       0.00302340
