8
Properties=species:S:1:pos:R:3:forces:R:3 calculation_type=dimer_refinement calculation_label=Si2H6/refinement_41/point_027_distance_2.390000 d4_functional=wB97M d4_method=wb97m d4_energy_eV=-0.1221704907316194 source_geometry=/mnt/ceph/users/cwoodson/dft_calc/diatomics/dimer_jobs/Si2H6/refinement_41/point_027_distance_2.390000/geometry.in energy=-0.1221704907316194 free_energy=-0.1221704907316194 pbc="F F F"
Si      -0.00000000      -0.00000718       1.19500000       0.00000001      -0.00000001      -0.01120299
Si       0.00000000       0.00000718      -1.19500000      -0.00000001       0.00000000       0.01120299
H       -0.00000200       1.38690882       1.70662100       0.00000000      -0.00400221      -0.00454356
H       -1.20110300      -0.69345918       1.70663300       0.00346604       0.00200113      -0.00454358
H        1.20110400      -0.69345618       1.70663300      -0.00346606       0.00200113      -0.00454358
H       -0.00000200      -1.38690882      -1.70662100       0.00000001       0.00400221       0.00454356
H       -1.20110300       0.69345918      -1.70663200       0.00346605      -0.00200113       0.00454358
H        1.20110500       0.69345618      -1.70663300      -0.00346605      -0.00200112       0.00454358
