8
Properties=species:S:1:pos:R:3:forces:R:3 calculation_type=dimer_refinement calculation_label=Si2H6/refinement_100/point_050_distance_2.32 d4_functional=wB97M d4_method=wb97m d4_energy_eV=-0.12360735476919724 source_geometry=/mnt/ceph/users/cwoodson/dft_calc/diatomics/dimer_jobs/Si2H6/refinement_100/point_050_distance_2.32/geometry.in energy=-0.12360735476919724 free_energy=-0.12360735476919724 pbc="F F F"
Si       0.00000000       0.00000000       1.16000000      -0.00000000      -0.00000000      -0.01208917
Si       0.00000000       0.00000000      -1.16000000       0.00000000       0.00000000       0.01208917
H        0.00000000       1.39328600       1.67833700       0.00000000      -0.00401861      -0.00454616
H       -1.20662100      -0.69664300       1.67833700       0.00348022       0.00200931      -0.00454616
H        1.20662100      -0.69664300       1.67833700      -0.00348022       0.00200931      -0.00454616
H        0.00000000      -1.39328600      -1.67833700      -0.00000000       0.00401861       0.00454616
H       -1.20662100       0.69664300      -1.67833700       0.00348022      -0.00200931       0.00454616
H        1.20662100       0.69664300      -1.67833700      -0.00348022      -0.00200931       0.00454616
