8
Properties=species:S:1:pos:R:3:forces:R:3 calculation_type=dimer_refinement calculation_label=Si2H6/refinement_100/point_067_distance_2.49 d4_functional=wB97M d4_method=wb97m d4_energy_eV=-0.11952662009409117 source_geometry=/mnt/ceph/users/cwoodson/dft_calc/diatomics/dimer_jobs/Si2H6/refinement_100/point_067_distance_2.49/geometry.in energy=-0.11952662009409117 free_energy=-0.11952662009409117 pbc="F F F"
Si       0.00000000       0.00000000       1.24500000      -0.00000000      -0.00000000      -0.00818183
Si       0.00000000       0.00000000      -1.24500000       0.00000000       0.00000000       0.00818183
H        0.00000000       1.39328600       1.76333700       0.00000000      -0.00345190      -0.00422156
H       -1.20662100      -0.69664300       1.76333700       0.00298943       0.00172595      -0.00422156
H        1.20662100      -0.69664300       1.76333700      -0.00298943       0.00172595      -0.00422156
H        0.00000000      -1.39328600      -1.76333700       0.00000000       0.00345190       0.00422156
H       -1.20662100       0.69664300      -1.76333700       0.00298943      -0.00172595       0.00422156
H        1.20662100       0.69664300      -1.76333700      -0.00298943      -0.00172595       0.00422156
