8
Properties=species:S:1:pos:R:3:forces:R:3 calculation_type=dimer_refinement calculation_label=Si2H6/refinement_100/point_066_distance_2.48 d4_functional=wB97M d4_method=wb97m d4_energy_eV=-0.11973818175083993 source_geometry=/mnt/ceph/users/cwoodson/dft_calc/diatomics/dimer_jobs/Si2H6/refinement_100/point_066_distance_2.48/geometry.in energy=-0.11973818175083993 free_energy=-0.11973818175083993 pbc="F F F"
Si       0.00000000       0.00000000       1.24000000      -0.00000000      -0.00000000      -0.00868914
Si       0.00000000       0.00000000      -1.24000000       0.00000000       0.00000000       0.00868914
H        0.00000000       1.39328600       1.75833700      -0.00000000      -0.00352150      -0.00425490
H       -1.20662100      -0.69664300       1.75833700       0.00304971       0.00176075      -0.00425490
H        1.20662100      -0.69664300       1.75833700      -0.00304971       0.00176075      -0.00425490
H        0.00000000      -1.39328600      -1.75833700      -0.00000000       0.00352150       0.00425490
H       -1.20662100       0.69664300      -1.75833700       0.00304971      -0.00176075       0.00425490
H        1.20662100       0.69664300      -1.75833700      -0.00304971      -0.00176075       0.00425490
