2
Properties=species:S:1:pos:R:3:forces:R:3 calculation_type=dimer_refinement calculation_label=SiC/refinement_100/point_029_distance_1.41 d4_functional=wB97M d4_method=wb97m d4_energy_eV=-0.02063567606359248 source_geometry=/mnt/ceph/users/cwoodson/dft_calc/diatomics/dimer_jobs/SiC/refinement_100/point_029_distance_1.41/geometry.in energy=-0.02063567606359248 free_energy=-0.02063567606359248 pbc="F F F"
Si       0.00000000       0.00000000      -0.70500000      -0.00000000      -0.00000000       0.00089792
C        0.00000000       0.00000000       0.70500000      -0.00000000      -0.00000000      -0.00089792
