2
Properties=species:S:1:pos:R:3:forces:R:3 calculation_type=dimer_refinement calculation_label=SiC/refinement_100/point_091_distance_2.03 d4_functional=wB97M d4_method=wb97m d4_energy_eV=-0.020053782420773564 source_geometry=/mnt/ceph/users/cwoodson/dft_calc/diatomics/dimer_jobs/SiC/refinement_100/point_091_distance_2.03/geometry.in energy=-0.020053782420773564 free_energy=-0.020053782420773564 pbc="F F F"
Si       0.00000000       0.00000000      -1.01500000      -0.00000000      -0.00000000       0.00135470
C        0.00000000       0.00000000       1.01500000      -0.00000000      -0.00000000      -0.00135470
