2
Properties=species:S:1:pos:R:3:forces:R:3 calculation_type=dimer_refinement calculation_label=SiC/refinement_100/point_024_distance_1.36 d4_functional=wB97M d4_method=wb97m d4_energy_eV=-0.020681296861811728 source_geometry=/mnt/ceph/users/cwoodson/dft_calc/diatomics/dimer_jobs/SiC/refinement_100/point_024_distance_1.36/geometry.in energy=-0.020681296861811728 free_energy=-0.020681296861811728 pbc="F F F"
Si       0.00000000       0.00000000      -0.68000000      -0.00000000      -0.00000000       0.00092764
C        0.00000000       0.00000000       0.68000000      -0.00000000      -0.00000000      -0.00092764
