8
Properties=species:S:1:pos:R:3:forces:R:3 calculation_type=dimer_refinement calculation_label=AlH3PH3/refinement_41/point_034_distance_2.690000 d4_functional=B97M d4_method=b97m d4_energy_eV=-0.173736707275834 source_geometry=/mnt/ceph/users/cwoodson/dft_calc/diatomics/dimer_jobs/AlH3PH3/refinement_41/point_034_distance_2.690000/geometry.in energy=-0.173736707275834 free_energy=-0.173736707275834 pbc="F F F"
Al      -0.00000105       0.00000368       1.34500000      -0.00000000       0.00000024      -0.02234902
P        0.00000105      -0.00000368      -1.34500000      -0.00000002       0.00000024       0.03230407
H        0.00000295       1.57524868       1.52299000      -0.00000002      -0.00817879      -0.00871352
H       -1.36418905      -0.78760232       1.52317600       0.00708255       0.00408912      -0.00871329
H        1.36418195      -0.78761032       1.52318100      -0.00708251       0.00408915      -0.00871329
H        0.00000505      -1.22538068      -2.02730200      -0.00000002       0.00286823       0.00539472
H       -1.06124395       0.61274832      -2.02718100       0.00248408      -0.00143409       0.00539517
H        1.06123505       0.61276032      -2.02718700      -0.00248406      -0.00143411       0.00539515
