8
Properties=species:S:1:pos:R:3:forces:R:3 calculation_type=dimer_refinement calculation_label=AlH3PH3/refinement_41/point_030_distance_2.650000 d4_functional=B97M d4_method=b97m d4_energy_eV=-0.1756757460271773 source_geometry=/mnt/ceph/users/cwoodson/dft_calc/diatomics/dimer_jobs/AlH3PH3/refinement_41/point_030_distance_2.650000/geometry.in energy=-0.1756757460271773 free_energy=-0.1756757460271773 pbc="F F F"
Al      -0.00000104       0.00000363       1.32500000      -0.00000000       0.00000024      -0.02193154
P        0.00000104      -0.00000363      -1.32500000      -0.00000002       0.00000020       0.03170259
H        0.00000296       1.57524863       1.50299000      -0.00000002      -0.00828129      -0.00884084
H       -1.36418904      -0.78760237       1.50317600       0.00717134       0.00414039      -0.00884067
H        1.36418196      -0.78761037       1.50318100      -0.00717130       0.00414042      -0.00884067
H        0.00000504      -1.22538063      -2.00730200      -0.00000002       0.00295903       0.00558343
H       -1.06124396       0.61274837      -2.00718100       0.00256272      -0.00147949       0.00558386
H        1.06123504       0.61276037      -2.00718700      -0.00256270      -0.00147951       0.00558384
