8
Properties=species:S:1:pos:R:3:forces:R:3 calculation_type=dimer_refinement calculation_label=AlH3PH3/refinement_41/point_008_distance_2.430000 d4_functional=B97M d4_method=b97m d4_energy_eV=-0.1862475134059295 source_geometry=/mnt/ceph/users/cwoodson/dft_calc/diatomics/dimer_jobs/AlH3PH3/refinement_41/point_008_distance_2.430000/geometry.in energy=-0.1862475134059295 free_energy=-0.1862475134059295 pbc="F F F"
Al      -0.00000095       0.00000332       1.21500000      -0.00000000       0.00000022      -0.01974970
P        0.00000095      -0.00000332      -1.21500000      -0.00000001      -0.00000007       0.02817838
H        0.00000305       1.57524832       1.39299000      -0.00000002      -0.00871767      -0.00922933
H       -1.36418895      -0.78760268       1.39317600       0.00754942       0.00435869      -0.00922954
H        1.36418205      -0.78761068       1.39318100      -0.00754938       0.00435873      -0.00922954
H        0.00000495      -1.22538032      -1.89730200      -0.00000002       0.00335263       0.00641970
H       -1.06124405       0.61274868      -1.89718100       0.00290356      -0.00167625       0.00642002
H        1.06123495       0.61276068      -1.89718700      -0.00290355      -0.00167628       0.00642000
