8
Properties=species:S:1:pos:R:3:forces:R:3 calculation_type=dimer_refinement calculation_label=AlH3PH3/refinement_41/point_018_distance_2.530000 d4_functional=B97M d4_method=b97m d4_energy_eV=-0.18147048774088115 source_geometry=/mnt/ceph/users/cwoodson/dft_calc/diatomics/dimer_jobs/AlH3PH3/refinement_41/point_018_distance_2.530000/geometry.in energy=-0.18147048774088115 free_energy=-0.18147048774088115 pbc="F F F"
Al      -0.00000099       0.00000346       1.26500000      -0.00000000       0.00000023      -0.02069873
P        0.00000099      -0.00000346      -1.26500000      -0.00000002       0.00000006       0.02980090
H        0.00000301       1.57524846       1.44299000      -0.00000002      -0.00854875      -0.00911996
H       -1.36418899      -0.78760254       1.44317600       0.00740306       0.00427418      -0.00912000
H        1.36418201      -0.78761054       1.44318100      -0.00740301       0.00427421      -0.00912000
H        0.00000499      -1.22538046      -1.94730200      -0.00000002       0.00319672       0.00608568
H       -1.06124401       0.61274854      -1.94718100       0.00276856      -0.00159832       0.00608606
H        1.06123499       0.61276054      -1.94718700      -0.00276854      -0.00159834       0.00608604
