8
Properties=species:S:1:pos:R:3:forces:R:3 calculation_type=dimer_refinement calculation_label=AlH3PH3/refinement_41/point_023_distance_2.580000 d4_functional=B97M d4_method=b97m d4_energy_eV=-0.17906196065325952 source_geometry=/mnt/ceph/users/cwoodson/dft_calc/diatomics/dimer_jobs/AlH3PH3/refinement_41/point_023_distance_2.580000/geometry.in energy=-0.17906196065325952 free_energy=-0.17906196065325952 pbc="F F F"
Al      -0.00000101       0.00000353       1.29000000      -0.00000000       0.00000024      -0.02120266
P        0.00000101      -0.00000353      -1.29000000      -0.00000002       0.00000012       0.03060380
H        0.00000299       1.57524853       1.46799000      -0.00000002      -0.00844523      -0.00902297
H       -1.36418901      -0.78760247       1.46817600       0.00731336       0.00422239      -0.00902293
H        1.36418199      -0.78761047       1.46818100      -0.00731332       0.00422242      -0.00902293
H        0.00000501      -1.22538053      -1.97230200      -0.00000002       0.00310428       0.00588897
H       -1.06124399       0.61274847      -1.97218100       0.00268850      -0.00155210       0.00588937
H        1.06123501       0.61276047      -1.97218700      -0.00268848      -0.00155212       0.00588935
