2
Properties=species:S:1:pos:R:3:forces:R:3 calculation_type=dimer_refinement calculation_label=AlP/refinement_100/point_100_distance_2.53 d4_functional=B97M d4_method=b97m d4_energy_eV=-0.06612533068558528 source_geometry=/mnt/ceph/users/cwoodson/dft_calc/diatomics/dimer_jobs/AlP/refinement_100/point_100_distance_2.53/geometry.in energy=-0.06612533068558528 free_energy=-0.06612533068558528 pbc="F F F"
Al       0.00000000       0.00000000      -1.26500000      -0.00000000      -0.00000000       0.00602231
P        0.00000000       0.00000000       1.26500000      -0.00000000      -0.00000000      -0.00602231
