2
Properties=species:S:1:pos:R:3:forces:R:3 calculation_type=dimer_refinement calculation_label=AlP/refinement_100/point_038_distance_1.91 d4_functional=B97M d4_method=b97m d4_energy_eV=-0.06838270812667209 source_geometry=/mnt/ceph/users/cwoodson/dft_calc/diatomics/dimer_jobs/AlP/refinement_100/point_038_distance_1.91/geometry.in energy=-0.06838270812667209 free_energy=-0.06838270812667209 pbc="F F F"
Al       0.00000000       0.00000000      -0.95500000      -0.00000000      -0.00000000       0.00175267
P        0.00000000       0.00000000       0.95500000      -0.00000000      -0.00000000      -0.00175267
