2
Properties=species:S:1:pos:R:3:forces:R:3 calculation_type=dimer_refinement calculation_label=AlP/refinement_100/point_072_distance_2.25 d4_functional=B97M d4_method=b97m d4_energy_eV=-0.06748178265199709 source_geometry=/mnt/ceph/users/cwoodson/dft_calc/diatomics/dimer_jobs/AlP/refinement_100/point_072_distance_2.25/geometry.in energy=-0.06748178265199709 free_energy=-0.06748178265199709 pbc="F F F"
Al       0.00000000       0.00000000      -1.12500000      -0.00000000      -0.00000000       0.00373537
P        0.00000000       0.00000000       1.12500000      -0.00000000      -0.00000000      -0.00373537
