2
Properties=species:S:1:pos:R:3:forces:R:3 calculation_type=dimer_refinement calculation_label=AlP/refinement_100/point_094_distance_2.47 d4_functional=B97M d4_method=b97m d4_energy_eV=-0.06647095544535798 source_geometry=/mnt/ceph/users/cwoodson/dft_calc/diatomics/dimer_jobs/AlP/refinement_100/point_094_distance_2.47/geometry.in energy=-0.06647095544535798 free_energy=-0.06647095544535798 pbc="F F F"
Al       0.00000000       0.00000000      -1.23500000      -0.00000000      -0.00000000       0.00549934
P        0.00000000       0.00000000       1.23500000      -0.00000000      -0.00000000      -0.00549934
