2
Properties=species:S:1:pos:R:3:forces:R:3 calculation_type=dimer_refinement calculation_label=AlP/refinement_41/point_017_distance_2.000000 d4_functional=B97M d4_method=b97m d4_energy_eV=-0.06820701935573016 source_geometry=/mnt/ceph/users/cwoodson/dft_calc/diatomics/dimer_jobs/AlP/refinement_41/point_017_distance_2.000000/geometry.in energy=-0.06820701935573016 free_energy=-0.06820701935573016 pbc="F F F"
Al       0.00000000       0.00000000      -1.00000000      -0.00000000      -0.00000000       0.00216516
P        0.00000000       0.00000000       1.00000000      -0.00000000      -0.00000000      -0.00216516
