2
Properties=species:S:1:pos:R:3:forces:R:3 calculation_type=dimer_refinement calculation_label=AlP/refinement_100/point_013_distance_1.66 d4_functional=B97M d4_method=b97m d4_energy_eV=-0.06871522148388655 source_geometry=/mnt/ceph/users/cwoodson/dft_calc/diatomics/dimer_jobs/AlP/refinement_100/point_013_distance_1.66/geometry.in energy=-0.06871522148388655 free_energy=-0.06871522148388655 pbc="F F F"
Al       0.00000000       0.00000000      -0.83000000      -0.00000000      -0.00000000       0.00099383
P        0.00000000       0.00000000       0.83000000      -0.00000000      -0.00000000      -0.00099383
