2
Properties=species:S:1:pos:R:3:forces:R:3 calculation_type=dimer_refinement calculation_label=AlP/refinement_41/point_001_distance_1.840000 d4_functional=B97M d4_method=b97m d4_energy_eV=-0.06849581317574986 source_geometry=/mnt/ceph/users/cwoodson/dft_calc/diatomics/dimer_jobs/AlP/refinement_41/point_001_distance_1.840000/geometry.in energy=-0.06849581317574986 free_energy=-0.06849581317574986 pbc="F F F"
Al       0.00000000       0.00000000      -0.92000000      -0.00000000      -0.00000000       0.00148655
P        0.00000000       0.00000000       0.92000000      -0.00000000      -0.00000000      -0.00148655
