2
Properties=species:S:1:pos:R:3:forces:R:3 calculation_type=dimer_refinement calculation_label=AlP/refinement_100/point_064_distance_2.17 d4_functional=B97M d4_method=b97m d4_energy_eV=-0.0677576544642118 source_geometry=/mnt/ceph/users/cwoodson/dft_calc/diatomics/dimer_jobs/AlP/refinement_100/point_064_distance_2.17/geometry.in energy=-0.0677576544642118 free_energy=-0.0677576544642118 pbc="F F F"
Al       0.00000000       0.00000000      -1.08500000      -0.00000000      -0.00000000       0.00316989
P        0.00000000       0.00000000       1.08500000      -0.00000000      -0.00000000      -0.00316989
