8
Properties=species:S:1:pos:R:3:forces:R:3 calculation_type=dimer_refinement calculation_label=BH3NH3/refinement_41/point_033_distance_1.770000 d4_functional=B97M d4_method=b97m d4_energy_eV=-0.11898925416795962 source_geometry=/mnt/ceph/users/cwoodson/dft_calc/diatomics/dimer_jobs/BH3NH3/refinement_41/point_033_distance_1.770000/geometry.in energy=-0.11898925416795962 free_energy=-0.11898925416795962 pbc="F F F"
B       -0.00000000      -0.00000161       0.88500000      -0.00000000       0.00000007      -0.00503127
N        0.00000000       0.00000161      -0.88500000      -0.00000000       0.00000003       0.00653639
H        0.00000100       1.16489139       1.19681100       0.00000000       0.00028344      -0.00343082
H       -1.00882800      -0.58244861       1.19681100      -0.00024550      -0.00014174      -0.00343082
H        1.00882700      -0.58245061       1.19681100       0.00024551      -0.00014174      -0.00343082
H        0.00000100      -0.94642439      -1.24488200      -0.00000000       0.00007164       0.00292911
H       -0.81962900       0.47320861      -1.24488400       0.00006206      -0.00003584       0.00292911
H        0.81962800       0.47321061      -1.24488400      -0.00006206      -0.00003584       0.00292911
