8
Properties=species:S:1:pos:R:3:forces:R:3 calculation_type=dimer_refinement calculation_label=BH3NH3/refinement_41/point_025_distance_1.690000 d4_functional=B97M d4_method=b97m d4_energy_eV=-0.12005883963335398 source_geometry=/mnt/ceph/users/cwoodson/dft_calc/diatomics/dimer_jobs/BH3NH3/refinement_41/point_025_distance_1.690000/geometry.in energy=-0.12005883963335398 free_energy=-0.12005883963335398 pbc="F F F"
B       -0.00000000      -0.00000153       0.84500000      -0.00000001       0.00000011      -0.00555927
N        0.00000000       0.00000153      -0.84500000       0.00000000       0.00000003       0.00457120
H        0.00000100       1.16489147       1.15681100       0.00000000       0.00331291      -0.00226078
H       -1.00882800      -0.58244853       1.15681100      -0.00286914      -0.00165650      -0.00226077
H        1.00882700      -0.58245053       1.15681100       0.00286914      -0.00165651      -0.00226077
H        0.00000100      -0.94642447      -1.20488200       0.00000000      -0.00020680       0.00259013
H       -0.81962900       0.47320853      -1.20488400      -0.00017908       0.00010338       0.00259013
H        0.81962800       0.47321053      -1.20488400       0.00017908       0.00010338       0.00259013
