8
Properties=species:S:1:pos:R:3:forces:R:3 calculation_type=dimer_refinement calculation_label=BH3NH3/refinement_41/point_017_distance_1.610000 d4_functional=B97M d4_method=b97m d4_energy_eV=-0.12106126516121533 source_geometry=/mnt/ceph/users/cwoodson/dft_calc/diatomics/dimer_jobs/BH3NH3/refinement_41/point_017_distance_1.610000/geometry.in energy=-0.12106126516121533 free_energy=-0.12106126516121533 pbc="F F F"
B        0.00000000      -0.00000146       0.80500000      -0.00000001       0.00000014      -0.00818829
N        0.00000000       0.00000146      -0.80500000       0.00000000       0.00000003       0.00604582
H        0.00000100       1.16489154       1.11681100       0.00000000       0.00453850      -0.00155450
H       -1.00882800      -0.58244846       1.11681100      -0.00393055      -0.00226930      -0.00155449
H        1.00882700      -0.58245046       1.11681100       0.00393056      -0.00226932      -0.00155448
H        0.00000100      -0.94642454      -1.16488200       0.00000000      -0.00044220       0.00226864
H       -0.81962900       0.47320846      -1.16488400      -0.00038294       0.00022108       0.00226864
H        0.81962800       0.47321046      -1.16488400       0.00038294       0.00022108       0.00226864
