8
Properties=species:S:1:pos:R:3:forces:R:3 calculation_type=dimer_refinement calculation_label=BH3NH3/refinement_41/point_028_distance_1.720000 d4_functional=B97M d4_method=b97m d4_energy_eV=-0.11968347362604183 source_geometry=/mnt/ceph/users/cwoodson/dft_calc/diatomics/dimer_jobs/BH3NH3/refinement_41/point_028_distance_1.720000/geometry.in energy=-0.11968347362604183 free_energy=-0.11968347362604183 pbc="F F F"
B       -0.00000000      -0.00000156       0.86000000      -0.00000001       0.00000010      -0.00482525
N        0.00000000       0.00000156      -0.86000000       0.00000000       0.00000003       0.00465382
H        0.00000100       1.16489144       1.17181100       0.00000000       0.00234008      -0.00265856
H       -1.00882800      -0.58244856       1.17181100      -0.00202663      -0.00117008      -0.00265856
H        1.00882700      -0.58245056       1.17181100       0.00202664      -0.00117009      -0.00265856
H        0.00000100      -0.94642444      -1.21988200       0.00000000      -0.00010811       0.00271570
H       -0.81962900       0.47320856      -1.21988400      -0.00009360       0.00005403       0.00271571
H        0.81962800       0.47321056      -1.21988400       0.00009360       0.00005403       0.00271571
