8
Properties=species:S:1:pos:R:3:forces:R:3 calculation_type=dimer_refinement calculation_label=BH3NH3/refinement_41/point_002_distance_1.460000 d4_functional=B97M d4_method=b97m d4_energy_eV=-0.12296558649889984 source_geometry=/mnt/ceph/users/cwoodson/dft_calc/diatomics/dimer_jobs/BH3NH3/refinement_41/point_002_distance_1.460000/geometry.in energy=-0.12296558649889984 free_energy=-0.12296558649889984 pbc="F F F"
B        0.00000000      -0.00000133       0.73000000      -0.00000001       0.00000015      -0.00985664
N        0.00000000       0.00000133      -0.73000000       0.00000000       0.00000003       0.00679885
H        0.00000100       1.16489167       1.04181100       0.00000000       0.00505626      -0.00068844
H       -1.00882800      -0.58244833       1.04181100      -0.00437894      -0.00252819      -0.00068843
H        1.00882700      -0.58245033       1.04181100       0.00437895      -0.00252820      -0.00068842
H        0.00000100      -0.94642467      -1.08988200       0.00000000      -0.00082568       0.00170769
H       -0.81962900       0.47320833      -1.08988400      -0.00071505       0.00041282       0.00170769
H        0.81962800       0.47321033      -1.08988400       0.00071505       0.00041282       0.00170769
