8
Properties=species:S:1:pos:R:3:forces:R:3 calculation_type=dimer_refinement calculation_label=BH3NH3/refinement_41/point_008_distance_1.520000 d4_functional=B97M d4_method=b97m d4_energy_eV=-0.1222238787042245 source_geometry=/mnt/ceph/users/cwoodson/dft_calc/diatomics/dimer_jobs/BH3NH3/refinement_41/point_008_distance_1.520000/geometry.in energy=-0.1222238787042245 free_energy=-0.1222238787042245 pbc="F F F"
B        0.00000000      -0.00000138       0.76000000      -0.00000001       0.00000014      -0.00966025
N        0.00000000       0.00000138      -0.76000000       0.00000000       0.00000003       0.00694729
H        0.00000100       1.16489162       1.07181100       0.00000000       0.00489312      -0.00102306
H       -1.00882800      -0.58244838       1.07181100      -0.00423766      -0.00244661      -0.00102305
H        1.00882700      -0.58245038       1.07181100       0.00423766      -0.00244663      -0.00102304
H        0.00000100      -0.94642462      -1.11988200       0.00000000      -0.00067662       0.00192737
H       -0.81962900       0.47320838      -1.11988400      -0.00058596       0.00033829       0.00192737
H        0.81962800       0.47321038      -1.11988400       0.00058595       0.00033829       0.00192737
