8
Properties=species:S:1:pos:R:3:forces:R:3 calculation_type=dimer_refinement calculation_label=BH3NH3/refinement_41/point_019_distance_1.630000 d4_functional=B97M d4_method=b97m d4_energy_eV=-0.12080579960008733 source_geometry=/mnt/ceph/users/cwoodson/dft_calc/diatomics/dimer_jobs/BH3NH3/refinement_41/point_019_distance_1.630000/geometry.in energy=-0.12080579960008733 free_energy=-0.12080579960008733 pbc="F F F"
B        0.00000000      -0.00000148       0.81500000      -0.00000001       0.00000013      -0.00760254
N        0.00000000       0.00000148      -0.81500000       0.00000000       0.00000003       0.00564578
H        0.00000100       1.16489152       1.12681100       0.00000000       0.00437187      -0.00169494
H       -1.00882800      -0.58244848       1.12681100      -0.00378624      -0.00218599      -0.00169493
H        1.00882700      -0.58245048       1.12681100       0.00378625      -0.00218600      -0.00169493
H        0.00000100      -0.94642452      -1.17488200       0.00000000      -0.00038652       0.00234718
H       -0.81962900       0.47320848      -1.17488400      -0.00033472       0.00019323       0.00234719
H        0.81962800       0.47321048      -1.17488400       0.00033471       0.00019323       0.00234719
