8
Properties=species:S:1:pos:R:3:forces:R:3 calculation_type=dimer_refinement calculation_label=BH3NH3/refinement_41/point_040_distance_1.840000 d4_functional=B97M d4_method=b97m d4_energy_eV=-0.11773895006395613 source_geometry=/mnt/ceph/users/cwoodson/dft_calc/diatomics/dimer_jobs/BH3NH3/refinement_41/point_040_distance_1.840000/geometry.in energy=-0.11773895006395613 free_energy=-0.11773895006395613 pbc="F F F"
B       -0.00000000      -0.00000167       0.92000000      -0.00000000       0.00000004      -0.00738458
N        0.00000000       0.00000167      -0.92000000      -0.00000000       0.00000002       0.01055931
H        0.00000100       1.16489133       1.23181100      -0.00000000      -0.00182679      -0.00428772
H       -1.00882800      -0.58244867       1.23181100       0.00158204       0.00091339      -0.00428773
H        1.00882700      -0.58245067       1.23181100      -0.00158203       0.00091339      -0.00428772
H        0.00000100      -0.94642433      -1.27988200      -0.00000000       0.00035609       0.00322947
H       -0.81962900       0.47320867      -1.27988400       0.00030841      -0.00017807       0.00322948
H        0.81962800       0.47321067      -1.27988400      -0.00030841      -0.00017807       0.00322948
