8
Properties=species:S:1:pos:R:3:forces:R:3 calculation_type=dimer_refinement calculation_label=BH3NH3/refinement_41/point_001_distance_1.450000 d4_functional=B97M d4_method=b97m d4_energy_eV=-0.12308395385882237 source_geometry=/mnt/ceph/users/cwoodson/dft_calc/diatomics/dimer_jobs/BH3NH3/refinement_41/point_001_distance_1.450000/geometry.in energy=-0.12308395385882237 free_energy=-0.12308395385882237 pbc="F F F"
B        0.00000000      -0.00000132       0.72500000      -0.00000001       0.00000015      -0.00985205
N        0.00000000       0.00000132      -0.72500000       0.00000000       0.00000003       0.00673612
H        0.00000100       1.16489168       1.03681100       0.00000000       0.00508459      -0.00063270
H       -1.00882800      -0.58244832       1.03681100      -0.00440348      -0.00254235      -0.00063269
H        1.00882700      -0.58245032       1.03681100       0.00440348      -0.00254237      -0.00063269
H        0.00000100      -0.94642468      -1.08488200       0.00000000      -0.00085047       0.00167134
H       -0.81962900       0.47320832      -1.08488400      -0.00073651       0.00042521       0.00167134
H        0.81962800       0.47321032      -1.08488400       0.00073651       0.00042521       0.00167134
