8
Properties=species:S:1:pos:R:3:forces:R:3 calculation_type=dimer_refinement calculation_label=BH3NH3/refinement_41/point_021_distance_1.650000 d4_functional=B97M d4_method=b97m d4_energy_eV=-0.12055392518081767 source_geometry=/mnt/ceph/users/cwoodson/dft_calc/diatomics/dimer_jobs/BH3NH3/refinement_41/point_021_distance_1.650000/geometry.in energy=-0.12055392518081767 free_energy=-0.12055392518081767 pbc="F F F"
B        0.00000000      -0.00000150       0.82500000      -0.00000001       0.00000013      -0.00693686
N        0.00000000       0.00000150      -0.82500000       0.00000000       0.00000003       0.00522006
H        0.00000100       1.16489150       1.13681100       0.00000000       0.00413043      -0.00185465
H       -1.00882800      -0.58244850       1.13681100      -0.00357715      -0.00206527      -0.00185464
H        1.00882700      -0.58245050       1.13681100       0.00357715      -0.00206528      -0.00185464
H        0.00000100      -0.94642450      -1.18488200       0.00000000      -0.00032892       0.00242691
H       -0.81962900       0.47320850      -1.18488400      -0.00028484       0.00016444       0.00242691
H        0.81962800       0.47321050      -1.18488400       0.00028484       0.00016444       0.00242691
