8
Properties=species:S:1:pos:R:3:forces:R:3 calculation_type=dimer_refinement calculation_label=BH3NH3/refinement_41/point_022_distance_1.660000 d4_functional=B97M d4_method=b97m d4_energy_eV=-0.12042934437118306 source_geometry=/mnt/ceph/users/cwoodson/dft_calc/diatomics/dimer_jobs/BH3NH3/refinement_41/point_022_distance_1.660000/geometry.in energy=-0.12042934437118306 free_energy=-0.12042934437118306 pbc="F F F"
B       -0.00000000      -0.00000151       0.83000000      -0.00000001       0.00000013      -0.00658573
N        0.00000000       0.00000151      -0.83000000       0.00000000       0.00000003       0.00501610
H        0.00000100       1.16489149       1.14181100       0.00000000       0.00397287      -0.00194404
H       -1.00882800      -0.58244851       1.14181100      -0.00344069      -0.00198648      -0.00194403
H        1.00882700      -0.58245051       1.14181100       0.00344070      -0.00198650      -0.00194403
H        0.00000100      -0.94642449      -1.18988200       0.00000000      -0.00029931       0.00246724
H       -0.81962900       0.47320851      -1.18988400      -0.00025919       0.00014963       0.00246724
H        0.81962800       0.47321051      -1.18988400       0.00025919       0.00014963       0.00246724
