8
Properties=species:S:1:pos:R:3:forces:R:3 calculation_type=dimer_refinement calculation_label=BH3NH3/refinement_41/point_024_distance_1.680000 d4_functional=B97M d4_method=b97m d4_energy_eV=-0.12018213025917313 source_geometry=/mnt/ceph/users/cwoodson/dft_calc/diatomics/dimer_jobs/BH3NH3/refinement_41/point_024_distance_1.680000/geometry.in energy=-0.12018213025917313 free_energy=-0.12018213025917313 pbc="F F F"
B       -0.00000000      -0.00000153       0.84000000      -0.00000001       0.00000012      -0.00588621
N        0.00000000       0.00000153      -0.84000000       0.00000000       0.00000003       0.00467881
H        0.00000100       1.16489147       1.15181100       0.00000000       0.00356681      -0.00214640
H       -1.00882800      -0.58244853       1.15181100      -0.00308903      -0.00178345      -0.00214639
H        1.00882700      -0.58245053       1.15181100       0.00308904      -0.00178346      -0.00214638
H        0.00000100      -0.94642447      -1.19988200       0.00000000      -0.00023828       0.00254885
H       -0.81962900       0.47320853      -1.19988400      -0.00020634       0.00011912       0.00254886
H        0.81962800       0.47321053      -1.19988400       0.00020634       0.00011912       0.00254886
