8
Properties=species:S:1:pos:R:3:forces:R:3 calculation_type=dimer_refinement calculation_label=BH3NH3/refinement_41/point_030_distance_1.740000 d4_functional=B97M d4_method=b97m d4_energy_eV=-0.1194206185141535 source_geometry=/mnt/ceph/users/cwoodson/dft_calc/diatomics/dimer_jobs/BH3NH3/refinement_41/point_030_distance_1.740000/geometry.in energy=-0.1194206185141535 free_energy=-0.1194206185141535 pbc="F F F"
B       -0.00000000      -0.00000158       0.87000000      -0.00000001       0.00000009      -0.00466482
N        0.00000000       0.00000158      -0.87000000      -0.00000000       0.00000003       0.00514607
H        0.00000100       1.16489142       1.18181100       0.00000000       0.00154577      -0.00296104
H       -1.00882800      -0.58244858       1.18181100      -0.00133873      -0.00077292      -0.00296104
H        1.00882700      -0.58245058       1.18181100       0.00133874      -0.00077292      -0.00296104
H        0.00000100      -0.94642442      -1.22988200      -0.00000000      -0.00003856       0.00280062
H       -0.81962900       0.47320858      -1.22988400      -0.00003337       0.00001926       0.00280062
H        0.81962800       0.47321058      -1.22988400       0.00003337       0.00001926       0.00280062
