8
Properties=species:S:1:pos:R:3:forces:R:3 calculation_type=dimer_refinement calculation_label=BH3NH3/refinement_41/point_010_distance_1.540000 d4_functional=B97M d4_method=b97m d4_energy_eV=-0.12196760520140049 source_geometry=/mnt/ceph/users/cwoodson/dft_calc/diatomics/dimer_jobs/BH3NH3/refinement_41/point_010_distance_1.540000/geometry.in energy=-0.12196760520140049 free_energy=-0.12196760520140049 pbc="F F F"
B        0.00000000      -0.00000140       0.77000000      -0.00000001       0.00000014      -0.00948086
N        0.00000000       0.00000140      -0.77000000       0.00000000       0.00000003       0.00688161
H        0.00000100       1.16489160       1.08181100       0.00000000       0.00483734      -0.00113533
H       -1.00882800      -0.58244840       1.08181100      -0.00418935      -0.00241873      -0.00113532
H        1.00882700      -0.58245040       1.08181100       0.00418936      -0.00241874      -0.00113531
H        0.00000100      -0.94642460      -1.12988200       0.00000000      -0.00062615       0.00200174
H       -0.81962900       0.47320840      -1.12988400      -0.00054225       0.00031305       0.00200174
H        0.81962800       0.47321040      -1.12988400       0.00054225       0.00031305       0.00200174
