8
Properties=species:S:1:pos:R:3:forces:R:3 calculation_type=dimer_refinement calculation_label=BH3NH3/refinement_41/point_032_distance_1.760000 d4_functional=B97M d4_method=b97m d4_energy_eV=-0.11913911334408749 source_geometry=/mnt/ceph/users/cwoodson/dft_calc/diatomics/dimer_jobs/BH3NH3/refinement_41/point_032_distance_1.760000/geometry.in energy=-0.11913911334408749 free_energy=-0.11913911334408749 pbc="F F F"
B       -0.00000000      -0.00000160       0.88000000      -0.00000001       0.00000007      -0.00483127
N        0.00000000       0.00000160      -0.88000000      -0.00000000       0.00000003       0.00599956
H        0.00000100       1.16489140       1.19181100       0.00000000       0.00070055      -0.00327561
H       -1.00882800      -0.58244860       1.19181100      -0.00060674      -0.00035030      -0.00327561
H        1.00882700      -0.58245060       1.19181100       0.00060674      -0.00035030      -0.00327561
H        0.00000100      -0.94642440      -1.23988200      -0.00000000       0.00003411       0.00288618
H       -0.81962900       0.47320860      -1.23988400       0.00002957      -0.00001708       0.00288619
H        0.81962800       0.47321060      -1.23988400      -0.00002957      -0.00001708       0.00288619
