8
Properties=species:S:1:pos:R:3:forces:R:3 calculation_type=dimer_refinement calculation_label=BH3NH3/refinement_41/point_009_distance_1.530000 d4_functional=B97M d4_method=b97m d4_energy_eV=-0.1220961359762485 source_geometry=/mnt/ceph/users/cwoodson/dft_calc/diatomics/dimer_jobs/BH3NH3/refinement_41/point_009_distance_1.530000/geometry.in energy=-0.1220961359762485 free_energy=-0.1220961359762485 pbc="F F F"
B        0.00000000      -0.00000139       0.76500000      -0.00000001       0.00000014      -0.00957927
N        0.00000000       0.00000139      -0.76500000       0.00000000       0.00000003       0.00692306
H        0.00000100       1.16489161       1.07681100       0.00000000       0.00486568      -0.00107907
H       -1.00882800      -0.58244839       1.07681100      -0.00421390      -0.00243290      -0.00107906
H        1.00882700      -0.58245039       1.07681100       0.00421391      -0.00243291      -0.00107906
H        0.00000100      -0.94642461      -1.12488200       0.00000000      -0.00065146       0.00196446
H       -0.81962900       0.47320839      -1.12488400      -0.00056417       0.00032571       0.00196446
H        0.81962800       0.47321039      -1.12488400       0.00056417       0.00032571       0.00196447
