8
Properties=species:S:1:pos:R:3:forces:R:3 calculation_type=dimer_refinement calculation_label=BH3PH3/refinement_41/point_032_distance_2.040000 d4_functional=B97M d4_method=b97m d4_energy_eV=-0.16546468394387212 source_geometry=/mnt/ceph/users/cwoodson/dft_calc/diatomics/dimer_jobs/BH3PH3/refinement_41/point_032_distance_2.040000/geometry.in energy=-0.16546468394387212 free_energy=-0.16546468394387212 pbc="F F F"
B        0.00000000      -0.00000053       1.02000000      -0.00000003       0.00000013      -0.01789364
P        0.00000000       0.00000053      -1.02000000       0.00000000      -0.00000002       0.01725272
H        0.00000000       1.16874647       1.30209100      -0.00000000       0.00057723      -0.00541161
H       -1.01216600      -0.58437653       1.30208700      -0.00049996      -0.00028866      -0.00541160
H        1.01216600      -0.58437753       1.30208800       0.00049999      -0.00028868      -0.00541159
H        0.00000000      -1.23673747      -1.67710300      -0.00000000       0.00354705       0.00562525
H       -1.07104200       0.61836653      -1.67710700       0.00307180      -0.00177352       0.00562524
H        1.07104100       0.61836753      -1.67710800      -0.00307180      -0.00177352       0.00562524
