8
Properties=species:S:1:pos:R:3:forces:R:3 calculation_type=dimer_refinement calculation_label=BH3PH3/refinement_41/point_014_distance_1.860000 d4_functional=B97M d4_method=b97m d4_energy_eV=-0.17139648573300925 source_geometry=/mnt/ceph/users/cwoodson/dft_calc/diatomics/dimer_jobs/BH3PH3/refinement_41/point_014_distance_1.860000/geometry.in energy=-0.17139648573300925 free_energy=-0.17139648573300925 pbc="F F F"
B        0.00000000      -0.00000048       0.93000000      -0.00000003       0.00000011      -0.01627673
P        0.00000000       0.00000048      -0.93000000       0.00000000      -0.00000002       0.01446770
H        0.00000000       1.16874652       1.21209100      -0.00000000      -0.00000761      -0.00505165
H       -1.01216600      -0.58437648       1.21208700       0.00000653       0.00000376      -0.00505164
H        1.01216600      -0.58437748       1.21208800      -0.00000651       0.00000375      -0.00505163
H        0.00000000      -1.23673752      -1.58710300      -0.00000000       0.00366011       0.00565465
H       -1.07104200       0.61836648      -1.58710700       0.00316972      -0.00183005       0.00565465
H        1.07104100       0.61836748      -1.58710800      -0.00316972      -0.00183005       0.00565465
