8
Properties=species:S:1:pos:R:3:forces:R:3 calculation_type=dimer_refinement calculation_label=BH3PH3/refinement_41/point_002_distance_1.740000 d4_functional=B97M d4_method=b97m d4_energy_eV=-0.175039524446711 source_geometry=/mnt/ceph/users/cwoodson/dft_calc/diatomics/dimer_jobs/BH3PH3/refinement_41/point_002_distance_1.740000/geometry.in energy=-0.175039524446711 free_energy=-0.175039524446711 pbc="F F F"
B        0.00000000      -0.00000045       0.87000000      -0.00000003       0.00000010      -0.01492576
P        0.00000000       0.00000045      -0.87000000       0.00000000      -0.00000002       0.01288003
H        0.00000000       1.16874655       1.15209100      -0.00000000       0.00002056      -0.00481419
H       -1.01216600      -0.58437645       1.15208700      -0.00001786      -0.00001032      -0.00481418
H        1.01216600      -0.58437745       1.15208800       0.00001788      -0.00001033      -0.00481417
H        0.00000000      -1.23673755      -1.52710300      -0.00000000       0.00366784       0.00549610
H       -1.07104200       0.61836645      -1.52710700       0.00317642      -0.00183392       0.00549609
H        1.07104100       0.61836745      -1.52710800      -0.00317642      -0.00183392       0.00549609
