8
Properties=species:S:1:pos:R:3:forces:R:3 calculation_type=dimer_refinement calculation_label=BH3PH3/refinement_41/point_022_distance_1.940000 d4_functional=B97M d4_method=b97m d4_energy_eV=-0.1688235162643646 source_geometry=/mnt/ceph/users/cwoodson/dft_calc/diatomics/dimer_jobs/BH3PH3/refinement_41/point_022_distance_1.940000/geometry.in energy=-0.1688235162643646 free_energy=-0.1688235162643646 pbc="F F F"
B        0.00000000      -0.00000050       0.97000000      -0.00000003       0.00000011      -0.01710191
P        0.00000000       0.00000050      -0.97000000       0.00000000      -0.00000002       0.01581922
H        0.00000000       1.16874650       1.25209100      -0.00000000       0.00005396      -0.00525595
H       -1.01216600      -0.58437650       1.25208700      -0.00004679      -0.00002702      -0.00525594
H        1.01216600      -0.58437750       1.25208800       0.00004681      -0.00002704      -0.00525594
H        0.00000000      -1.23673750      -1.62710300      -0.00000000       0.00362817       0.00568352
H       -1.07104200       0.61836650      -1.62710700       0.00314206      -0.00181408       0.00568351
H        1.07104100       0.61836750      -1.62710800      -0.00314206      -0.00181408       0.00568351
