8
Properties=species:S:1:pos:R:3:forces:R:3 calculation_type=dimer_refinement calculation_label=BH3PH3/refinement_41/point_029_distance_2.010000 d4_functional=B97M d4_method=b97m d4_energy_eV=-0.16648510482441972 source_geometry=/mnt/ceph/users/cwoodson/dft_calc/diatomics/dimer_jobs/BH3PH3/refinement_41/point_029_distance_2.010000/geometry.in energy=-0.16648510482441972 free_energy=-0.16648510482441972 pbc="F F F"
B        0.00000000      -0.00000052       1.00500000      -0.00000003       0.00000012      -0.01771403
P        0.00000000       0.00000052      -1.00500000       0.00000000      -0.00000002       0.01691260
H        0.00000000       1.16874648       1.28709100      -0.00000000       0.00033454      -0.00538665
H       -1.01216600      -0.58437652       1.28708700      -0.00028978      -0.00016731      -0.00538664
H        1.01216600      -0.58437752       1.28708800       0.00028981      -0.00016733      -0.00538663
H        0.00000000      -1.23673748      -1.66210300      -0.00000000       0.00357657       0.00565379
H       -1.07104200       0.61836652      -1.66210700       0.00309737      -0.00178828       0.00565378
H        1.07104100       0.61836752      -1.66210800      -0.00309737      -0.00178828       0.00565378
