8
Properties=species:S:1:pos:R:3:forces:R:3 calculation_type=dimer_refinement calculation_label=BH3PH3/refinement_41/point_025_distance_1.970000 d4_functional=B97M d4_method=b97m d4_energy_eV=-0.16783010440343588 source_geometry=/mnt/ceph/users/cwoodson/dft_calc/diatomics/dimer_jobs/BH3PH3/refinement_41/point_025_distance_1.970000/geometry.in energy=-0.16783010440343588 free_energy=-0.16783010440343588 pbc="F F F"
B        0.00000000      -0.00000051       0.98500000      -0.00000003       0.00000011      -0.01738492
P        0.00000000       0.00000051      -0.98500000       0.00000000      -0.00000002       0.01631732
H        0.00000000       1.16874649       1.26709100      -0.00000000       0.00013647      -0.00532127
H       -1.01216600      -0.58437651       1.26708700      -0.00011825      -0.00006828      -0.00532126
H        1.01216600      -0.58437751       1.26708800       0.00011828      -0.00006829      -0.00532125
H        0.00000000      -1.23673749      -1.64210300      -0.00000000       0.00360893       0.00567713
H       -1.07104200       0.61836651      -1.64210700       0.00312540      -0.00180446       0.00567712
H        1.07104100       0.61836751      -1.64210800      -0.00312540      -0.00180446       0.00567712
