8
Properties=species:S:1:pos:R:3:forces:R:3 calculation_type=dimer_refinement calculation_label=BH3PH3/refinement_41/point_008_distance_1.800000 d4_functional=B97M d4_method=b97m d4_energy_eV=-0.17324929770802866 source_geometry=/mnt/ceph/users/cwoodson/dft_calc/diatomics/dimer_jobs/BH3PH3/refinement_41/point_008_distance_1.800000/geometry.in energy=-0.17324929770802866 free_energy=-0.17324929770802866 pbc="F F F"
B        0.00000000      -0.00000047       0.90000000      -0.00000003       0.00000011      -0.01561679
P        0.00000000       0.00000047      -0.90000000       0.00000000      -0.00000002       0.01356438
H        0.00000000       1.16874653       1.18209100      -0.00000000       0.00001174      -0.00490719
H       -1.01216600      -0.58437647       1.18208700      -0.00001023      -0.00000591      -0.00490718
H        1.01216600      -0.58437747       1.18208800       0.00001025      -0.00000593      -0.00490717
H        0.00000000      -1.23673753      -1.55710300      -0.00000000       0.00366843       0.00559132
H       -1.07104200       0.61836647      -1.55710700       0.00317693      -0.00183421       0.00559132
H        1.07104100       0.61836747      -1.55710800      -0.00317693      -0.00183422       0.00559132
