2
Properties=species:S:1:pos:R:3:forces:R:3 calculation_type=dimer_refinement calculation_label=BN/refinement_100/point_016_distance_0.95 d4_functional=B97M d4_method=b97m d4_energy_eV=-0.0247147109350971 source_geometry=/mnt/ceph/users/cwoodson/dft_calc/diatomics/dimer_jobs/BN/refinement_100/point_016_distance_0.95/geometry.in energy=-0.0247147109350971 free_energy=-0.0247147109350971 pbc="F F F"
B        0.00000000       0.00000000      -0.47500000      -0.00000000      -0.00000000       0.00020402
N        0.00000000       0.00000000       0.47500000      -0.00000000      -0.00000000      -0.00020402
