2
Properties=species:S:1:pos:R:3:forces:R:3 calculation_type=dimer_refinement calculation_label=BN/refinement_41/point_025_distance_1.340000 d4_functional=B97M d4_method=b97m d4_energy_eV=-0.024596465196174006 source_geometry=/mnt/ceph/users/cwoodson/dft_calc/diatomics/dimer_jobs/BN/refinement_41/point_025_distance_1.340000/geometry.in energy=-0.024596465196174006 free_energy=-0.024596465196174006 pbc="F F F"
B        0.00000000       0.00000000      -0.67000000      -0.00000000      -0.00000000       0.00044543
N        0.00000000       0.00000000       0.67000000      -0.00000000      -0.00000000      -0.00044543
