2
Properties=species:S:1:pos:R:3:forces:R:3 calculation_type=dimer_refinement calculation_label=BN/refinement_100/point_088_distance_1.67 d4_functional=B97M d4_method=b97m d4_energy_eV=-0.024510253562896784 source_geometry=/mnt/ceph/users/cwoodson/dft_calc/diatomics/dimer_jobs/BN/refinement_100/point_088_distance_1.67/geometry.in energy=-0.024510253562896784 free_energy=-0.024510253562896784 pbc="F F F"
B        0.00000000       0.00000000      -0.83500000      -0.00000000      -0.00000000      -0.00071429
N        0.00000000       0.00000000       0.83500000      -0.00000000      -0.00000000       0.00071429
