2
Properties=species:S:1:pos:R:3:forces:R:3 calculation_type=dimer_refinement calculation_label=BN/refinement_100/point_076_distance_1.55 d4_functional=B97M d4_method=b97m d4_energy_eV=-0.024499572806576966 source_geometry=/mnt/ceph/users/cwoodson/dft_calc/diatomics/dimer_jobs/BN/refinement_100/point_076_distance_1.55/geometry.in energy=-0.024499572806576966 free_energy=-0.024499572806576966 pbc="F F F"
B        0.00000000       0.00000000      -0.77500000      -0.00000000      -0.00000000       0.00032057
N        0.00000000       0.00000000       0.77500000      -0.00000000      -0.00000000      -0.00032057
