2
Properties=species:S:1:pos:R:3:forces:R:3 calculation_type=dimer_refinement calculation_label=BN/refinement_41/point_020_distance_1.290000 d4_functional=B97M d4_method=b97m d4_energy_eV=-0.02461765245127661 source_geometry=/mnt/ceph/users/cwoodson/dft_calc/diatomics/dimer_jobs/BN/refinement_41/point_020_distance_1.290000/geometry.in energy=-0.02461765245127661 free_energy=-0.02461765245127661 pbc="F F F"
B        0.00000000       0.00000000      -0.64500000      -0.00000000      -0.00000000       0.00040180
N        0.00000000       0.00000000       0.64500000      -0.00000000      -0.00000000      -0.00040180
