2
Properties=species:S:1:pos:R:3:forces:R:3 calculation_type=dimer_refinement calculation_label=BN/refinement_100/point_083_distance_1.62 d4_functional=B97M d4_method=b97m d4_energy_eV=-0.024490516398738185 source_geometry=/mnt/ceph/users/cwoodson/dft_calc/diatomics/dimer_jobs/BN/refinement_100/point_083_distance_1.62/geometry.in energy=-0.024490516398738185 free_energy=-0.024490516398738185 pbc="F F F"
B        0.00000000       0.00000000      -0.81000000      -0.00000000      -0.00000000      -0.00012262
N        0.00000000       0.00000000       0.81000000      -0.00000000      -0.00000000       0.00012262
