2
Properties=species:S:1:pos:R:3:forces:R:3 calculation_type=dimer_refinement calculation_label=BP/refinement_100/point_080_distance_1.91 d4_functional=B97M d4_method=b97m d4_energy_eV=-0.04647588820440158 source_geometry=/mnt/ceph/users/cwoodson/dft_calc/diatomics/dimer_jobs/BP/refinement_100/point_080_distance_1.91/geometry.in energy=-0.04647588820440158 free_energy=-0.04647588820440158 pbc="F F F"
B        0.00000000       0.00000000      -0.95500000      -0.00000000      -0.00000000       0.00188703
P        0.00000000       0.00000000       0.95500000      -0.00000000      -0.00000000      -0.00188703
