2
Properties=species:S:1:pos:R:3:forces:R:3 calculation_type=dimer_refinement calculation_label=BP/refinement_41/point_002_distance_1.430000 d4_functional=B97M d4_method=b97m d4_energy_eV=-0.046877193552577544 source_geometry=/mnt/ceph/users/cwoodson/dft_calc/diatomics/dimer_jobs/BP/refinement_41/point_002_distance_1.430000/geometry.in energy=-0.046877193552577544 free_energy=-0.046877193552577544 pbc="F F F"
B        0.00000000       0.00000000      -0.71500000      -0.00000000      -0.00000000       0.00013144
P        0.00000000       0.00000000       0.71500000      -0.00000000      -0.00000000      -0.00013144
