2
Properties=species:S:1:pos:R:3:forces:R:3 calculation_type=dimer_refinement calculation_label=BP/refinement_100/point_098_distance_2.09 d4_functional=B97M d4_method=b97m d4_energy_eV=-0.04602014408747496 source_geometry=/mnt/ceph/users/cwoodson/dft_calc/diatomics/dimer_jobs/BP/refinement_100/point_098_distance_2.09/geometry.in energy=-0.04602014408747496 free_energy=-0.04602014408747496 pbc="F F F"
B        0.00000000       0.00000000      -1.04500000      -0.00000000      -0.00000000       0.00325924
P        0.00000000       0.00000000       1.04500000      -0.00000000      -0.00000000      -0.00325924
