2
Properties=species:S:1:pos:R:3:forces:R:3 calculation_type=dimer_refinement calculation_label=BP/refinement_100/point_094_distance_2.05 d4_functional=B97M d4_method=b97m d4_energy_eV=-0.046143539787160265 source_geometry=/mnt/ceph/users/cwoodson/dft_calc/diatomics/dimer_jobs/BP/refinement_100/point_094_distance_2.05/geometry.in energy=-0.046143539787160265 free_energy=-0.046143539787160265 pbc="F F F"
B        0.00000000       0.00000000      -1.02500000      -0.00000000      -0.00000000       0.00291314
P        0.00000000       0.00000000       1.02500000      -0.00000000      -0.00000000      -0.00291314
