2
Properties=species:S:1:pos:R:3:forces:R:3 calculation_type=dimer_refinement calculation_label=BP/refinement_100/point_013_distance_1.24 d4_functional=B97M d4_method=b97m d4_energy_eV=-0.04687491539134076 source_geometry=/mnt/ceph/users/cwoodson/dft_calc/diatomics/dimer_jobs/BP/refinement_100/point_013_distance_1.24/geometry.in energy=-0.04687491539134076 free_energy=-0.04687491539134076 pbc="F F F"
B        0.00000000       0.00000000      -0.62000000      -0.00000000      -0.00000000      -0.00012899
P        0.00000000       0.00000000       0.62000000      -0.00000000      -0.00000000       0.00012899
