2
Properties=species:S:1:pos:R:3:forces:R:3 calculation_type=dimer_refinement calculation_label=BP/refinement_100/point_058_distance_1.69 d4_functional=B97M d4_method=b97m d4_energy_eV=-0.04676356038179061 source_geometry=/mnt/ceph/users/cwoodson/dft_calc/diatomics/dimer_jobs/BP/refinement_100/point_058_distance_1.69/geometry.in energy=-0.04676356038179061 free_energy=-0.04676356038179061 pbc="F F F"
B        0.00000000       0.00000000      -0.84500000      -0.00000000      -0.00000000       0.00082203
P        0.00000000       0.00000000       0.84500000      -0.00000000      -0.00000000      -0.00082203
