8
Properties=species:S:1:pos:R:3:forces:R:3 calculation_type=dimer_refinement calculation_label=C2H6/refinement_100/point_009_distance_1.12 d4_functional=B97M d4_method=b97m d4_energy_eV=-0.12962103139615846 source_geometry=/mnt/ceph/users/cwoodson/dft_calc/diatomics/dimer_jobs/C2H6/refinement_100/point_009_distance_1.12/geometry.in energy=-0.12962103139615846 free_energy=-0.12962103139615846 pbc="F F F"
C        0.00000000       0.00000000       0.56000000      -0.00000000       0.00000000      -0.00555593
C        0.00000000       0.00000000      -0.56000000      -0.00000000      -0.00000000       0.00555593
H        0.00000000       1.01895700       0.95502000       0.00000000       0.00028289      -0.00091785
H       -0.88244300      -0.50947900       0.95502000      -0.00024499      -0.00014144      -0.00091786
H        0.88244300      -0.50947900       0.95502000       0.00024499      -0.00014144      -0.00091786
H        0.00000000      -1.01895700      -0.95502000       0.00000000      -0.00028289       0.00091785
H       -0.88244300       0.50947900      -0.95502000      -0.00024499       0.00014144       0.00091786
H        0.88244300       0.50947900      -0.95502000       0.00024499       0.00014144       0.00091786
