8
Properties=species:S:1:pos:R:3:forces:R:3 calculation_type=dimer_refinement calculation_label=C2H6/refinement_100/point_017_distance_1.20 d4_functional=B97M d4_method=b97m d4_energy_eV=-0.12887146992213144 source_geometry=/mnt/ceph/users/cwoodson/dft_calc/diatomics/dimer_jobs/C2H6/refinement_100/point_017_distance_1.20/geometry.in energy=-0.12887146992213144 free_energy=-0.12887146992213144 pbc="F F F"
C        0.00000000       0.00000000       0.60000000       0.00000000       0.00000000      -0.00632990
C        0.00000000       0.00000000      -0.60000000       0.00000000      -0.00000000       0.00632990
H        0.00000000       1.01895700       0.99502000      -0.00000000       0.00004712      -0.00135478
H       -0.88244300      -0.50947900       0.99502000      -0.00004081      -0.00002356      -0.00135478
H        0.88244300      -0.50947900       0.99502000       0.00004081      -0.00002356      -0.00135478
H        0.00000000      -1.01895700      -0.99502000      -0.00000000      -0.00004712       0.00135478
H       -0.88244300       0.50947900      -0.99502000      -0.00004081       0.00002356       0.00135478
H        0.88244300       0.50947900      -0.99502000       0.00004081       0.00002356       0.00135478
