8
Properties=species:S:1:pos:R:3:forces:R:3 calculation_type=dimer_refinement calculation_label=C2H6/refinement_100/point_023_distance_1.26 d4_functional=B97M d4_method=b97m d4_energy_eV=-0.1282031315238089 source_geometry=/mnt/ceph/users/cwoodson/dft_calc/diatomics/dimer_jobs/C2H6/refinement_100/point_023_distance_1.26/geometry.in energy=-0.1282031315238089 free_energy=-0.1282031315238089 pbc="F F F"
C        0.00000000       0.00000000       0.63000000      -0.00000000       0.00000000      -0.00685966
C        0.00000000       0.00000000      -0.63000000       0.00000000      -0.00000000       0.00685966
H        0.00000000       1.01895700       1.02502000       0.00000000      -0.00010982      -0.00167365
H       -0.88244300      -0.50947900       1.02502000       0.00009511       0.00005491      -0.00167366
H        0.88244300      -0.50947900       1.02502000      -0.00009511       0.00005491      -0.00167366
H        0.00000000      -1.01895700      -1.02502000      -0.00000000       0.00010982       0.00167365
H       -0.88244300       0.50947900      -1.02502000       0.00009511      -0.00005491       0.00167366
H        0.88244300       0.50947900      -1.02502000      -0.00009511      -0.00005491       0.00167366
