8
Properties=species:S:1:pos:R:3:forces:R:3 calculation_type=dimer_refinement calculation_label=C2H6/refinement_41/point_003_distance_1.340000 d4_functional=B97M d4_method=b97m d4_energy_eV=-0.12717398339642147 source_geometry=/mnt/ceph/users/cwoodson/dft_calc/diatomics/dimer_jobs/C2H6/refinement_41/point_003_distance_1.340000/geometry.in energy=-0.12717398339642147 free_energy=-0.12717398339642147 pbc="F F F"
C        0.00000000       0.00000000       0.67000000       0.00000000      -0.00000001      -0.00756700
C        0.00000000       0.00000000      -0.67000000       0.00000000       0.00000001       0.00756700
H        0.00000000       1.01450700       1.06562800       0.00000000      -0.00030339      -0.00208501
H       -0.87858900      -0.50725200       1.06562300       0.00026273       0.00015168      -0.00208499
H        0.87858900      -0.50725200       1.06562300      -0.00026273       0.00015168      -0.00208499
H       -0.00000000      -1.01450700      -1.06562800      -0.00000000       0.00030339       0.00208501
H       -0.87858900       0.50725200      -1.06562300       0.00026273      -0.00015168       0.00208499
H        0.87858900       0.50725200      -1.06562400      -0.00026273      -0.00015169       0.00208499
