8
Properties=species:S:1:pos:R:3:forces:R:3 calculation_type=dimer_refinement calculation_label=C2H6/refinement_100/point_013_distance_1.16 d4_functional=B97M d4_method=b97m d4_energy_eV=-0.12926704115607104 source_geometry=/mnt/ceph/users/cwoodson/dft_calc/diatomics/dimer_jobs/C2H6/refinement_100/point_013_distance_1.16/geometry.in energy=-0.12926704115607104 free_energy=-0.12926704115607104 pbc="F F F"
C        0.00000000       0.00000000       0.58000000       0.00000000       0.00000000      -0.00595996
C        0.00000000       0.00000000      -0.58000000      -0.00000000      -0.00000000       0.00595996
H        0.00000000       1.01895700       0.97502000      -0.00000000       0.00016030      -0.00113944
H       -0.88244300      -0.50947900       0.97502000      -0.00013882      -0.00008015      -0.00113945
H        0.88244300      -0.50947900       0.97502000       0.00013882      -0.00008015      -0.00113945
H        0.00000000      -1.01895700      -0.97502000       0.00000000      -0.00016030       0.00113944
H       -0.88244300       0.50947900      -0.97502000      -0.00013882       0.00008015       0.00113945
H        0.88244300       0.50947900      -0.97502000       0.00013882       0.00008015       0.00113945
