8
Properties=species:S:1:pos:R:3:forces:R:3 calculation_type=dimer_refinement calculation_label=C2H6/refinement_41/point_016_distance_1.470000 d4_functional=B97M d4_method=b97m d4_energy_eV=-0.12516522426912294 source_geometry=/mnt/ceph/users/cwoodson/dft_calc/diatomics/dimer_jobs/C2H6/refinement_41/point_016_distance_1.470000/geometry.in energy=-0.12516522426912294 free_energy=-0.12516522426912294 pbc="F F F"
C        0.00000000       0.00000000       0.73500000       0.00000000      -0.00000001      -0.00877575
C        0.00000000       0.00000000      -0.73500000       0.00000000       0.00000001       0.00877575
H        0.00000000       1.01450700       1.13062800      -0.00000000      -0.00057593      -0.00276791
H       -0.87858900      -0.50725200       1.13062300       0.00049876       0.00028796      -0.00276789
H        0.87858900      -0.50725200       1.13062300      -0.00049876       0.00028796      -0.00276789
H       -0.00000000      -1.01450700      -1.13062800      -0.00000000       0.00057593       0.00276791
H       -0.87858900       0.50725200      -1.13062300       0.00049876      -0.00028796       0.00276789
H        0.87858900       0.50725200      -1.13062400      -0.00049876      -0.00028796       0.00276789
