8
Properties=species:S:1:pos:R:3:forces:R:3 calculation_type=dimer_refinement calculation_label=C2H6/refinement_100/point_004_distance_1.07 d4_functional=B97M d4_method=b97m d4_energy_eV=-0.13000068811082613 source_geometry=/mnt/ceph/users/cwoodson/dft_calc/diatomics/dimer_jobs/C2H6/refinement_100/point_004_distance_1.07/geometry.in energy=-0.13000068811082613 free_energy=-0.13000068811082613 pbc="F F F"
C        0.00000000       0.00000000       0.53500000      -0.00000000       0.00000000      -0.00497136
C        0.00000000       0.00000000      -0.53500000      -0.00000000      -0.00000000       0.00497136
H        0.00000000       1.01895700       0.93002000       0.00000000       0.00045207      -0.00062669
H       -0.88244300      -0.50947900       0.93002000      -0.00039150      -0.00022603      -0.00062669
H        0.88244300      -0.50947900       0.93002000       0.00039150      -0.00022603      -0.00062669
H        0.00000000      -1.01895700      -0.93002000       0.00000000      -0.00045207       0.00062669
H       -0.88244300       0.50947900      -0.93002000      -0.00039150       0.00022603       0.00062669
H        0.88244300       0.50947900      -0.93002000       0.00039150       0.00022603       0.00062669
