8
Properties=species:S:1:pos:R:3:forces:R:3 calculation_type=dimer_refinement calculation_label=C2H6/refinement_100/point_061_distance_1.64 d4_functional=B97M d4_method=b97m d4_energy_eV=-0.12191587711949607 source_geometry=/mnt/ceph/users/cwoodson/dft_calc/diatomics/dimer_jobs/C2H6/refinement_100/point_061_distance_1.64/geometry.in energy=-0.12191587711949607 free_energy=-0.12191587711949607 pbc="F F F"
C        0.00000000       0.00000000       0.82000000       0.00000000       0.00000000      -0.01004434
C        0.00000000       0.00000000      -0.82000000       0.00000000      -0.00000000       0.01004434
H        0.00000000       1.01895700       1.21502000      -0.00000000      -0.00080708      -0.00357321
H       -0.88244300      -0.50947900       1.21502000       0.00069895       0.00040354      -0.00357321
H        0.88244300      -0.50947900       1.21502000      -0.00069895       0.00040354      -0.00357321
H        0.00000000      -1.01895700      -1.21502000       0.00000000       0.00080708       0.00357321
H       -0.88244300       0.50947900      -1.21502000       0.00069895      -0.00040354       0.00357321
H        0.88244300       0.50947900      -1.21502000      -0.00069895      -0.00040354       0.00357321
