8
Properties=species:S:1:pos:R:3:forces:R:3 calculation_type=dimer_refinement calculation_label=C2H6/refinement_100/point_090_distance_1.93 d4_functional=B97M d4_method=b97m d4_energy_eV=-0.12099859360412474 source_geometry=/mnt/ceph/users/cwoodson/dft_calc/diatomics/dimer_jobs/C2H6/refinement_100/point_090_distance_1.93/geometry.in energy=-0.12099859360412474 free_energy=-0.12099859360412474 pbc="F F F"
C        0.00000000       0.00000000       0.96500000       0.00000000       0.00000003       0.06511755
C        0.00000000       0.00000000      -0.96500000      -0.00000000      -0.00000003      -0.06511755
H        0.00000000       1.01895700       1.36002000       0.00000000       0.00125965      -0.00371530
H       -0.88244300      -0.50947900       1.36002000      -0.00109091      -0.00062984      -0.00371530
H        0.88244300      -0.50947900       1.36002000       0.00109091      -0.00062984      -0.00371530
H        0.00000000      -1.01895700      -1.36002000       0.00000000      -0.00125965       0.00371530
H       -0.88244300       0.50947900      -1.36002000      -0.00109091       0.00062984       0.00371530
H        0.88244300       0.50947900      -1.36002000       0.00109091       0.00062984       0.00371530
