8
Properties=species:S:1:pos:R:3:forces:R:3 calculation_type=dimer_refinement calculation_label=C2H6/refinement_100/point_074_distance_1.77 d4_functional=B97M d4_method=b97m d4_energy_eV=-0.1192776388885209 source_geometry=/mnt/ceph/users/cwoodson/dft_calc/diatomics/dimer_jobs/C2H6/refinement_100/point_074_distance_1.77/geometry.in energy=-0.1192776388885209 free_energy=-0.1192776388885209 pbc="F F F"
C        0.00000000       0.00000000       0.88500000       0.00000000       0.00000001      -0.00546559
C        0.00000000       0.00000000      -0.88500000      -0.00000000      -0.00000001       0.00546559
H        0.00000000       1.01895700       1.28002000       0.00000000      -0.00065710      -0.00396320
H       -0.88244300      -0.50947900       1.28002000       0.00056907       0.00032855      -0.00396320
H        0.88244300      -0.50947900       1.28002000      -0.00056907       0.00032855      -0.00396320
H        0.00000000      -1.01895700      -1.28002000       0.00000000       0.00065710       0.00396320
H       -0.88244300       0.50947900      -1.28002000       0.00056907      -0.00032855       0.00396320
H        0.88244300       0.50947900      -1.28002000      -0.00056907      -0.00032855       0.00396320
