8
Properties=species:S:1:pos:R:3:forces:R:3 calculation_type=dimer_refinement calculation_label=C2H6/refinement_100/point_019_distance_1.22 d4_functional=B97M d4_method=b97m d4_energy_eV=-0.12865859995381143 source_geometry=/mnt/ceph/users/cwoodson/dft_calc/diatomics/dimer_jobs/C2H6/refinement_100/point_019_distance_1.22/geometry.in energy=-0.12865859995381143 free_energy=-0.12865859995381143 pbc="F F F"
C        0.00000000       0.00000000       0.61000000      -0.00000000       0.00000000      -0.00650813
C        0.00000000       0.00000000      -0.61000000      -0.00000000      -0.00000000       0.00650813
H        0.00000000       1.01895700       1.00502000       0.00000000      -0.00000668      -0.00146131
H       -0.88244300      -0.50947900       1.00502000       0.00000579       0.00000334      -0.00146131
H        0.88244300      -0.50947900       1.00502000      -0.00000579       0.00000334      -0.00146131
H        0.00000000      -1.01895700      -1.00502000      -0.00000000       0.00000668       0.00146131
H       -0.88244300       0.50947900      -1.00502000       0.00000579      -0.00000334       0.00146131
H        0.88244300       0.50947900      -1.00502000      -0.00000579      -0.00000334       0.00146131
