8
Properties=species:S:1:pos:R:3:forces:R:3 calculation_type=dimer_refinement calculation_label=C2H6/refinement_100/point_008_distance_1.11 d4_functional=B97M d4_method=b97m d4_energy_eV=-0.12970273340530375 source_geometry=/mnt/ceph/users/cwoodson/dft_calc/diatomics/dimer_jobs/C2H6/refinement_100/point_008_distance_1.11/geometry.in energy=-0.12970273340530375 free_energy=-0.12970273340530375 pbc="F F F"
C        0.00000000       0.00000000       0.55500000       0.00000000       0.00000000      -0.00544700
C        0.00000000       0.00000000      -0.55500000       0.00000000      -0.00000000       0.00544700
H        0.00000000       1.01895700       0.95002000      -0.00000000       0.00031528      -0.00086099
H       -0.88244300      -0.50947900       0.95002000      -0.00027304      -0.00015764      -0.00086099
H        0.88244300      -0.50947900       0.95002000       0.00027304      -0.00015764      -0.00086099
H        0.00000000      -1.01895700      -0.95002000      -0.00000000      -0.00031528       0.00086099
H       -0.88244300       0.50947900      -0.95002000      -0.00027304       0.00015764       0.00086099
H        0.88244300       0.50947900      -0.95002000       0.00027304       0.00015764       0.00086099
