8
Properties=species:S:1:pos:R:3:forces:R:3 calculation_type=dimer_refinement calculation_label=C2H6/refinement_100/point_021_distance_1.24 d4_functional=B97M d4_method=b97m d4_energy_eV=-0.12843580723890533 source_geometry=/mnt/ceph/users/cwoodson/dft_calc/diatomics/dimer_jobs/C2H6/refinement_100/point_021_distance_1.24/geometry.in energy=-0.12843580723890533 free_energy=-0.12843580723890533 pbc="F F F"
C        0.00000000       0.00000000       0.62000000       0.00000000       0.00000000      -0.00668429
C        0.00000000       0.00000000      -0.62000000       0.00000000      -0.00000000       0.00668429
H        0.00000000       1.01895700       1.01502000      -0.00000000      -0.00005894      -0.00156753
H       -0.88244300      -0.50947900       1.01502000       0.00005105       0.00002947      -0.00156753
H        0.88244300      -0.50947900       1.01502000      -0.00005105       0.00002947      -0.00156753
H        0.00000000      -1.01895700      -1.01502000      -0.00000000       0.00005894       0.00156753
H       -0.88244300       0.50947900      -1.01502000       0.00005105      -0.00002947       0.00156753
H        0.88244300       0.50947900      -1.01502000      -0.00005105      -0.00002947       0.00156753
