8
Properties=species:S:1:pos:R:3:forces:R:3 calculation_type=dimer_refinement calculation_label=C2H6/refinement_100/point_071_distance_1.74 d4_functional=B97M d4_method=b97m d4_energy_eV=-0.1198385430645416 source_geometry=/mnt/ceph/users/cwoodson/dft_calc/diatomics/dimer_jobs/C2H6/refinement_100/point_071_distance_1.74/geometry.in energy=-0.1198385430645416 free_energy=-0.1198385430645416 pbc="F F F"
C        0.00000000       0.00000000       0.87000000      -0.00000000       0.00000001      -0.00802849
C        0.00000000       0.00000000      -0.87000000      -0.00000000      -0.00000001       0.00802849
H        0.00000000       1.01895700       1.26502000      -0.00000000      -0.00075304      -0.00390552
H       -0.88244300      -0.50947900       1.26502000       0.00065215       0.00037652      -0.00390552
H        0.88244300      -0.50947900       1.26502000      -0.00065215       0.00037652      -0.00390552
H        0.00000000      -1.01895700      -1.26502000       0.00000000       0.00075304       0.00390552
H       -0.88244300       0.50947900      -1.26502000       0.00065215      -0.00037652       0.00390552
H        0.88244300       0.50947900      -1.26502000      -0.00065215      -0.00037652       0.00390552
