8
Properties=species:S:1:pos:R:3:forces:R:3 calculation_type=dimer_refinement calculation_label=C2H6/refinement_100/point_075_distance_1.78 d4_functional=B97M d4_method=b97m d4_energy_eV=-0.11911012764955783 source_geometry=/mnt/ceph/users/cwoodson/dft_calc/diatomics/dimer_jobs/C2H6/refinement_100/point_075_distance_1.78/geometry.in energy=-0.11911012764955783 free_energy=-0.11911012764955783 pbc="F F F"
C        0.00000000       0.00000000       0.89000000      -0.00000000       0.00000001      -0.00417340
C        0.00000000       0.00000000      -0.89000000       0.00000000      -0.00000001       0.00417340
H        0.00000000       1.01895700       1.28502000       0.00000000      -0.00061030      -0.00397564
H       -0.88244300      -0.50947900       1.28502000       0.00052853       0.00030515      -0.00397564
H        0.88244300      -0.50947900       1.28502000      -0.00052853       0.00030515      -0.00397564
H        0.00000000      -1.01895700      -1.28502000       0.00000000       0.00061030       0.00397564
H       -0.88244300       0.50947900      -1.28502000       0.00052853      -0.00030515       0.00397564
H        0.88244300       0.50947900      -1.28502000      -0.00052853      -0.00030515       0.00397564
