8
Properties=species:S:1:pos:R:3:forces:R:3 calculation_type=dimer_refinement calculation_label=C2H6/refinement_100/point_049_distance_1.52 d4_functional=B97M d4_method=b97m d4_energy_eV=-0.12427372714537235 source_geometry=/mnt/ceph/users/cwoodson/dft_calc/diatomics/dimer_jobs/C2H6/refinement_100/point_049_distance_1.52/geometry.in energy=-0.12427372714537235 free_energy=-0.12427372714537235 pbc="F F F"
C        0.00000000       0.00000000       0.76000000       0.00000000       0.00000000      -0.00924285
C        0.00000000       0.00000000      -0.76000000      -0.00000000      -0.00000000       0.00924285
H        0.00000000       1.01895700       1.15502000       0.00000000      -0.00066142      -0.00302929
H       -0.88244300      -0.50947900       1.15502000       0.00057281       0.00033071      -0.00302929
H        0.88244300      -0.50947900       1.15502000      -0.00057281       0.00033071      -0.00302929
H        0.00000000      -1.01895700      -1.15502000       0.00000000       0.00066142       0.00302929
H       -0.88244300       0.50947900      -1.15502000       0.00057281      -0.00033071       0.00302929
H        0.88244300       0.50947900      -1.15502000      -0.00057281      -0.00033071       0.00302929
