8
Properties=species:S:1:pos:R:3:forces:R:3 calculation_type=dimer_refinement calculation_label=C2H6/refinement_100/point_033_distance_1.36 d4_functional=B97M d4_method=b97m d4_energy_eV=-0.12689123197682828 source_geometry=/mnt/ceph/users/cwoodson/dft_calc/diatomics/dimer_jobs/C2H6/refinement_100/point_033_distance_1.36/geometry.in energy=-0.12689123197682828 free_energy=-0.12689123197682828 pbc="F F F"
C        0.00000000       0.00000000       0.68000000      -0.00000000       0.00000000      -0.00774972
C        0.00000000       0.00000000      -0.68000000      -0.00000000      -0.00000000       0.00774972
H        0.00000000       1.01895700       1.07502000       0.00000000      -0.00034647      -0.00220442
H       -0.88244300      -0.50947900       1.07502000       0.00030005       0.00017324      -0.00220442
H        0.88244300      -0.50947900       1.07502000      -0.00030005       0.00017324      -0.00220442
H        0.00000000      -1.01895700      -1.07502000       0.00000000       0.00034647       0.00220442
H       -0.88244300       0.50947900      -1.07502000       0.00030005      -0.00017324       0.00220442
H        0.88244300       0.50947900      -1.07502000      -0.00030005      -0.00017324       0.00220442
