8
Properties=species:S:1:pos:R:3:forces:R:3 calculation_type=dimer_refinement calculation_label=C2H6/refinement_100/point_058_distance_1.61 d4_functional=B97M d4_method=b97m d4_energy_eV=-0.12253207155172974 source_geometry=/mnt/ceph/users/cwoodson/dft_calc/diatomics/dimer_jobs/C2H6/refinement_100/point_058_distance_1.61/geometry.in energy=-0.12253207155172974 free_energy=-0.12253207155172974 pbc="F F F"
C        0.00000000       0.00000000       0.80500000      -0.00000000       0.00000000      -0.00994722
C        0.00000000       0.00000000      -0.80500000      -0.00000000      -0.00000000       0.00994722
H        0.00000000       1.01895700       1.20002000       0.00000000      -0.00078321      -0.00344757
H       -0.88244300      -0.50947900       1.20002000       0.00067828       0.00039160      -0.00344758
H        0.88244300      -0.50947900       1.20002000      -0.00067828       0.00039160      -0.00344758
H        0.00000000      -1.01895700      -1.20002000       0.00000000       0.00078321       0.00344757
H       -0.88244300       0.50947900      -1.20002000       0.00067828      -0.00039160       0.00344758
H        0.88244300       0.50947900      -1.20002000      -0.00067828      -0.00039160       0.00344758
