8
Properties=species:S:1:pos:R:3:forces:R:3 calculation_type=dimer_refinement calculation_label=C2H6/refinement_100/point_056_distance_1.59 d4_functional=B97M d4_method=b97m d4_energy_eV=-0.12293408299220018 source_geometry=/mnt/ceph/users/cwoodson/dft_calc/diatomics/dimer_jobs/C2H6/refinement_100/point_056_distance_1.59/geometry.in energy=-0.12293408299220018 free_energy=-0.12293408299220018 pbc="F F F"
C        0.00000000       0.00000000       0.79500000       0.00000000       0.00000000      -0.00982587
C        0.00000000       0.00000000      -0.79500000      -0.00000000      -0.00000000       0.00982587
H        0.00000000       1.01895700       1.19002000       0.00000000      -0.00076168      -0.00335937
H       -0.88244300      -0.50947900       1.19002000       0.00065963       0.00038084      -0.00335937
H        0.88244300      -0.50947900       1.19002000      -0.00065963       0.00038084      -0.00335937
H        0.00000000      -1.01895700      -1.19002000      -0.00000000       0.00076168       0.00335937
H       -0.88244300       0.50947900      -1.19002000       0.00065963      -0.00038084       0.00335937
H        0.88244300       0.50947900      -1.19002000      -0.00065963      -0.00038084       0.00335937
