8
Properties=species:S:1:pos:R:3:forces:R:3 calculation_type=dimer_refinement calculation_label=C2H6/refinement_100/point_097_distance_2.00 d4_functional=B97M d4_method=b97m d4_energy_eV=-0.12403786359871137 source_geometry=/mnt/ceph/users/cwoodson/dft_calc/diatomics/dimer_jobs/C2H6/refinement_100/point_097_distance_2.00/geometry.in energy=-0.12403786359871137 free_energy=-0.12403786359871137 pbc="F F F"
C        0.00000000       0.00000000       1.00000000      -0.00000000       0.00000002       0.03059885
C        0.00000000       0.00000000      -1.00000000      -0.00000000      -0.00000002      -0.03059885
H        0.00000000       1.01895700       1.39502000       0.00000000       0.00002142      -0.00441784
H       -0.88244300      -0.50947900       1.39502000      -0.00001856      -0.00001072      -0.00441783
H        0.88244300      -0.50947900       1.39502000       0.00001856      -0.00001072      -0.00441783
H        0.00000000      -1.01895700      -1.39502000       0.00000000      -0.00002142       0.00441784
H       -0.88244300       0.50947900      -1.39502000      -0.00001856       0.00001072       0.00441783
H        0.88244300       0.50947900      -1.39502000       0.00001856       0.00001072       0.00441783
