8
Properties=species:S:1:pos:R:3:forces:R:3 calculation_type=dimer_refinement calculation_label=C2H6/refinement_41/point_007_distance_1.380000 d4_functional=B97M d4_method=b97m d4_energy_eV=-0.12660106853547437 source_geometry=/mnt/ceph/users/cwoodson/dft_calc/diatomics/dimer_jobs/C2H6/refinement_41/point_007_distance_1.380000/geometry.in energy=-0.12660106853547437 free_energy=-0.12660106853547437 pbc="F F F"
C        0.00000000       0.00000000       0.69000000       0.00000000      -0.00000001      -0.00793165
C        0.00000000       0.00000000      -0.69000000       0.00000000       0.00000001       0.00793165
H        0.00000000       1.01450700       1.08562800       0.00000000      -0.00039268      -0.00229762
H       -0.87858900      -0.50725200       1.08562300       0.00034006       0.00019633      -0.00229760
H        0.87858900      -0.50725200       1.08562300      -0.00034006       0.00019633      -0.00229760
H       -0.00000000      -1.01450700      -1.08562800      -0.00000000       0.00039268       0.00229762
H       -0.87858900       0.50725200      -1.08562300       0.00034006      -0.00019633       0.00229760
H        0.87858900       0.50725200      -1.08562400      -0.00034006      -0.00019633       0.00229760
