8
Properties=species:S:1:pos:R:3:forces:R:3 calculation_type=dimer_refinement calculation_label=C2H6/refinement_100/point_080_distance_1.83 d4_functional=B97M d4_method=b97m d4_energy_eV=-0.11856000426437364 source_geometry=/mnt/ceph/users/cwoodson/dft_calc/diatomics/dimer_jobs/C2H6/refinement_100/point_080_distance_1.83/geometry.in energy=-0.11856000426437364 free_energy=-0.11856000426437364 pbc="F F F"
C        0.00000000       0.00000000       0.91500000       0.00000000       0.00000001       0.00795075
C        0.00000000       0.00000000      -0.91500000      -0.00000000      -0.00000001      -0.00795075
H        0.00000000       1.01895700       1.31002000       0.00000000      -0.00020746      -0.00396714
H       -0.88244300      -0.50947900       1.31002000       0.00017966       0.00010373      -0.00396714
H        0.88244300      -0.50947900       1.31002000      -0.00017966       0.00010373      -0.00396714
H        0.00000000      -1.01895700      -1.31002000       0.00000000       0.00020746       0.00396714
H       -0.88244300       0.50947900      -1.31002000       0.00017966      -0.00010373       0.00396714
H        0.88244300       0.50947900      -1.31002000      -0.00017966      -0.00010373       0.00396714
