8
Properties=species:S:1:pos:R:3:forces:R:3 calculation_type=dimer_refinement calculation_label=CH3SiH3/refinement_100/point_002_distance_1.40 d4_functional=B97M d4_method=b97m d4_energy_eV=-0.168351559676557 source_geometry=/mnt/ceph/users/cwoodson/dft_calc/diatomics/dimer_jobs/CH3SiH3/refinement_100/point_002_distance_1.40/geometry.in energy=-0.168351559676557 free_energy=-0.168351559676557 pbc="F F F"
C        0.00000000       0.00000000      -0.70000000       0.00000000      -0.00000000       0.01432164
Si       0.00000000       0.00000000       0.70000000      -0.00000000       0.00000000      -0.00157942
H        0.00000000      -1.01976200      -1.09189700      -0.00000000      -0.00178893       0.00033776
H       -0.88314000       0.50988100      -1.09189700      -0.00154926       0.00089446       0.00033776
H        0.88314000       0.50988100      -1.09189700       0.00154926       0.00089446       0.00033776
H        0.00000000       1.39123400       1.22297900       0.00000000      -0.00396606      -0.00458516
H       -1.20484400      -0.69561700       1.22297900       0.00343470       0.00198303      -0.00458516
H        1.20484400      -0.69561700       1.22297900      -0.00343470       0.00198303      -0.00458516
