8
Properties=species:S:1:pos:R:3:forces:R:3 calculation_type=dimer_refinement calculation_label=CH3SiH3/refinement_100/point_052_distance_1.90 d4_functional=B97M d4_method=b97m d4_energy_eV=-0.15563551882758794 source_geometry=/mnt/ceph/users/cwoodson/dft_calc/diatomics/dimer_jobs/CH3SiH3/refinement_100/point_052_distance_1.90/geometry.in energy=-0.15563551882758794 free_energy=-0.15563551882758794 pbc="F F F"
C        0.00000000       0.00000000      -0.95000000      -0.00000000      -0.00000000       0.01726568
Si       0.00000000       0.00000000       0.95000000      -0.00000000       0.00000000      -0.01419842
H        0.00000000      -1.01976200      -1.34189700      -0.00000000       0.00016318       0.00445915
H       -0.88314000       0.50988100      -1.34189700       0.00014132      -0.00008159       0.00445915
H        0.88314000       0.50988100      -1.34189700      -0.00014132      -0.00008159       0.00445915
H        0.00000000       1.39123400       1.47297900      -0.00000000      -0.00329155      -0.00548157
H       -1.20484400      -0.69561700       1.47297900       0.00285057       0.00164578      -0.00548157
H        1.20484400      -0.69561700       1.47297900      -0.00285057       0.00164578      -0.00548157
