8
Properties=species:S:1:pos:R:3:forces:R:3 calculation_type=dimer_refinement calculation_label=CH3SiH3/refinement_100/point_081_distance_2.19 d4_functional=B97M d4_method=b97m d4_energy_eV=-0.14882559930724548 source_geometry=/mnt/ceph/users/cwoodson/dft_calc/diatomics/dimer_jobs/CH3SiH3/refinement_100/point_081_distance_2.19/geometry.in energy=-0.14882559930724548 free_energy=-0.14882559930724548 pbc="F F F"
C        0.00000000       0.00000000      -1.09500000       0.00000000      -0.00000001      -0.01441395
Si       0.00000000       0.00000000       1.09500000      -0.00000000       0.00000000       0.01216003
H        0.00000000      -1.01976200      -1.48689700      -0.00000000      -0.00113111       0.00459111
H       -0.88314000       0.50988100      -1.48689700      -0.00097958       0.00056556       0.00459111
H        0.88314000       0.50988100      -1.48689700       0.00097958       0.00056556       0.00459111
H        0.00000000       1.39123400       1.61797900      -0.00000000       0.00056865      -0.00383980
H       -1.20484400      -0.69561700       1.61797900      -0.00049246      -0.00028432      -0.00383980
H        1.20484400      -0.69561700       1.61797900       0.00049246      -0.00028432      -0.00383980
