8
Properties=species:S:1:pos:R:3:forces:R:3 calculation_type=dimer_refinement calculation_label=CH3SiH3/refinement_100/point_070_distance_2.08 d4_functional=B97M d4_method=b97m d4_energy_eV=-0.15042679605822015 source_geometry=/mnt/ceph/users/cwoodson/dft_calc/diatomics/dimer_jobs/CH3SiH3/refinement_100/point_070_distance_2.08/geometry.in energy=-0.15042679605822015 free_energy=-0.15042679605822015 pbc="F F F"
C        0.00000000       0.00000000      -1.04000000      -0.00000000      -0.00000000       0.01010397
Si       0.00000000       0.00000000       1.04000000      -0.00000000       0.00000000      -0.00935486
H        0.00000000      -1.01976200      -1.43189700       0.00000000      -0.00011668       0.00475268
H       -0.88314000       0.50988100      -1.43189700      -0.00010105       0.00005834       0.00475268
H        0.88314000       0.50988100      -1.43189700       0.00010105       0.00005834       0.00475268
H        0.00000000       1.39123400       1.56297900      -0.00000000      -0.00221201      -0.00500238
H       -1.20484400      -0.69561700       1.56297900       0.00191566       0.00110601      -0.00500238
H        1.20484400      -0.69561700       1.56297900      -0.00191566       0.00110601      -0.00500238
