8
Properties=species:S:1:pos:R:3:forces:R:3 calculation_type=dimer_refinement calculation_label=CH3SiH3/refinement_41/point_041_distance_2.070000 d4_functional=B97M d4_method=b97m d4_energy_eV=-0.15081529154733242 source_geometry=/mnt/ceph/users/cwoodson/dft_calc/diatomics/dimer_jobs/CH3SiH3/refinement_41/point_041_distance_2.070000/geometry.in energy=-0.15081529154733242 free_energy=-0.15081529154733242 pbc="F F F"
C        0.00000000       0.00000332      -1.03500000       0.00000000       0.00000002       0.01128787
Si      -0.00000000      -0.00000332       1.03500000       0.00000000      -0.00000002      -0.01000186
H       -0.00000100      -1.01749168      -1.42273400      -0.00000000      -0.00000689       0.00477912
H       -0.88117700       0.50875232      -1.42272400      -0.00000594       0.00000343       0.00477915
H        0.88117800       0.50875032      -1.42272400       0.00000594       0.00000343       0.00477915
H       -0.00000100       1.38371068       1.55640200       0.00000000      -0.00265292      -0.00520784
H       -1.19833100      -0.69185332       1.55641500       0.00229748       0.00132647      -0.00520780
H        1.19833200      -0.69185132       1.55641500      -0.00229749       0.00132647      -0.00520780
