8
Properties=species:S:1:pos:R:3:forces:R:3 calculation_type=dimer_refinement calculation_label=CH3SiH3/refinement_41/point_003_distance_1.690000 d4_functional=B97M d4_method=b97m d4_energy_eV=-0.16202250780583197 source_geometry=/mnt/ceph/users/cwoodson/dft_calc/diatomics/dimer_jobs/CH3SiH3/refinement_41/point_003_distance_1.690000/geometry.in energy=-0.16202250780583197 free_energy=-0.16202250780583197 pbc="F F F"
C        0.00000000       0.00000271      -0.84500000       0.00000000      -0.00000005       0.01682413
Si       0.00000000      -0.00000271       0.84500000       0.00000000      -0.00000001      -0.01167412
H       -0.00000100      -1.01749229      -1.23273400       0.00000000      -0.00011373       0.00367387
H       -0.88117700       0.50875171      -1.23272400      -0.00009850       0.00005688       0.00367385
H        0.88117800       0.50874971      -1.23272400       0.00009850       0.00005688       0.00367385
H       -0.00000100       1.38371129       1.36640200       0.00000000      -0.00366838      -0.00539050
H       -1.19833100      -0.69185271       1.36641500       0.00317693       0.00183421      -0.00539054
H        1.19833200      -0.69185071       1.36641500      -0.00317694       0.00183421      -0.00539054
