8
Properties=species:S:1:pos:R:3:forces:R:3 calculation_type=dimer_refinement calculation_label=CH3SiH3/refinement_100/point_062_distance_2.00 d4_functional=B97M d4_method=b97m d4_energy_eV=-0.1526117868873432 source_geometry=/mnt/ceph/users/cwoodson/dft_calc/diatomics/dimer_jobs/CH3SiH3/refinement_100/point_062_distance_2.00/geometry.in energy=-0.1526117868873432 free_energy=-0.1526117868873432 pbc="F F F"
C        0.00000000       0.00000000      -1.00000000       0.00000000      -0.00000000       0.01529156
Si       0.00000000       0.00000000       1.00000000      -0.00000000       0.00000000      -0.01333224
H        0.00000000      -1.01976200      -1.39189700      -0.00000000       0.00012651       0.00467532
H       -0.88314000       0.50988100      -1.39189700       0.00010956      -0.00006325       0.00467532
H        0.88314000       0.50988100      -1.39189700      -0.00010956      -0.00006325       0.00467532
H        0.00000000       1.39123400       1.52297900      -0.00000000      -0.00291913      -0.00532843
H       -1.20484400      -0.69561700       1.52297900       0.00252804       0.00145956      -0.00532843
H        1.20484400      -0.69561700       1.52297900      -0.00252804       0.00145956      -0.00532843
