8
Properties=species:S:1:pos:R:3:forces:R:3 calculation_type=dimer_refinement calculation_label=CH3SiH3/refinement_100/point_082_distance_2.20 d4_functional=B97M d4_method=b97m d4_energy_eV=-0.1488523896027133 source_geometry=/mnt/ceph/users/cwoodson/dft_calc/diatomics/dimer_jobs/CH3SiH3/refinement_100/point_082_distance_2.20/geometry.in energy=-0.1488523896027133 free_energy=-0.1488523896027133 pbc="F F F"
C        0.00000000       0.00000000      -1.10000000      -0.00000000      -0.00000001      -0.01846476
Si       0.00000000       0.00000000       1.10000000       0.00000000       0.00000000       0.01574816
H        0.00000000      -1.01976200      -1.49189700       0.00000000      -0.00126190       0.00456280
H       -0.88314000       0.50988100      -1.49189700      -0.00109285       0.00063095       0.00456280
H        0.88314000       0.50988100      -1.49189700       0.00109285       0.00063095       0.00456280
H        0.00000000       1.39123400       1.62297900       0.00000000       0.00102760      -0.00365727
H       -1.20484400      -0.69561700       1.62297900      -0.00088993      -0.00051380      -0.00365727
H        1.20484400      -0.69561700       1.62297900       0.00088993      -0.00051380      -0.00365727
