8
Properties=species:S:1:pos:R:3:forces:R:3 calculation_type=dimer_refinement calculation_label=CH3SiH3/refinement_100/point_024_distance_1.62 d4_functional=B97M d4_method=b97m d4_energy_eV=-0.16375865568753373 source_geometry=/mnt/ceph/users/cwoodson/dft_calc/diatomics/dimer_jobs/CH3SiH3/refinement_100/point_024_distance_1.62/geometry.in energy=-0.16375865568753373 free_energy=-0.16375865568753373 pbc="F F F"
C        0.00000000       0.00000000      -0.81000000      -0.00000000      -0.00000000       0.01636182
Si       0.00000000       0.00000000       0.81000000      -0.00000000       0.00000000      -0.01034767
H        0.00000000      -1.01976200      -1.20189700       0.00000000      -0.00037130       0.00316631
H       -0.88314000       0.50988100      -1.20189700      -0.00032155       0.00018565       0.00316631
H        0.88314000       0.50988100      -1.20189700       0.00032155       0.00018565       0.00316631
H        0.00000000       1.39123400       1.33297900       0.00000000      -0.00354306      -0.00517103
H       -1.20484400      -0.69561700       1.33297900       0.00306838       0.00177153      -0.00517103
H        1.20484400      -0.69561700       1.33297900      -0.00306838       0.00177153      -0.00517103
