8
Properties=species:S:1:pos:R:3:forces:R:3 calculation_type=dimer_refinement calculation_label=CH3SiH3/refinement_100/point_019_distance_1.57 d4_functional=B97M d4_method=b97m d4_energy_eV=-0.16500388466394292 source_geometry=/mnt/ceph/users/cwoodson/dft_calc/diatomics/dimer_jobs/CH3SiH3/refinement_100/point_019_distance_1.57/geometry.in energy=-0.16500388466394292 free_energy=-0.16500388466394292 pbc="F F F"
C        0.00000000       0.00000000      -0.78500000       0.00000000      -0.00000000       0.01592328
Si       0.00000000       0.00000000       0.78500000      -0.00000000       0.00000000      -0.00869657
H        0.00000000      -1.01976200      -1.17689700       0.00000000      -0.00061799       0.00265092
H       -0.88314000       0.50988100      -1.17689700      -0.00053519       0.00030899       0.00265092
H        0.88314000       0.50988100      -1.17689700       0.00053519       0.00030899       0.00265092
H        0.00000000       1.39123400       1.30797900      -0.00000000      -0.00361907      -0.00505983
H       -1.20484400      -0.69561700       1.30797900       0.00313420       0.00180953      -0.00505983
H        1.20484400      -0.69561700       1.30797900      -0.00313420       0.00180953      -0.00505983
