8
Properties=species:S:1:pos:R:3:forces:R:3 calculation_type=dimer_refinement calculation_label=CH3SiH3/refinement_41/point_002_distance_1.680000 d4_functional=B97M d4_method=b97m d4_energy_eV=-0.1622996917941405 source_geometry=/mnt/ceph/users/cwoodson/dft_calc/diatomics/dimer_jobs/CH3SiH3/refinement_41/point_002_distance_1.680000/geometry.in energy=-0.1622996917941405 free_energy=-0.1622996917941405 pbc="F F F"
C        0.00000000       0.00000270      -0.84000000       0.00000000      -0.00000005       0.01675065
Si       0.00000000      -0.00000270       0.84000000       0.00000000      -0.00000002      -0.01147693
H       -0.00000100      -1.01749230      -1.22773400       0.00000000      -0.00014118       0.00361274
H       -0.88117700       0.50875170      -1.22772400      -0.00012228       0.00007060       0.00361272
H        0.88117800       0.50874970      -1.22772400       0.00012228       0.00007060       0.00361272
H       -0.00000100       1.38371130       1.36140200       0.00000000      -0.00367264      -0.00537061
H       -1.19833100      -0.69185270       1.36141500       0.00318062       0.00183634      -0.00537065
H        1.19833200      -0.69185070       1.36141500      -0.00318063       0.00183634      -0.00537065
