8
Properties=species:S:1:pos:R:3:forces:R:3 calculation_type=dimer_refinement calculation_label=CH3SiH3/refinement_100/point_073_distance_2.11 d4_functional=B97M d4_method=b97m d4_energy_eV=-0.1497497995853107 source_geometry=/mnt/ceph/users/cwoodson/dft_calc/diatomics/dimer_jobs/CH3SiH3/refinement_100/point_073_distance_2.11/geometry.in energy=-0.1497497995853107 free_energy=-0.1497497995853107 pbc="F F F"
C        0.00000000       0.00000000      -1.05500000       0.00000000      -0.00000000       0.00627855
Si       0.00000000       0.00000000       1.05500000      -0.00000000       0.00000000      -0.00611567
H        0.00000000      -1.01976200      -1.44689700      -0.00000000      -0.00029900       0.00474453
H       -0.88314000       0.50988100      -1.44689700      -0.00025894       0.00014950       0.00474453
H        0.88314000       0.50988100      -1.44689700       0.00025894       0.00014950       0.00474453
H        0.00000000       1.39123400       1.57797900       0.00000000      -0.00175181      -0.00479883
H       -1.20484400      -0.69561700       1.57797900       0.00151712       0.00087591      -0.00479883
H        1.20484400      -0.69561700       1.57797900      -0.00151712       0.00087591      -0.00479883
