8
Properties=species:S:1:pos:R:3:forces:R:3 calculation_type=dimer_refinement calculation_label=CH3SiH3/refinement_41/point_008_distance_1.740000 d4_functional=B97M d4_method=b97m d4_energy_eV=-0.16060154806081844 source_geometry=/mnt/ceph/users/cwoodson/dft_calc/diatomics/dimer_jobs/CH3SiH3/refinement_41/point_008_distance_1.740000/geometry.in energy=-0.16060154806081844 free_energy=-0.16060154806081844 pbc="F F F"
C        0.00000000       0.00000279      -0.87000000       0.00000000      -0.00000004       0.01714876
Si       0.00000000      -0.00000279       0.87000000       0.00000000      -0.00000001      -0.01250901
H       -0.00000100      -1.01749221      -1.25773400       0.00000000      -0.00000055       0.00393172
H       -0.88117700       0.50875179      -1.25772400      -0.00000048       0.00000028       0.00393171
H        0.88117800       0.50874979      -1.25772400       0.00000048       0.00000028       0.00393171
H       -0.00000100       1.38371121       1.39140200       0.00000000      -0.00364922      -0.00547828
H       -1.19833100      -0.69185279       1.39141500       0.00316034       0.00182463      -0.00547830
H        1.19833200      -0.69185079       1.39141500      -0.00316034       0.00182463      -0.00547830
