8
Properties=species:S:1:pos:R:3:forces:R:3 calculation_type=dimer_refinement calculation_label=CH3SiH3/refinement_100/point_034_distance_1.72 d4_functional=B97M d4_method=b97m d4_energy_eV=-0.1610228126339597 source_geometry=/mnt/ceph/users/cwoodson/dft_calc/diatomics/dimer_jobs/CH3SiH3/refinement_100/point_034_distance_1.72/geometry.in energy=-0.1610228126339597 free_energy=-0.1610228126339597 pbc="F F F"
C        0.00000000       0.00000000      -0.86000000       0.00000000      -0.00000000       0.01711052
Si       0.00000000       0.00000000       0.86000000       0.00000000       0.00000000      -0.01251470
H        0.00000000      -1.01976200      -1.25189700       0.00000000      -0.00006584       0.00383472
H       -0.88314000       0.50988100      -1.25189700      -0.00005702       0.00003292       0.00383472
H        0.88314000       0.50988100      -1.25189700       0.00005702       0.00003292       0.00383472
H        0.00000000       1.39123400       1.38297900      -0.00000000      -0.00347766      -0.00536666
H       -1.20484400      -0.69561700       1.38297900       0.00301174       0.00173883      -0.00536666
H        1.20484400      -0.69561700       1.38297900      -0.00301174       0.00173883      -0.00536666
