8
Properties=species:S:1:pos:R:3:forces:R:3 calculation_type=dimer_refinement calculation_label=CH3SiH3/refinement_100/point_013_distance_1.51 d4_functional=B97M d4_method=b97m d4_energy_eV=-0.16635232136746325 source_geometry=/mnt/ceph/users/cwoodson/dft_calc/diatomics/dimer_jobs/CH3SiH3/refinement_100/point_013_distance_1.51/geometry.in energy=-0.16635232136746325 free_energy=-0.16635232136746325 pbc="F F F"
C        0.00000000       0.00000000      -0.75500000      -0.00000000      -0.00000000       0.01536771
Si       0.00000000       0.00000000       0.75500000       0.00000000       0.00000000      -0.00623786
H        0.00000000      -1.01976200      -1.14689700      -0.00000000      -0.00099917       0.00187846
H       -0.88314000       0.50988100      -1.14689700      -0.00086531       0.00049958       0.00187846
H        0.88314000       0.50988100      -1.14689700       0.00086531       0.00049958       0.00187846
H        0.00000000       1.39123400       1.27797900       0.00000000      -0.00376269      -0.00492174
H       -1.20484400      -0.69561700       1.27797900       0.00325858       0.00188134      -0.00492174
H        1.20484400      -0.69561700       1.27797900      -0.00325858       0.00188134      -0.00492174
