8
Properties=species:S:1:pos:R:3:forces:R:3 calculation_type=dimer_refinement calculation_label=CH3SiH3/refinement_100/point_022_distance_1.60 d4_functional=B97M d4_method=b97m d4_energy_eV=-0.16426857241430212 source_geometry=/mnt/ceph/users/cwoodson/dft_calc/diatomics/dimer_jobs/CH3SiH3/refinement_100/point_022_distance_1.60/geometry.in energy=-0.16426857241430212 free_energy=-0.16426857241430212 pbc="F F F"
C        0.00000000       0.00000000      -0.80000000      -0.00000000      -0.00000000       0.01618991
Si       0.00000000       0.00000000       0.80000000      -0.00000000       0.00000000      -0.00973827
H        0.00000000      -1.01976200      -1.19189700       0.00000000      -0.00046130       0.00297642
H       -0.88314000       0.50988100      -1.19189700      -0.00039950       0.00023065       0.00297642
H        0.88314000       0.50988100      -1.19189700       0.00039950       0.00023065       0.00297642
H        0.00000000       1.39123400       1.32297900       0.00000000      -0.00356848      -0.00512697
H       -1.20484400      -0.69561700       1.32297900       0.00309040       0.00178424      -0.00512697
H        1.20484400      -0.69561700       1.32297900      -0.00309040       0.00178424      -0.00512697
