8
Properties=species:S:1:pos:R:3:forces:R:3 calculation_type=dimer_refinement calculation_label=CH3SiH3/refinement_100/point_071_distance_2.09 d4_functional=B97M d4_method=b97m d4_energy_eV=-0.1501886198419858 source_geometry=/mnt/ceph/users/cwoodson/dft_calc/diatomics/dimer_jobs/CH3SiH3/refinement_100/point_071_distance_2.09/geometry.in energy=-0.1501886198419858 free_energy=-0.1501886198419858 pbc="F F F"
C        0.00000000       0.00000000      -1.04500000      -0.00000000      -0.00000000       0.00898961
Si       0.00000000       0.00000000       1.04500000       0.00000000       0.00000000      -0.00842483
H        0.00000000      -1.01976200      -1.43689700       0.00000000      -0.00017045       0.00475275
H       -0.88314000       0.50988100      -1.43689700      -0.00014762       0.00008523       0.00475274
H        0.88314000       0.50988100      -1.43689700       0.00014762       0.00008523       0.00475274
H        0.00000000       1.39123400       1.56797900       0.00000000      -0.00207491      -0.00494100
H       -1.20484400      -0.69561700       1.56797900       0.00179692       0.00103745      -0.00494100
H        1.20484400      -0.69561700       1.56797900      -0.00179692       0.00103745      -0.00494100
