8
Properties=species:S:1:pos:R:3:forces:R:3 calculation_type=dimer_refinement calculation_label=CH3SiH3/refinement_41/point_017_distance_1.830000 d4_functional=B97M d4_method=b97m d4_energy_eV=-0.15793126582305364 source_geometry=/mnt/ceph/users/cwoodson/dft_calc/diatomics/dimer_jobs/CH3SiH3/refinement_41/point_017_distance_1.830000/geometry.in energy=-0.15793126582305364 free_energy=-0.15793126582305364 pbc="F F F"
C        0.00000000       0.00000294      -0.91500000       0.00000000      -0.00000004       0.01745388
Si       0.00000000      -0.00000294       0.91500000       0.00000000      -0.00000000      -0.01353931
H       -0.00000100      -1.01749206      -1.30273400       0.00000000       0.00013487       0.00426914
H       -0.88117700       0.50875194      -1.30272400       0.00011680      -0.00006743       0.00426914
H        0.88117800       0.50874994      -1.30272400      -0.00011680      -0.00006743       0.00426914
H       -0.00000100       1.38371106       1.43640200       0.00000000      -0.00359171      -0.00557399
H       -1.19833100      -0.69185294       1.43641500       0.00311052       0.00179587      -0.00557400
H        1.19833200      -0.69185094       1.43641500      -0.00311053       0.00179587      -0.00557400
