8
Properties=species:S:1:pos:R:3:forces:R:3 calculation_type=dimer_refinement calculation_label=CH3SiH3/refinement_41/point_026_distance_1.920000 d4_functional=B97M d4_method=b97m d4_energy_eV=-0.15518224646649367 source_geometry=/mnt/ceph/users/cwoodson/dft_calc/diatomics/dimer_jobs/CH3SiH3/refinement_41/point_026_distance_1.920000/geometry.in energy=-0.15518224646649367 free_energy=-0.15518224646649367 pbc="F F F"
C        0.00000000       0.00000308      -0.96000000       0.00000000      -0.00000002       0.01705661
Si      -0.00000000      -0.00000308       0.96000000       0.00000000      -0.00000000      -0.01392644
H       -0.00000100      -1.01749192      -1.34773400       0.00000000       0.00020175       0.00452400
H       -0.88117700       0.50875208      -1.34772400       0.00017473      -0.00010088       0.00452402
H        0.88117800       0.50875008      -1.34772400      -0.00017473      -0.00010088       0.00452402
H       -0.00000100       1.38371092       1.48140200       0.00000000      -0.00344677      -0.00556741
H       -1.19833100      -0.69185308       1.48141500       0.00298499       0.00172340      -0.00556740
H        1.19833200      -0.69185108       1.48141500      -0.00298499       0.00172339      -0.00556740
