8
Properties=species:S:1:pos:R:3:forces:R:3 calculation_type=dimer_refinement calculation_label=CH3SiH3/refinement_41/point_014_distance_1.800000 d4_functional=B97M d4_method=b97m d4_energy_eV=-0.15883409589977643 source_geometry=/mnt/ceph/users/cwoodson/dft_calc/diatomics/dimer_jobs/CH3SiH3/refinement_41/point_014_distance_1.800000/geometry.in energy=-0.15883409589977643 free_energy=-0.15883409589977643 pbc="F F F"
C        0.00000000       0.00000289      -0.90000000       0.00000000      -0.00000004       0.01740534
Si       0.00000000      -0.00000289       0.90000000       0.00000000      -0.00000000      -0.01325523
H       -0.00000100      -1.01749211      -1.28773400       0.00000000       0.00009728       0.00416883
H       -0.88117700       0.50875189      -1.28772400       0.00008425      -0.00004864       0.00416883
H        0.88117800       0.50874989      -1.28772400      -0.00008425      -0.00004864       0.00416884
H       -0.00000100       1.38371111       1.42140200       0.00000000      -0.00361717      -0.00555220
H       -1.19833100      -0.69185289       1.42141500       0.00313257       0.00180860      -0.00555221
H        1.19833200      -0.69185089       1.42141500      -0.00313258       0.00180860      -0.00555221
