8
Properties=species:S:1:pos:R:3:forces:R:3 calculation_type=dimer_refinement calculation_label=CH3SiH3/refinement_41/point_027_distance_1.930000 d4_functional=B97M d4_method=b97m d4_energy_eV=-0.15487616750511687 source_geometry=/mnt/ceph/users/cwoodson/dft_calc/diatomics/dimer_jobs/CH3SiH3/refinement_41/point_027_distance_1.930000/geometry.in energy=-0.15487616750511687 free_energy=-0.15487616750511687 pbc="F F F"
C        0.00000000       0.00000310      -0.96500000       0.00000000      -0.00000002       0.01693775
Si      -0.00000000      -0.00000310       0.96500000       0.00000000      -0.00000000      -0.01390622
H       -0.00000100      -1.01749190      -1.35273400       0.00000000       0.00020377       0.00454855
H       -0.88117700       0.50875210      -1.35272400       0.00017648      -0.00010188       0.00454856
H        0.88117800       0.50875010      -1.35272400      -0.00017648      -0.00010188       0.00454856
H       -0.00000100       1.38371090       1.48640200       0.00000000      -0.00342159      -0.00555908
H       -1.19833100      -0.69185310       1.48641500       0.00296318       0.00171081      -0.00555906
H        1.19833200      -0.69185110       1.48641500      -0.00296319       0.00171080      -0.00555906
