8
Properties=species:S:1:pos:R:3:forces:R:3 calculation_type=dimer_refinement calculation_label=CH3SiH3/refinement_41/point_007_distance_1.730000 d4_functional=B97M d4_method=b97m d4_energy_eV=-0.16089001218668722 source_geometry=/mnt/ceph/users/cwoodson/dft_calc/diatomics/dimer_jobs/CH3SiH3/refinement_41/point_007_distance_1.730000/geometry.in energy=-0.16089001218668722 free_energy=-0.16089001218668722 pbc="F F F"
C        0.00000000       0.00000278      -0.86500000       0.00000000      -0.00000004       0.01709038
Si       0.00000000      -0.00000278       0.86500000       0.00000000      -0.00000001      -0.01235977
H       -0.00000100      -1.01749222      -1.25273400       0.00000000      -0.00002042       0.00388559
H       -0.88117700       0.50875178      -1.25272400      -0.00001769       0.00001022       0.00388558
H        0.88117800       0.50874978      -1.25272400       0.00001769       0.00001022       0.00388558
H       -0.00000100       1.38371122       1.38640200       0.00000000      -0.00365314      -0.00546244
H       -1.19833100      -0.69185278       1.38641500       0.00316373       0.00182659      -0.00546246
H        1.19833200      -0.69185078       1.38641500      -0.00316374       0.00182659      -0.00546247
