8
Properties=species:S:1:pos:R:3:forces:R:3 calculation_type=dimer_refinement calculation_label=CH3SiH3/refinement_100/point_048_distance_1.86 d4_functional=B97M d4_method=b97m d4_energy_eV=-0.15685964802021424 source_geometry=/mnt/ceph/users/cwoodson/dft_calc/diatomics/dimer_jobs/CH3SiH3/refinement_100/point_048_distance_1.86/geometry.in energy=-0.15685964802021424 free_energy=-0.15685964802021424 pbc="F F F"
C        0.00000000       0.00000000      -0.93000000       0.00000000      -0.00000000       0.01747382
Si       0.00000000       0.00000000       0.93000000       0.00000000       0.00000000      -0.01404583
H        0.00000000      -1.01976200      -1.32189700       0.00000000       0.00013680       0.00434944
H       -0.88314000       0.50988100      -1.32189700       0.00011847      -0.00006840       0.00434944
H        0.88314000       0.50988100      -1.32189700      -0.00011847      -0.00006840       0.00434944
H        0.00000000       1.39123400       1.45297900       0.00000000      -0.00336552      -0.00549210
H       -1.20484400      -0.69561700       1.45297900       0.00291463       0.00168276      -0.00549210
H        1.20484400      -0.69561700       1.45297900      -0.00291463       0.00168276      -0.00549210
