8
Properties=species:S:1:pos:R:3:forces:R:3 calculation_type=dimer_refinement calculation_label=CH3SiH3/refinement_100/point_005_distance_1.43 d4_functional=B97M d4_method=b97m d4_energy_eV=-0.16786813625275646 source_geometry=/mnt/ceph/users/cwoodson/dft_calc/diatomics/dimer_jobs/CH3SiH3/refinement_100/point_005_distance_1.43/geometry.in energy=-0.16786813625275646 free_energy=-0.16786813625275646 pbc="F F F"
C        0.00000000       0.00000000      -0.71500000      -0.00000000      -0.00000000       0.01460597
Si       0.00000000       0.00000000       0.71500000      -0.00000000       0.00000000      -0.00279777
H        0.00000000      -1.01976200      -1.10689700       0.00000000      -0.00156773       0.00076089
H       -0.88314000       0.50988100      -1.10689700      -0.00135770       0.00078387       0.00076089
H        0.88314000       0.50988100      -1.10689700       0.00135770       0.00078387       0.00076089
H        0.00000000       1.39123400       1.23797900       0.00000000      -0.00394538      -0.00469696
H       -1.20484400      -0.69561700       1.23797900       0.00341680       0.00197269      -0.00469696
H        1.20484400      -0.69561700       1.23797900      -0.00341680       0.00197269      -0.00469696
