8
Properties=species:S:1:pos:R:3:forces:R:3 calculation_type=dimer_refinement calculation_label=CH3SiH3/refinement_100/point_054_distance_1.92 d4_functional=B97M d4_method=b97m d4_energy_eV=-0.15502295830531013 source_geometry=/mnt/ceph/users/cwoodson/dft_calc/diatomics/dimer_jobs/CH3SiH3/refinement_100/point_054_distance_1.92/geometry.in energy=-0.15502295830531013 free_energy=-0.15502295830531013 pbc="F F F"
C        0.00000000       0.00000000      -0.96000000       0.00000000      -0.00000000       0.01707112
Si       0.00000000       0.00000000       0.96000000      -0.00000000       0.00000000      -0.01419948
H        0.00000000      -1.01976200      -1.35189700      -0.00000000       0.00016959       0.00450950
H       -0.88314000       0.50988100      -1.35189700       0.00014687      -0.00008479       0.00450950
H        0.88314000       0.50988100      -1.35189700      -0.00014687      -0.00008479       0.00450950
H        0.00000000       1.39123400       1.48297900      -0.00000000      -0.00324232      -0.00546672
H       -1.20484400      -0.69561700       1.48297900       0.00280793       0.00162116      -0.00546672
H        1.20484400      -0.69561700       1.48297900      -0.00280793       0.00162116      -0.00546672
