8
Properties=species:S:1:pos:R:3:forces:R:3 calculation_type=dimer_refinement calculation_label=CH3SiH3/refinement_100/point_077_distance_2.15 d4_functional=B97M d4_method=b97m d4_energy_eV=-0.14907856506238945 source_geometry=/mnt/ceph/users/cwoodson/dft_calc/diatomics/dimer_jobs/CH3SiH3/refinement_100/point_077_distance_2.15/geometry.in energy=-0.14907856506238945 free_energy=-0.14907856506238945 pbc="F F F"
C        0.00000000       0.00000000      -1.07500000       0.00000000      -0.00000000      -0.00170574
Si       0.00000000       0.00000000       1.07500000       0.00000000       0.00000000       0.00087600
H        0.00000000      -1.01976200      -1.46689700       0.00000000      -0.00065228       0.00469086
H       -0.88314000       0.50988100      -1.46689700      -0.00056490       0.00032614       0.00469086
H        0.88314000       0.50988100      -1.46689700       0.00056490       0.00032614       0.00469086
H        0.00000000       1.39123400       1.59797900       0.00000000      -0.00084539      -0.00441428
H       -1.20484400      -0.69561700       1.59797900       0.00073213       0.00042269      -0.00441428
H        1.20484400      -0.69561700       1.59797900      -0.00073213       0.00042269      -0.00441428
