8
Properties=species:S:1:pos:R:3:forces:R:3 calculation_type=dimer_refinement calculation_label=CH3SiH3/refinement_100/point_011_distance_1.49 d4_functional=B97M d4_method=b97m d4_energy_eV=-0.16676217001648147 source_geometry=/mnt/ceph/users/cwoodson/dft_calc/diatomics/dimer_jobs/CH3SiH3/refinement_100/point_011_distance_1.49/geometry.in energy=-0.16676217001648147 free_energy=-0.16676217001648147 pbc="F F F"
C        0.00000000       0.00000000      -0.74500000       0.00000000      -0.00000000       0.01517827
Si       0.00000000       0.00000000       0.74500000       0.00000000       0.00000000      -0.00536189
H        0.00000000      -1.01976200      -1.13689700       0.00000000      -0.00113892       0.00160036
H       -0.88314000       0.50988100      -1.13689700      -0.00098633       0.00056946       0.00160036
H        0.88314000       0.50988100      -1.13689700       0.00098633       0.00056946       0.00160036
H        0.00000000       1.39123400       1.26797900       0.00000000      -0.00381676      -0.00487248
H       -1.20484400      -0.69561700       1.26797900       0.00330541       0.00190838      -0.00487248
H        1.20484400      -0.69561700       1.26797900      -0.00330541       0.00190838      -0.00487248
