2
Properties=species:S:1:pos:R:3:forces:R:3 calculation_type=dimer_refinement calculation_label=LiCl/refinement_100/point_030_distance_1.81 d4_functional=B97M d4_method=b97m d4_energy_eV=-0.017057015727644325 source_geometry=/mnt/ceph/users/cwoodson/dft_calc/diatomics/dimer_jobs/LiCl/refinement_100/point_030_distance_1.81/geometry.in energy=-0.017057015727644325 free_energy=-0.017057015727644325 pbc="F F F"
Li       0.00000000       0.00000000      -0.90500000      -0.00000000      -0.00000000       0.00012485
Cl       0.00000000       0.00000000       0.90500000      -0.00000000      -0.00000000      -0.00012485
