2
Properties=species:S:1:pos:R:3:forces:R:3 calculation_type=dimer_refinement calculation_label=LiCl/refinement_41/point_008_distance_1.890000 d4_functional=B97M d4_method=b97m d4_energy_eV=-0.01704187885365884 source_geometry=/mnt/ceph/users/cwoodson/dft_calc/diatomics/dimer_jobs/LiCl/refinement_41/point_008_distance_1.890000/geometry.in energy=-0.01704187885365884 free_energy=-0.01704187885365884 pbc="F F F"
Li       0.00000000       0.00000000      -0.94500000      -0.00000000      -0.00000000       0.00025324
Cl       0.00000000       0.00000000       0.94500000      -0.00000000      -0.00000000      -0.00025324
