2
Properties=species:S:1:pos:R:3:forces:R:3 calculation_type=dimer_refinement calculation_label=LiCl/refinement_41/point_031_distance_2.120000 d4_functional=B97M d4_method=b97m d4_energy_eV=-0.016955323712666635 source_geometry=/mnt/ceph/users/cwoodson/dft_calc/diatomics/dimer_jobs/LiCl/refinement_41/point_031_distance_2.120000/geometry.in energy=-0.016955323712666635 free_energy=-0.016955323712666635 pbc="F F F"
Li       0.00000000       0.00000000      -1.06000000      -0.00000000      -0.00000000       0.00037523
Cl       0.00000000       0.00000000       1.06000000      -0.00000000      -0.00000000      -0.00037523
