2
Properties=species:S:1:pos:R:3:forces:R:3 calculation_type=dimer_refinement calculation_label=LiCl/refinement_100/point_086_distance_2.37 d4_functional=B97M d4_method=b97m d4_energy_eV=-0.017115057539507685 source_geometry=/mnt/ceph/users/cwoodson/dft_calc/diatomics/dimer_jobs/LiCl/refinement_100/point_086_distance_2.37/geometry.in energy=-0.017115057539507685 free_energy=-0.017115057539507685 pbc="F F F"
Li       0.00000000       0.00000000      -1.18500000      -0.00000000      -0.00000000      -0.00293407
Cl       0.00000000       0.00000000       1.18500000      -0.00000000      -0.00000000       0.00293407
