2
Properties=species:S:1:pos:R:3:forces:R:3 calculation_type=dimer_refinement calculation_label=LiCl/refinement_41/point_007_distance_1.880000 d4_functional=B97M d4_method=b97m d4_energy_eV=-0.01704433222859272 source_geometry=/mnt/ceph/users/cwoodson/dft_calc/diatomics/dimer_jobs/LiCl/refinement_41/point_007_distance_1.880000/geometry.in energy=-0.01704433222859272 free_energy=-0.01704433222859272 pbc="F F F"
Li       0.00000000       0.00000000      -0.94000000      -0.00000000      -0.00000000       0.00023741
Cl       0.00000000       0.00000000       0.94000000      -0.00000000      -0.00000000      -0.00023741
