2
Properties=species:S:1:pos:R:3:forces:R:3 calculation_type=dimer_refinement calculation_label=LiCl/refinement_100/point_021_distance_1.72 d4_functional=B97M d4_method=b97m d4_energy_eV=-0.017061872757451777 source_geometry=/mnt/ceph/users/cwoodson/dft_calc/diatomics/dimer_jobs/LiCl/refinement_100/point_021_distance_1.72/geometry.in energy=-0.017061872757451777 free_energy=-0.017061872757451777 pbc="F F F"
Li       0.00000000       0.00000000      -0.86000000      -0.00000000      -0.00000000      -0.00001536
Cl       0.00000000       0.00000000       0.86000000      -0.00000000      -0.00000000       0.00001536
