2
Properties=species:S:1:pos:R:3:forces:R:3 calculation_type=dimer_refinement calculation_label=LiF/refinement_100/point_076_distance_1.81 d4_functional=B97M d4_method=b97m d4_energy_eV=-0.010048712408314677 source_geometry=/mnt/ceph/users/cwoodson/dft_calc/diatomics/dimer_jobs/LiF/refinement_100/point_076_distance_1.81/geometry.in energy=-0.010048712408314677 free_energy=-0.010048712408314677 pbc="F F F"
Li       0.00000000       0.00000000      -0.90500000      -0.00000000      -0.00000000       0.00009973
F        0.00000000       0.00000000       0.90500000      -0.00000000      -0.00000000      -0.00009973
