2
Properties=species:S:1:pos:R:3:forces:R:3 calculation_type=dimer_refinement calculation_label=LiF/refinement_100/point_080_distance_1.85 d4_functional=B97M d4_method=b97m d4_energy_eV=-0.010052068967114606 source_geometry=/mnt/ceph/users/cwoodson/dft_calc/diatomics/dimer_jobs/LiF/refinement_100/point_080_distance_1.85/geometry.in energy=-0.010052068967114606 free_energy=-0.010052068967114606 pbc="F F F"
Li       0.00000000       0.00000000      -0.92500000      -0.00000000      -0.00000000      -0.00029670
F        0.00000000       0.00000000       0.92500000      -0.00000000      -0.00000000       0.00029670
