2
Properties=species:S:1:pos:R:3:forces:R:3 calculation_type=dimer_refinement calculation_label=LiF/refinement_41/point_023_distance_1.580000 d4_functional=B97M d4_method=b97m d4_energy_eV=-0.010168262474875475 source_geometry=/mnt/ceph/users/cwoodson/dft_calc/diatomics/dimer_jobs/LiF/refinement_41/point_023_distance_1.580000/geometry.in energy=-0.010168262474875475 free_energy=-0.010168262474875475 pbc="F F F"
Li       0.00000000       0.00000000      -0.79000000      -0.00000000      -0.00000000       0.00067521
F        0.00000000       0.00000000       0.79000000      -0.00000000      -0.00000000      -0.00067521
