2
Properties=species:S:1:pos:R:3:forces:R:3 calculation_type=dimer_refinement calculation_label=MgO/refinement_41/point_030_distance_1.840000 d4_functional=B97M d4_method=b97m d4_energy_eV=-0.03293431550847501 source_geometry=/mnt/ceph/users/cwoodson/dft_calc/diatomics/dimer_jobs/MgO/refinement_41/point_030_distance_1.840000/geometry.in energy=-0.03293431550847501 free_energy=-0.03293431550847501 pbc="F F F"
Mg       0.00000000       0.00000000      -0.92000000      -0.00000000      -0.00000000       0.00498424
O        0.00000000       0.00000000       0.92000000      -0.00000000      -0.00000000      -0.00498424
