2
Properties=species:S:1:pos:R:3:forces:R:3 calculation_type=dimer_refinement calculation_label=MgO/refinement_100/point_067_distance_1.91 d4_functional=B97M d4_method=b97m d4_energy_eV=-0.032600840421144965 source_geometry=/mnt/ceph/users/cwoodson/dft_calc/diatomics/dimer_jobs/MgO/refinement_100/point_067_distance_1.91/geometry.in energy=-0.032600840421144965 free_energy=-0.032600840421144965 pbc="F F F"
Mg       0.00000000       0.00000000      -0.95500000      -0.00000000      -0.00000000       0.00452967
O        0.00000000       0.00000000       0.95500000      -0.00000000      -0.00000000      -0.00452967
