2
Properties=species:S:1:pos:R:3:forces:R:3 calculation_type=dimer_refinement calculation_label=MgO/refinement_100/point_094_distance_2.18 d4_functional=B97M d4_method=b97m d4_energy_eV=-0.031914785819292836 source_geometry=/mnt/ceph/users/cwoodson/dft_calc/diatomics/dimer_jobs/MgO/refinement_100/point_094_distance_2.18/geometry.in energy=-0.031914785819292836 free_energy=-0.031914785819292836 pbc="F F F"
Mg       0.00000000       0.00000000      -1.09000000      -0.00000000      -0.00000000      -0.00151789
O        0.00000000       0.00000000       1.09000000      -0.00000000      -0.00000000       0.00151789
