2
Properties=species:S:1:pos:R:3:forces:R:3 calculation_type=dimer_refinement calculation_label=MgO/refinement_100/point_010_distance_1.34 d4_functional=B97M d4_method=b97m d4_energy_eV=-0.03662533490541166 source_geometry=/mnt/ceph/users/cwoodson/dft_calc/diatomics/dimer_jobs/MgO/refinement_100/point_010_distance_1.34/geometry.in energy=-0.03662533490541166 free_energy=-0.03662533490541166 pbc="F F F"
Mg       0.00000000       0.00000000      -0.67000000      -0.00000000      -0.00000000       0.01157347
O        0.00000000       0.00000000       0.67000000      -0.00000000      -0.00000000      -0.01157347
