5
Properties=species:S:1:pos:R:3:forces:R:3 calculation_type=dimer_refinement calculation_label=MgOH2/refinement_41/point_008_distance_1.640000 d4_functional=B97M d4_method=b97m d4_energy_eV=-0.07110280116283096 source_geometry=/mnt/ceph/users/cwoodson/dft_calc/diatomics/dimer_jobs/MgOH2/refinement_41/point_008_distance_1.640000/geometry.in energy=-0.07110280116283096 free_energy=-0.07110280116283096 pbc="F F F"
Mg       0.00000000       0.00000000       0.00000000      -0.00000000       0.00000000      -0.00000000
O       -1.62357683       0.23151302       0.00000000       0.02081118      -0.00213013      -0.00000000
O        1.62357683      -0.23151302       0.00000000      -0.02081118       0.00213013      -0.00000000
H       -2.43997883       0.71135602       0.00000000      -0.00266092       0.00021854      -0.00000000
H        2.43997883      -0.71135602       0.00000000       0.00266092      -0.00021854      -0.00000000
