5
Properties=species:S:1:pos:R:3:forces:R:3 calculation_type=dimer_refinement calculation_label=MgOH2/refinement_41/point_035_distance_1.910000 d4_functional=B97M d4_method=b97m d4_energy_eV=-0.06263126719665262 source_geometry=/mnt/ceph/users/cwoodson/dft_calc/diatomics/dimer_jobs/MgOH2/refinement_41/point_035_distance_1.910000/geometry.in energy=-0.06263126719665262 free_energy=-0.06263126719665262 pbc="F F F"
Mg       0.00000000       0.00000000       0.00000000      -0.00000000       0.00000000      -0.00000000
O       -1.89087301       0.26962797       0.00000000       0.00989736      -0.00188576      -0.00000000
O        1.89087301      -0.26962797       0.00000000      -0.00989736       0.00188576      -0.00000000
H       -2.70727501       0.74947097       0.00000000       0.00072872       0.00012964      -0.00000000
H        2.70727501      -0.74947097       0.00000000      -0.00072872      -0.00012964      -0.00000000
