2
Properties=species:S:1:pos:R:3:forces:R:3 calculation_type=dimer_refinement calculation_label=MgS/refinement_100/point_031_distance_1.97 d4_functional=B97M d4_method=b97m d4_energy_eV=-0.054464728904680154 source_geometry=/mnt/ceph/users/cwoodson/dft_calc/diatomics/dimer_jobs/MgS/refinement_100/point_031_distance_1.97/geometry.in energy=-0.054464728904680154 free_energy=-0.054464728904680154 pbc="F F F"
Mg       0.00000000       0.00000000      -0.98500000      -0.00000000      -0.00000000       0.00241837
S        0.00000000       0.00000000       0.98500000      -0.00000000      -0.00000000      -0.00241837
