2
Properties=species:S:1:pos:R:3:forces:R:3 calculation_type=dimer_refinement calculation_label=MgS/refinement_41/point_023_distance_2.190000 d4_functional=B97M d4_method=b97m d4_energy_eV=-0.05382746625978979 source_geometry=/mnt/ceph/users/cwoodson/dft_calc/diatomics/dimer_jobs/MgS/refinement_41/point_023_distance_2.190000/geometry.in energy=-0.05382746625978979 free_energy=-0.05382746625978979 pbc="F F F"
Mg       0.00000000       0.00000000      -1.09500000      -0.00000000      -0.00000000       0.00343980
S        0.00000000       0.00000000       1.09500000      -0.00000000      -0.00000000      -0.00343980
