2
Properties=species:S:1:pos:R:3:forces:R:3 calculation_type=dimer_refinement calculation_label=MgS/refinement_41/point_040_distance_2.360000 d4_functional=B97M d4_method=b97m d4_energy_eV=-0.053164740793002076 source_geometry=/mnt/ceph/users/cwoodson/dft_calc/diatomics/dimer_jobs/MgS/refinement_41/point_040_distance_2.360000/geometry.in energy=-0.053164740793002076 free_energy=-0.053164740793002076 pbc="F F F"
Mg       0.00000000       0.00000000      -1.18000000      -0.00000000      -0.00000000       0.00433629
S        0.00000000       0.00000000       1.18000000      -0.00000000      -0.00000000      -0.00433629
