2
Properties=species:S:1:pos:R:3:forces:R:3 calculation_type=dimer_refinement calculation_label=MgS/refinement_100/point_026_distance_1.92 d4_functional=B97M d4_method=b97m d4_energy_eV=-0.0545812527365491 source_geometry=/mnt/ceph/users/cwoodson/dft_calc/diatomics/dimer_jobs/MgS/refinement_100/point_026_distance_1.92/geometry.in energy=-0.0545812527365491 free_energy=-0.0545812527365491 pbc="F F F"
Mg       0.00000000       0.00000000      -0.96000000      -0.00000000      -0.00000000       0.00224661
S        0.00000000       0.00000000       0.96000000      -0.00000000      -0.00000000      -0.00224661
