2
Properties=species:S:1:pos:R:3:forces:R:3 calculation_type=dimer_refinement calculation_label=MgS/refinement_100/point_085_distance_2.51 d4_functional=B97M d4_method=b97m d4_energy_eV=-0.05247555541068706 source_geometry=/mnt/ceph/users/cwoodson/dft_calc/diatomics/dimer_jobs/MgS/refinement_100/point_085_distance_2.51/geometry.in energy=-0.05247555541068706 free_energy=-0.05247555541068706 pbc="F F F"
Mg       0.00000000       0.00000000      -1.25500000      -0.00000000      -0.00000000       0.00472694
S        0.00000000       0.00000000       1.25500000      -0.00000000      -0.00000000      -0.00472694
