2
Properties=species:S:1:pos:R:3:forces:R:3 calculation_type=dimer_refinement calculation_label=MgS/refinement_100/point_048_distance_2.14 d4_functional=B97M d4_method=b97m d4_energy_eV=-0.053992803701751246 source_geometry=/mnt/ceph/users/cwoodson/dft_calc/diatomics/dimer_jobs/MgS/refinement_100/point_048_distance_2.14/geometry.in energy=-0.053992803701751246 free_energy=-0.053992803701751246 pbc="F F F"
Mg       0.00000000       0.00000000      -1.07000000      -0.00000000      -0.00000000       0.00317580
S        0.00000000       0.00000000       1.07000000      -0.00000000      -0.00000000      -0.00317580
