2
Properties=species:S:1:pos:R:3:forces:R:3 calculation_type=dimer_refinement calculation_label=MgS/refinement_41/point_005_distance_2.010000 d4_functional=B97M d4_method=b97m d4_energy_eV=-0.05436494947582734 source_geometry=/mnt/ceph/users/cwoodson/dft_calc/diatomics/dimer_jobs/MgS/refinement_41/point_005_distance_2.010000/geometry.in energy=-0.05436494947582734 free_energy=-0.05436494947582734 pbc="F F F"
Mg       0.00000000       0.00000000      -1.00500000      -0.00000000      -0.00000000       0.00257317
S        0.00000000       0.00000000       1.00500000      -0.00000000      -0.00000000      -0.00257317
