5
Properties=species:S:1:pos:R:3:forces:R:3 calculation_type=dimer_refinement calculation_label=MgSH2/refinement_41/point_005_distance_2.130000 d4_functional=B97M d4_method=b97m d4_energy_eV=-0.11436440638260517 source_geometry=/mnt/ceph/users/cwoodson/dft_calc/diatomics/dimer_jobs/MgSH2/refinement_41/point_005_distance_2.130000/geometry.in energy=-0.11436440638260517 free_energy=-0.11436440638260517 pbc="F F F"
Mg       0.00000000       0.00000000       0.00000000       0.00000000      -0.00000000      -0.00000000
S       -2.11948379      -0.21139642       0.00000000       0.02094525      -0.00247638      -0.00000000
S        2.11948379       0.21139642       0.00000000      -0.02094525       0.00247638      -0.00000000
H       -2.30379579       1.11750058      -0.00000000       0.00384740       0.00233394      -0.00000000
H        2.30379579      -1.11750058      -0.00000000      -0.00384740      -0.00233394      -0.00000000
