5
Properties=species:S:1:pos:R:3:forces:R:3 calculation_type=dimer_refinement calculation_label=MgSH2/refinement_41/point_040_distance_2.480000 d4_functional=B97M d4_method=b97m d4_energy_eV=-0.10131736158943434 source_geometry=/mnt/ceph/users/cwoodson/dft_calc/diatomics/dimer_jobs/MgSH2/refinement_41/point_040_distance_2.480000/geometry.in energy=-0.10131736158943434 free_energy=-0.10131736158943434 pbc="F F F"
Mg       0.00000000       0.00000000       0.00000000       0.00000000       0.00000000      -0.00000000
S       -2.46775578      -0.24613292       0.00000000       0.00780009      -0.00302631      -0.00000000
S        2.46775578       0.24613292       0.00000000      -0.00780009       0.00302631      -0.00000000
H       -2.65206778       1.08276408       0.00000000       0.00442319       0.00173403      -0.00000000
H        2.65206778      -1.08276408       0.00000000      -0.00442319      -0.00173403      -0.00000000
