5
Properties=species:S:1:pos:R:3:forces:R:3 calculation_type=dimer_refinement calculation_label=MgSH2/refinement_41/point_019_distance_2.270000 d4_functional=B97M d4_method=b97m d4_energy_eV=-0.1081227020898253 source_geometry=/mnt/ceph/users/cwoodson/dft_calc/diatomics/dimer_jobs/MgSH2/refinement_41/point_019_distance_2.270000/geometry.in energy=-0.1081227020898253 free_energy=-0.1081227020898253 pbc="F F F"
Mg       0.00000000       0.00000000       0.00000000       0.00000000      -0.00000000      -0.00000000
S       -2.25879259      -0.22529102       0.00000000       0.01563664      -0.00264735      -0.00000000
S        2.25879259       0.22529102       0.00000000      -0.01563664       0.00264735      -0.00000000
H       -2.44310459       1.10360598      -0.00000000       0.00444413       0.00188204      -0.00000000
H        2.44310459      -1.10360598      -0.00000000      -0.00444413      -0.00188204      -0.00000000
