5
Properties=species:S:1:pos:R:3:forces:R:3 calculation_type=dimer_refinement calculation_label=MgSH2/refinement_41/point_011_distance_2.190000 d4_functional=B97M d4_method=b97m d4_energy_eV=-0.1115262986566343 source_geometry=/mnt/ceph/users/cwoodson/dft_calc/diatomics/dimer_jobs/MgSH2/refinement_41/point_011_distance_2.190000/geometry.in energy=-0.1115262986566343 free_energy=-0.1115262986566343 pbc="F F F"
Mg       0.00000000       0.00000000       0.00000000       0.00000000       0.00000000      -0.00000000
S       -2.17918756      -0.21735125       0.00000000       0.01858149      -0.00254900      -0.00000000
S        2.17918756       0.21735125       0.00000000      -0.01858149       0.00254900      -0.00000000
H       -2.36349956       1.11154575      -0.00000000       0.00421578       0.00207634      -0.00000000
H        2.36349956      -1.11154575      -0.00000000      -0.00421578      -0.00207634      -0.00000000
