5
Properties=species:S:1:pos:R:3:forces:R:3 calculation_type=dimer_refinement calculation_label=MgSH2/refinement_41/point_024_distance_2.320000 d4_functional=B97M d4_method=b97m d4_energy_eV=-0.1062173726096948 source_geometry=/mnt/ceph/users/cwoodson/dft_calc/diatomics/dimer_jobs/MgSH2/refinement_41/point_024_distance_2.320000/geometry.in energy=-0.1062173726096948 free_energy=-0.1062173726096948 pbc="F F F"
Mg       0.00000000       0.00000000       0.00000000       0.00000000      -0.00000000      -0.00000000
S       -2.30854573      -0.23025338       0.00000000       0.01389953      -0.00271067      -0.00000000
S        2.30854573       0.23025338       0.00000000      -0.01389953       0.00271067      -0.00000000
H       -2.49285773       1.09864362       0.00000000       0.00448083       0.00181931      -0.00000000
H        2.49285773      -1.09864362       0.00000000      -0.00448083      -0.00181931      -0.00000000
