5
Properties=species:S:1:pos:R:3:forces:R:3 calculation_type=dimer_refinement calculation_label=MgSH2/refinement_41/point_029_distance_2.370000 d4_functional=B97M d4_method=b97m d4_energy_eV=-0.10448304679765143 source_geometry=/mnt/ceph/users/cwoodson/dft_calc/diatomics/dimer_jobs/MgSH2/refinement_41/point_029_distance_2.370000/geometry.in energy=-0.10448304679765143 free_energy=-0.10448304679765143 pbc="F F F"
Mg       0.00000000       0.00000000       0.00000000       0.00000000      -0.00000000      -0.00000000
S       -2.35829887      -0.23521574       0.00000000       0.01218302      -0.00278084      -0.00000000
S        2.35829887       0.23521574       0.00000000      -0.01218302       0.00278084      -0.00000000
H       -2.54261087       1.09368126       0.00000000       0.00447583       0.00178107      -0.00000000
H        2.54261087      -1.09368126       0.00000000      -0.00447583      -0.00178107      -0.00000000
