2
Properties=species:S:1:pos:R:3:forces:R:3 calculation_type=dimer_refinement calculation_label=NaCl/refinement_100/point_002_distance_1.87 d4_functional=B97M d4_method=b97m d4_energy_eV=-0.021574272103566435 source_geometry=/mnt/ceph/users/cwoodson/dft_calc/diatomics/dimer_jobs/NaCl/refinement_100/point_002_distance_1.87/geometry.in energy=-0.021574272103566435 free_energy=-0.021574272103566435 pbc="F F F"
Na       0.00000000       0.00000000      -0.93500000      -0.00000000      -0.00000000       0.00069075
Cl       0.00000000       0.00000000       0.93500000      -0.00000000      -0.00000000      -0.00069075
