2
Properties=species:S:1:pos:R:3:forces:R:3 calculation_type=dimer_refinement calculation_label=NaCl/refinement_41/point_026_distance_2.410000 d4_functional=B97M d4_method=b97m d4_energy_eV=-0.02105845549275332 source_geometry=/mnt/ceph/users/cwoodson/dft_calc/diatomics/dimer_jobs/NaCl/refinement_41/point_026_distance_2.410000/geometry.in energy=-0.02105845549275332 free_energy=-0.02105845549275332 pbc="F F F"
Na       0.00000000       0.00000000      -1.20500000      -0.00000000      -0.00000000       0.00088838
Cl       0.00000000       0.00000000       1.20500000      -0.00000000      -0.00000000      -0.00088838
