2
Properties=species:S:1:pos:R:3:forces:R:3 calculation_type=dimer_refinement calculation_label=NaCl/refinement_41/point_025_distance_2.400000 d4_functional=B97M d4_method=b97m d4_energy_eV=-0.021067554847375783 source_geometry=/mnt/ceph/users/cwoodson/dft_calc/diatomics/dimer_jobs/NaCl/refinement_41/point_025_distance_2.400000/geometry.in energy=-0.021067554847375783 free_energy=-0.021067554847375783 pbc="F F F"
Na       0.00000000       0.00000000      -1.20000000      -0.00000000      -0.00000000       0.00093060
Cl       0.00000000       0.00000000       1.20000000      -0.00000000      -0.00000000      -0.00093060
