2
Properties=species:S:1:pos:R:3:forces:R:3 calculation_type=dimer_refinement calculation_label=NaCl/refinement_41/point_002_distance_2.170000 d4_functional=B97M d4_method=b97m d4_energy_eV=-0.021316706178126574 source_geometry=/mnt/ceph/users/cwoodson/dft_calc/diatomics/dimer_jobs/NaCl/refinement_41/point_002_distance_2.170000/geometry.in energy=-0.021316706178126574 free_energy=-0.021316706178126574 pbc="F F F"
Na       0.00000000       0.00000000      -1.08500000      -0.00000000      -0.00000000       0.00104862
Cl       0.00000000       0.00000000       1.08500000      -0.00000000      -0.00000000      -0.00104862
