2
Properties=species:S:1:pos:R:3:forces:R:3 calculation_type=dimer_refinement calculation_label=NaCl/refinement_41/point_041_distance_2.560000 d4_functional=B97M d4_method=b97m d4_energy_eV=-0.02101757889974182 source_geometry=/mnt/ceph/users/cwoodson/dft_calc/diatomics/dimer_jobs/NaCl/refinement_41/point_041_distance_2.560000/geometry.in energy=-0.02101757889974182 free_energy=-0.02101757889974182 pbc="F F F"
Na       0.00000000       0.00000000      -1.28000000      -0.00000000      -0.00000000      -0.00070927
Cl       0.00000000       0.00000000       1.28000000      -0.00000000      -0.00000000       0.00070927
