2
Properties=species:S:1:pos:R:3:forces:R:3 calculation_type=dimer_refinement calculation_label=NaCl/refinement_41/point_012_distance_2.270000 d4_functional=B97M d4_method=b97m d4_energy_eV=-0.021207079513941032 source_geometry=/mnt/ceph/users/cwoodson/dft_calc/diatomics/dimer_jobs/NaCl/refinement_41/point_012_distance_2.270000/geometry.in energy=-0.021207079513941032 free_energy=-0.021207079513941032 pbc="F F F"
Na       0.00000000       0.00000000      -1.13500000      -0.00000000      -0.00000000       0.00112746
Cl       0.00000000       0.00000000       1.13500000      -0.00000000      -0.00000000      -0.00112746
