2
Properties=species:S:1:pos:R:3:forces:R:3 calculation_type=dimer_refinement calculation_label=NaCl/refinement_100/point_006_distance_1.91 d4_functional=B97M d4_method=b97m d4_energy_eV=-0.021545926572641746 source_geometry=/mnt/ceph/users/cwoodson/dft_calc/diatomics/dimer_jobs/NaCl/refinement_100/point_006_distance_1.91/geometry.in energy=-0.021545926572641746 free_energy=-0.021545926572641746 pbc="F F F"
Na       0.00000000       0.00000000      -0.95500000      -0.00000000      -0.00000000       0.00072735
Cl       0.00000000       0.00000000       0.95500000      -0.00000000      -0.00000000      -0.00072735
