2
Properties=species:S:1:pos:R:3:forces:R:3 calculation_type=dimer_refinement calculation_label=NaF/refinement_100/point_093_distance_2.36 d4_functional=B97M d4_method=b97m d4_energy_eV=-0.013869580633201874 source_geometry=/mnt/ceph/users/cwoodson/dft_calc/diatomics/dimer_jobs/NaF/refinement_100/point_093_distance_2.36/geometry.in energy=-0.013869580633201874 free_energy=-0.013869580633201874 pbc="F F F"
Na       0.00000000       0.00000000      -1.18000000      -0.00000000      -0.00000000      -0.01273901
F        0.00000000       0.00000000       1.18000000      -0.00000000      -0.00000000       0.01273901
