2
Properties=species:S:1:pos:R:3:forces:R:3 calculation_type=dimer_refinement calculation_label=NaF/refinement_100/point_089_distance_2.32 d4_functional=B97M d4_method=b97m d4_energy_eV=-0.013440569212482736 source_geometry=/mnt/ceph/users/cwoodson/dft_calc/diatomics/dimer_jobs/NaF/refinement_100/point_089_distance_2.32/geometry.in energy=-0.013440569212482736 free_energy=-0.013440569212482736 pbc="F F F"
Na       0.00000000       0.00000000      -1.16000000      -0.00000000      -0.00000000      -0.00889394
F        0.00000000       0.00000000       1.16000000      -0.00000000      -0.00000000       0.00889394
