2
Properties=species:S:1:pos:R:3:forces:R:3 calculation_type=dimer_refinement calculation_label=NaF/refinement_100/point_023_distance_1.66 d4_functional=B97M d4_method=b97m d4_energy_eV=-0.013178950260016541 source_geometry=/mnt/ceph/users/cwoodson/dft_calc/diatomics/dimer_jobs/NaF/refinement_100/point_023_distance_1.66/geometry.in energy=-0.013178950260016541 free_energy=-0.013178950260016541 pbc="F F F"
Na       0.00000000       0.00000000      -0.83000000      -0.00000000      -0.00000000       0.00133611
F        0.00000000       0.00000000       0.83000000      -0.00000000      -0.00000000      -0.00133611
