2
Properties=species:S:1:pos:R:3:forces:R:3 calculation_type=dimer_refinement calculation_label=NaF/refinement_41/point_033_distance_2.060000 d4_functional=B97M d4_method=b97m d4_energy_eV=-0.012728881314349549 source_geometry=/mnt/ceph/users/cwoodson/dft_calc/diatomics/dimer_jobs/NaF/refinement_41/point_033_distance_2.060000/geometry.in energy=-0.012728881314349549 free_energy=-0.012728881314349549 pbc="F F F"
Na       0.00000000       0.00000000      -1.03000000      -0.00000000      -0.00000000       0.00040769
F        0.00000000       0.00000000       1.03000000      -0.00000000      -0.00000000      -0.00040769
