8
Properties=species:S:1:pos:R:3:forces:R:3 calculation_type=dimer_refinement calculation_label=Si2H6/refinement_41/point_034_distance_2.460000 d4_functional=B97M d4_method=b97m d4_energy_eV=-0.17816718367169776 source_geometry=/mnt/ceph/users/cwoodson/dft_calc/diatomics/dimer_jobs/Si2H6/refinement_41/point_034_distance_2.460000/geometry.in energy=-0.17816718367169776 free_energy=-0.17816718367169776 pbc="F F F"
Si      -0.00000000      -0.00000739       1.23000000       0.00000001      -0.00000003      -0.01800806
Si       0.00000000       0.00000739      -1.23000000      -0.00000001       0.00000003       0.01800807
H       -0.00000200       1.38690861       1.74162100       0.00000000      -0.00318474      -0.00642677
H       -1.20110300      -0.69345939       1.74163300       0.00275809       0.00159241      -0.00642672
H        1.20110400      -0.69345639       1.74163300      -0.00275810       0.00159241      -0.00642673
H       -0.00000200      -1.38690861      -1.74162100       0.00000000       0.00318474       0.00642677
H       -1.20110300       0.69345939      -1.74163200       0.00275809      -0.00159241       0.00642673
H        1.20110500       0.69345639      -1.74163300      -0.00275809      -0.00159240       0.00642672
