8
Properties=species:S:1:pos:R:3:forces:R:3 calculation_type=dimer_refinement calculation_label=Si2H6/refinement_100/point_033_distance_2.15 d4_functional=B97M d4_method=b97m d4_energy_eV=-0.19071893184979696 source_geometry=/mnt/ceph/users/cwoodson/dft_calc/diatomics/dimer_jobs/Si2H6/refinement_100/point_033_distance_2.15/geometry.in energy=-0.19071893184979696 free_energy=-0.19071893184979696 pbc="F F F"
Si       0.00000000       0.00000000       1.07500000       0.00000000      -0.00000000      -0.02220633
Si       0.00000000       0.00000000      -1.07500000      -0.00000000       0.00000000       0.02220633
H        0.00000000       1.39328600       1.59333700      -0.00000000      -0.00395447      -0.00687778
H       -1.20662100      -0.69664300       1.59333700       0.00342467       0.00197724      -0.00687778
H        1.20662100      -0.69664300       1.59333700      -0.00342467       0.00197724      -0.00687778
H        0.00000000      -1.39328600      -1.59333700      -0.00000000       0.00395447       0.00687778
H       -1.20662100       0.69664300      -1.59333700       0.00342467      -0.00197724       0.00687778
H        1.20662100       0.69664300      -1.59333700      -0.00342467      -0.00197724       0.00687778
