8
Properties=species:S:1:pos:R:3:forces:R:3 calculation_type=dimer_refinement calculation_label=Si2H6/refinement_100/point_011_distance_1.93 d4_functional=B97M d4_method=b97m d4_energy_eV=-0.1998647882067834 source_geometry=/mnt/ceph/users/cwoodson/dft_calc/diatomics/dimer_jobs/Si2H6/refinement_100/point_011_distance_1.93/geometry.in energy=-0.1998647882067834 free_energy=-0.1998647882067834 pbc="F F F"
Si       0.00000000       0.00000000       0.96500000       0.00000000      -0.00000000      -0.01991016
Si       0.00000000       0.00000000      -0.96500000       0.00000000       0.00000000       0.01991016
H        0.00000000       1.39328600       1.48333700      -0.00000000      -0.00392281      -0.00665286
H       -1.20662100      -0.69664300       1.48333700       0.00339725       0.00196140      -0.00665286
H        1.20662100      -0.69664300       1.48333700      -0.00339725       0.00196140      -0.00665286
H        0.00000000      -1.39328600      -1.48333700      -0.00000000       0.00392281       0.00665286
H       -1.20662100       0.69664300      -1.48333700       0.00339725      -0.00196140       0.00665286
H        1.20662100       0.69664300      -1.48333700      -0.00339725      -0.00196140       0.00665286
