8
Properties=species:S:1:pos:R:3:forces:R:3 calculation_type=dimer_refinement calculation_label=Si2H6/refinement_100/point_012_distance_1.94 d4_functional=B97M d4_method=b97m d4_energy_eV=-0.19946517781096704 source_geometry=/mnt/ceph/users/cwoodson/dft_calc/diatomics/dimer_jobs/Si2H6/refinement_100/point_012_distance_1.94/geometry.in energy=-0.19946517781096704 free_energy=-0.19946517781096704 pbc="F F F"
Si       0.00000000       0.00000000       0.97000000      -0.00000000      -0.00000000      -0.02004247
Si       0.00000000       0.00000000      -0.97000000       0.00000000       0.00000000       0.02004247
H        0.00000000       1.39328600       1.48833700       0.00000000      -0.00392876      -0.00667011
H       -1.20662100      -0.69664300       1.48833700       0.00340240       0.00196438      -0.00667011
H        1.20662100      -0.69664300       1.48833700      -0.00340240       0.00196438      -0.00667011
H        0.00000000      -1.39328600      -1.48833700       0.00000000       0.00392876       0.00667011
H       -1.20662100       0.69664300      -1.48833700       0.00340240      -0.00196438       0.00667011
H        1.20662100       0.69664300      -1.48833700      -0.00340240      -0.00196438       0.00667011
