8
Properties=species:S:1:pos:R:3:forces:R:3 calculation_type=dimer_refinement calculation_label=Si2H6/refinement_100/point_028_distance_2.10 d4_functional=B97M d4_method=b97m d4_energy_eV=-0.1928510765093836 source_geometry=/mnt/ceph/users/cwoodson/dft_calc/diatomics/dimer_jobs/Si2H6/refinement_100/point_028_distance_2.10/geometry.in energy=-0.1928510765093836 free_energy=-0.1928510765093836 pbc="F F F"
Si       0.00000000       0.00000000       1.05000000      -0.00000000      -0.00000000      -0.02183782
Si       0.00000000       0.00000000      -1.05000000      -0.00000000       0.00000000       0.02183782
H        0.00000000       1.39328600       1.56833700      -0.00000000      -0.00396974      -0.00685884
H       -1.20662100      -0.69664300       1.56833700       0.00343789       0.00198487      -0.00685884
H        1.20662100      -0.69664300       1.56833700      -0.00343789       0.00198487      -0.00685884
H        0.00000000      -1.39328600      -1.56833700      -0.00000000       0.00396974       0.00685884
H       -1.20662100       0.69664300      -1.56833700       0.00343789      -0.00198487       0.00685884
H        1.20662100       0.69664300      -1.56833700      -0.00343789      -0.00198487       0.00685884
