8
Properties=species:S:1:pos:R:3:forces:R:3 calculation_type=dimer_refinement calculation_label=Si2H6/refinement_100/point_003_distance_1.85 d4_functional=B97M d4_method=b97m d4_energy_eV=-0.20299240384405143 source_geometry=/mnt/ceph/users/cwoodson/dft_calc/diatomics/dimer_jobs/Si2H6/refinement_100/point_003_distance_1.85/geometry.in energy=-0.20299240384405143 free_energy=-0.20299240384405143 pbc="F F F"
Si       0.00000000       0.00000000       0.92500000       0.00000000      -0.00000000      -0.01880618
Si       0.00000000       0.00000000      -0.92500000       0.00000000       0.00000000       0.01880618
H        0.00000000       1.39328600       1.44333700      -0.00000000      -0.00386474      -0.00649586
H       -1.20662100      -0.69664300       1.44333700       0.00334697       0.00193237      -0.00649586
H        1.20662100      -0.69664300       1.44333700      -0.00334697       0.00193237      -0.00649586
H        0.00000000      -1.39328600      -1.44333700      -0.00000000       0.00386474       0.00649586
H       -1.20662100       0.69664300      -1.44333700       0.00334697      -0.00193237       0.00649586
H        1.20662100       0.69664300      -1.44333700      -0.00334697      -0.00193237       0.00649586
