8
Properties=species:S:1:pos:R:3:forces:R:3 calculation_type=dimer_refinement calculation_label=Si2H6/refinement_100/point_037_distance_2.19 d4_functional=B97M d4_method=b97m d4_energy_eV=-0.189001062054036 source_geometry=/mnt/ceph/users/cwoodson/dft_calc/diatomics/dimer_jobs/Si2H6/refinement_100/point_037_distance_2.19/geometry.in energy=-0.189001062054036 free_energy=-0.189001062054036 pbc="F F F"
Si       0.00000000       0.00000000       1.09500000       0.00000000      -0.00000000      -0.02240023
Si       0.00000000       0.00000000      -1.09500000       0.00000000       0.00000000       0.02240023
H        0.00000000       1.39328600       1.61333700       0.00000000      -0.00392852      -0.00687633
H       -1.20662100      -0.69664300       1.61333700       0.00340220       0.00196426      -0.00687633
H        1.20662100      -0.69664300       1.61333700      -0.00340220       0.00196426      -0.00687633
H        0.00000000      -1.39328600      -1.61333700       0.00000000       0.00392852       0.00687633
H       -1.20662100       0.69664300      -1.61333700       0.00340220      -0.00196426       0.00687633
H        1.20662100       0.69664300      -1.61333700      -0.00340220      -0.00196426       0.00687633
