8
Properties=species:S:1:pos:R:3:forces:R:3 calculation_type=dimer_refinement calculation_label=Si2H6/refinement_100/point_088_distance_2.70 d4_functional=B97M d4_method=b97m d4_energy_eV=-0.17663545238473172 source_geometry=/mnt/ceph/users/cwoodson/dft_calc/diatomics/dimer_jobs/Si2H6/refinement_100/point_088_distance_2.70/geometry.in energy=-0.17663545238473172 free_energy=-0.17663545238473172 pbc="F F F"
Si       0.00000000       0.00000000       1.35000000       0.00000000      -0.00000001       0.06937957
Si       0.00000000       0.00000000      -1.35000000      -0.00000000       0.00000001      -0.06937957
H        0.00000000       1.39328600       1.86833700      -0.00000000       0.00799040      -0.00178668
H       -1.20662100      -0.69664300       1.86833700      -0.00691988      -0.00399520      -0.00178668
H        1.20662100      -0.69664300       1.86833700       0.00691988      -0.00399520      -0.00178668
H        0.00000000      -1.39328600      -1.86833700       0.00000000      -0.00799040       0.00178668
H       -1.20662100       0.69664300      -1.86833700      -0.00691988       0.00399520       0.00178668
H        1.20662100       0.69664300      -1.86833700       0.00691988       0.00399520       0.00178668
