8
Properties=species:S:1:pos:R:3:forces:R:3 calculation_type=dimer_refinement calculation_label=Si2H6/refinement_100/point_055_distance_2.37 d4_functional=B97M d4_method=b97m d4_energy_eV=-0.1813352825969314 source_geometry=/mnt/ceph/users/cwoodson/dft_calc/diatomics/dimer_jobs/Si2H6/refinement_100/point_055_distance_2.37/geometry.in energy=-0.1813352825969314 free_energy=-0.1813352825969314 pbc="F F F"
Si       0.00000000       0.00000000       1.18500000      -0.00000000      -0.00000000      -0.02132884
Si       0.00000000       0.00000000      -1.18500000      -0.00000000       0.00000000       0.02132884
H        0.00000000       1.39328600       1.70333700      -0.00000000      -0.00353681      -0.00663203
H       -1.20662100      -0.69664300       1.70333700       0.00306297       0.00176841      -0.00663203
H        1.20662100      -0.69664300       1.70333700      -0.00306297       0.00176841      -0.00663203
H        0.00000000      -1.39328600      -1.70333700      -0.00000000       0.00353681       0.00663203
H       -1.20662100       0.69664300      -1.70333700       0.00306297      -0.00176841       0.00663203
H        1.20662100       0.69664300      -1.70333700      -0.00306297      -0.00176841       0.00663203
