8
Properties=species:S:1:pos:R:3:forces:R:3 calculation_type=dimer_refinement calculation_label=Si2H6/refinement_100/point_050_distance_2.32 d4_functional=B97M d4_method=b97m d4_energy_eV=-0.1834268329954258 source_geometry=/mnt/ceph/users/cwoodson/dft_calc/diatomics/dimer_jobs/Si2H6/refinement_100/point_050_distance_2.32/geometry.in energy=-0.1834268329954258 free_energy=-0.1834268329954258 pbc="F F F"
Si       0.00000000       0.00000000       1.16000000      -0.00000000      -0.00000000      -0.02208571
Si       0.00000000       0.00000000      -1.16000000       0.00000000       0.00000000       0.02208571
H        0.00000000       1.39328600       1.67833700       0.00000000      -0.00371247      -0.00674735
H       -1.20662100      -0.69664300       1.67833700       0.00321510       0.00185624      -0.00674735
H        1.20662100      -0.69664300       1.67833700      -0.00321510       0.00185624      -0.00674735
H        0.00000000      -1.39328600      -1.67833700      -0.00000000       0.00371247       0.00674735
H       -1.20662100       0.69664300      -1.67833700       0.00321510      -0.00185624       0.00674735
H        1.20662100       0.69664300      -1.67833700      -0.00321510      -0.00185624       0.00674735
