8
Properties=species:S:1:pos:R:3:forces:R:3 calculation_type=dimer_refinement calculation_label=Si2H6/refinement_100/point_042_distance_2.24 d4_functional=B97M d4_method=b97m d4_energy_eV=-0.18684827838817705 source_geometry=/mnt/ceph/users/cwoodson/dft_calc/diatomics/dimer_jobs/Si2H6/refinement_100/point_042_distance_2.24/geometry.in energy=-0.18684827838817705 free_energy=-0.18684827838817705 pbc="F F F"
Si       0.00000000       0.00000000       1.12000000      -0.00000000      -0.00000000      -0.02248127
Si       0.00000000       0.00000000      -1.12000000       0.00000000       0.00000000       0.02248127
H        0.00000000       1.39328600       1.63833700      -0.00000000      -0.00387401      -0.00685122
H       -1.20662100      -0.69664300       1.63833700       0.00335499       0.00193700      -0.00685122
H        1.20662100      -0.69664300       1.63833700      -0.00335499       0.00193700      -0.00685122
H        0.00000000      -1.39328600      -1.63833700      -0.00000000       0.00387401       0.00685122
H       -1.20662100       0.69664300      -1.63833700       0.00335499      -0.00193700       0.00685122
H        1.20662100       0.69664300      -1.63833700      -0.00335499      -0.00193700       0.00685122
