8
Properties=species:S:1:pos:R:3:forces:R:3 calculation_type=dimer_refinement calculation_label=Si2H6/refinement_100/point_032_distance_2.14 d4_functional=B97M d4_method=b97m d4_energy_eV=-0.19114698797642832 source_geometry=/mnt/ceph/users/cwoodson/dft_calc/diatomics/dimer_jobs/Si2H6/refinement_100/point_032_distance_2.14/geometry.in energy=-0.19114698797642832 free_energy=-0.19114698797642832 pbc="F F F"
Si       0.00000000       0.00000000       1.07000000      -0.00000000      -0.00000000      -0.02214288
Si       0.00000000       0.00000000      -1.07000000      -0.00000000       0.00000000       0.02214288
H        0.00000000       1.39328600       1.58833700      -0.00000000      -0.00395893      -0.00687577
H       -1.20662100      -0.69664300       1.58833700       0.00342853       0.00197946      -0.00687577
H        1.20662100      -0.69664300       1.58833700      -0.00342853       0.00197946      -0.00687577
H        0.00000000      -1.39328600      -1.58833700      -0.00000000       0.00395893       0.00687577
H       -1.20662100       0.69664300      -1.58833700       0.00342853      -0.00197946       0.00687577
H        1.20662100       0.69664300      -1.58833700      -0.00342853      -0.00197946       0.00687577
