8
Properties=species:S:1:pos:R:3:forces:R:3 calculation_type=dimer_refinement calculation_label=Si2H6/refinement_41/point_017_distance_2.290000 d4_functional=B97M d4_method=b97m d4_energy_eV=-0.18512626585554104 source_geometry=/mnt/ceph/users/cwoodson/dft_calc/diatomics/dimer_jobs/Si2H6/refinement_41/point_017_distance_2.290000/geometry.in energy=-0.18512626585554104 free_energy=-0.18512626585554104 pbc="F F F"
Si       0.00000000      -0.00000688       1.14500000       0.00000001       0.00000002      -0.02215675
Si       0.00000000       0.00000688      -1.14500000      -0.00000001      -0.00000002       0.02215675
H       -0.00000200       1.38690912       1.65662100       0.00000000      -0.00393386      -0.00689734
H       -1.20110300      -0.69345888       1.65663300       0.00340685       0.00196697      -0.00689733
H        1.20110400      -0.69345588       1.65663300      -0.00340686       0.00196696      -0.00689734
H       -0.00000200      -1.38690912      -1.65662100       0.00000001       0.00393386       0.00689734
H       -1.20110300       0.69345888      -1.65663200       0.00340686      -0.00196697       0.00689734
H        1.20110500       0.69345588      -1.65663300      -0.00340686      -0.00196696       0.00689733
