8
Properties=species:S:1:pos:R:3:forces:R:3 calculation_type=dimer_refinement calculation_label=Si2H6/refinement_41/point_007_distance_2.190000 d4_functional=B97M d4_method=b97m d4_energy_eV=-0.18943244232502898 source_geometry=/mnt/ceph/users/cwoodson/dft_calc/diatomics/dimer_jobs/Si2H6/refinement_41/point_007_distance_2.190000/geometry.in energy=-0.18943244232502898 free_energy=-0.18943244232502898 pbc="F F F"
Si       0.00000000      -0.00000657       1.09500000       0.00000001       0.00000003      -0.02217205
Si       0.00000000       0.00000657      -1.09500000      -0.00000001      -0.00000003       0.02217205
H       -0.00000200       1.38690943       1.60662100       0.00000000      -0.00405879      -0.00696474
H       -1.20110300      -0.69345857       1.60663300       0.00351505       0.00202944      -0.00696476
H        1.20110400      -0.69345557       1.60663300      -0.00351507       0.00202943      -0.00696476
H       -0.00000200      -1.38690943      -1.60662100       0.00000001       0.00405879       0.00696474
H       -1.20110300       0.69345857      -1.60663200       0.00351506      -0.00202944       0.00696476
H        1.20110500       0.69345557      -1.60663300      -0.00351506      -0.00202943       0.00696476
