8
Properties=species:S:1:pos:R:3:forces:R:3 calculation_type=dimer_refinement calculation_label=Si2H6/refinement_100/point_056_distance_2.38 d4_functional=B97M d4_method=b97m d4_energy_eV=-0.18092454590410545 source_geometry=/mnt/ceph/users/cwoodson/dft_calc/diatomics/dimer_jobs/Si2H6/refinement_100/point_056_distance_2.38/geometry.in energy=-0.18092454590410545 free_energy=-0.18092454590410545 pbc="F F F"
Si       0.00000000       0.00000000       1.19000000      -0.00000000      -0.00000000      -0.02110743
Si       0.00000000       0.00000000      -1.19000000      -0.00000000       0.00000000       0.02110743
H        0.00000000       1.39328600       1.70833700      -0.00000000      -0.00349132      -0.00660307
H       -1.20662100      -0.69664300       1.70833700       0.00302357       0.00174566      -0.00660307
H        1.20662100      -0.69664300       1.70833700      -0.00302357       0.00174566      -0.00660307
H        0.00000000      -1.39328600      -1.70833700      -0.00000000       0.00349132       0.00660307
H       -1.20662100       0.69664300      -1.70833700       0.00302357      -0.00174566       0.00660307
H        1.20662100       0.69664300      -1.70833700      -0.00302357      -0.00174566       0.00660307
