8
Properties=species:S:1:pos:R:3:forces:R:3 calculation_type=dimer_refinement calculation_label=Si2H6/refinement_100/point_066_distance_2.48 d4_functional=B97M d4_method=b97m d4_energy_eV=-0.177077868647285 source_geometry=/mnt/ceph/users/cwoodson/dft_calc/diatomics/dimer_jobs/Si2H6/refinement_100/point_066_distance_2.48/geometry.in energy=-0.177077868647285 free_energy=-0.177077868647285 pbc="F F F"
Si       0.00000000       0.00000000       1.24000000      -0.00000000      -0.00000000      -0.01645384
Si       0.00000000       0.00000000      -1.24000000       0.00000000       0.00000000       0.01645384
H        0.00000000       1.39328600       1.75833700       0.00000000      -0.00268777      -0.00614978
H       -1.20662100      -0.69664300       1.75833700       0.00232768       0.00134389      -0.00614978
H        1.20662100      -0.69664300       1.75833700      -0.00232768       0.00134389      -0.00614978
H        0.00000000      -1.39328600      -1.75833700      -0.00000000       0.00268777       0.00614978
H       -1.20662100       0.69664300      -1.75833700       0.00232768      -0.00134389       0.00614978
H        1.20662100       0.69664300      -1.75833700      -0.00232768      -0.00134389       0.00614978
