8
Properties=species:S:1:pos:R:3:forces:R:3 calculation_type=dimer_refinement calculation_label=Si2H6/refinement_100/point_035_distance_2.17 d4_functional=B97M d4_method=b97m d4_energy_eV=-0.18986094732853512 source_geometry=/mnt/ceph/users/cwoodson/dft_calc/diatomics/dimer_jobs/Si2H6/refinement_100/point_035_distance_2.17/geometry.in energy=-0.18986094732853512 free_energy=-0.18986094732853512 pbc="F F F"
Si       0.00000000       0.00000000       1.08500000      -0.00000000      -0.00000000      -0.02231589
Si       0.00000000       0.00000000      -1.08500000      -0.00000000       0.00000000       0.02231589
H        0.00000000       1.39328600       1.60333700      -0.00000000      -0.00394321      -0.00687900
H       -1.20662100      -0.69664300       1.60333700       0.00341492       0.00197160      -0.00687900
H        1.20662100      -0.69664300       1.60333700      -0.00341492       0.00197160      -0.00687900
H        0.00000000      -1.39328600      -1.60333700      -0.00000000       0.00394321       0.00687900
H       -1.20662100       0.69664300      -1.60333700       0.00341492      -0.00197160       0.00687900
H        1.20662100       0.69664300      -1.60333700      -0.00341492      -0.00197160       0.00687900
