8
Properties=species:S:1:pos:R:3:forces:R:3 calculation_type=dimer_refinement calculation_label=Si2H6/refinement_41/point_021_distance_2.330000 d4_functional=B97M d4_method=b97m d4_energy_eV=-0.1834214025881371 source_geometry=/mnt/ceph/users/cwoodson/dft_calc/diatomics/dimer_jobs/Si2H6/refinement_41/point_021_distance_2.330000/geometry.in energy=-0.1834214025881371 free_energy=-0.1834214025881371 pbc="F F F"
Si       0.00000000      -0.00000700       1.16500000       0.00000001       0.00000001      -0.02183662
Si       0.00000000       0.00000700      -1.16500000      -0.00000001      -0.00000002       0.02183662
H       -0.00000200       1.38690900       1.67662100       0.00000000      -0.00384339      -0.00683587
H       -1.20110300      -0.69345900       1.67663300       0.00332850       0.00192173      -0.00683586
H        1.20110400      -0.69345600       1.67663300      -0.00332852       0.00192173      -0.00683586
H       -0.00000200      -1.38690900      -1.67662100       0.00000000       0.00384339       0.00683587
H       -1.20110300       0.69345900      -1.67663200       0.00332851      -0.00192174       0.00683586
H        1.20110500       0.69345600      -1.67663300      -0.00332851      -0.00192172       0.00683585
