8
Properties=species:S:1:pos:R:3:forces:R:3 calculation_type=dimer_refinement calculation_label=Si2H6/refinement_100/point_053_distance_2.35 d4_functional=B97M d4_method=b97m d4_energy_eV=-0.1821651895413106 source_geometry=/mnt/ceph/users/cwoodson/dft_calc/diatomics/dimer_jobs/Si2H6/refinement_100/point_053_distance_2.35/geometry.in energy=-0.1821651895413106 free_energy=-0.1821651895413106 pbc="F F F"
Si       0.00000000       0.00000000       1.17500000      -0.00000000      -0.00000000      -0.02169476
Si       0.00000000       0.00000000      -1.17500000      -0.00000000       0.00000000       0.02169476
H        0.00000000       1.39328600       1.69333700      -0.00000000      -0.00361644      -0.00668369
H       -1.20662100      -0.69664300       1.69333700       0.00313193       0.00180822      -0.00668370
H        1.20662100      -0.69664300       1.69333700      -0.00313193       0.00180822      -0.00668370
H        0.00000000      -1.39328600      -1.69333700      -0.00000000       0.00361644       0.00668369
H       -1.20662100       0.69664300      -1.69333700       0.00313193      -0.00180822       0.00668370
H        1.20662100       0.69664300      -1.69333700      -0.00313193      -0.00180822       0.00668370
