8
Properties=species:S:1:pos:R:3:forces:R:3 calculation_type=dimer_refinement calculation_label=Si2H6/refinement_100/point_015_distance_1.97 d4_functional=B97M d4_method=b97m d4_energy_eV=-0.19825554139146329 source_geometry=/mnt/ceph/users/cwoodson/dft_calc/diatomics/dimer_jobs/Si2H6/refinement_100/point_015_distance_1.97/geometry.in energy=-0.19825554139146329 free_energy=-0.19825554139146329 pbc="F F F"
Si       0.00000000       0.00000000       0.98500000       0.00000000      -0.00000000      -0.02042904
Si       0.00000000       0.00000000      -0.98500000      -0.00000000       0.00000000       0.02042904
H        0.00000000       1.39328600       1.50333700       0.00000000      -0.00394459      -0.00671840
H       -1.20662100      -0.69664300       1.50333700       0.00341611       0.00197229      -0.00671840
H        1.20662100      -0.69664300       1.50333700      -0.00341611       0.00197229      -0.00671840
H        0.00000000      -1.39328600      -1.50333700       0.00000000       0.00394459       0.00671840
H       -1.20662100       0.69664300      -1.50333700       0.00341611      -0.00197229       0.00671840
H        1.20662100       0.69664300      -1.50333700      -0.00341611      -0.00197229       0.00671840
