2
Properties=species:S:1:pos:R:3:forces:R:3 calculation_type=dimer_refinement calculation_label=SiC/refinement_100/point_012_distance_1.24 d4_functional=B97M d4_method=b97m d4_energy_eV=-0.044614489790816836 source_geometry=/mnt/ceph/users/cwoodson/dft_calc/diatomics/dimer_jobs/SiC/refinement_100/point_012_distance_1.24/geometry.in energy=-0.044614489790816836 free_energy=-0.044614489790816836 pbc="F F F"
Si       0.00000000       0.00000000      -0.62000000      -0.00000000      -0.00000000       0.00229304
C        0.00000000       0.00000000       0.62000000      -0.00000000      -0.00000000      -0.00229304
